% Numberlink Puzzle
% # Numberlink Puzzle
% # Author: Otto Janko
% # Source: http://www.janko.at/Raetsel/
% # URL: http://www.janko.at/Raetsel/Arukone/110.a.htm
% size 42 25
%  -  -  -  -  -  -  -  -  -  -  -  -  -  -  -  -  -  -  -  -  -  -  -  -  -  -  -  -  -  -  -  -  -  -  -  -  -  -  -  -  -  1
%  -  -  -  -  -  -  -  -  -  -  -  -  - 12  -  -  -  -  -  -  -  -  -  -  -  -  -  -  -  -  -  - 25  -  -  -  -  -  -  -  -  -
%  -  -  5  -  -  -  -  -  -  -  -  -  - 10  - 17 62  - 56 61 60 18  -  -  -  -  -  - 50  -  -  -  -  -  -  - 49  - 39  -  -  -
%  -  -  -  -  -  -  -  -  -  -  -  -  -  -  -  -  -  - 61  -  -  -  - 34  -  -  -  -  -  -  - 59  -  -  -  -  -  -  - 24  -  -
%  -  -  -  -  -  -  -  -  -  -  -  -  -  -  -  - 62 15 60  -  -  -  -  -  - 56  -  -  - 46  - 47  -  -  -  -  -  -  -  - 49  -
%  -  -  -  -  - 14  -  -  -  -  -  -  -  - 16 19 18  -  -  -  -  -  -  -  - 33  -  -  -  -  -  - 59  -  -  -  -  -  -  -  -  -
%  -  -  -  4  - 13  -  -  -  -  -  -  -  - 17  -  -  -  -  - 55 53  - 34  - 35  -  -  -  - 48  -  -  -  -  -  -  -  -  -  -  -
%  -  -  -  -  -  7  -  -  -  -  -  -  -  -  -  - 13  -  -  - 54  -  - 33  - 57  -  -  -  -  -  -  -  -  -  -  -  -  -  -  -  -
%  -  -  -  -  - 12  -  -  -  -  -  -  -  -  3 41 42  -  -  - 53  - 52 32  -  -  -  -  - 57  -  -  -  -  -  -  - 47  -  -  -  -
%  -  -  -  -  - 11  -  -  -  -  -  -  -  -  -  -  -  -  -  -  -  -  -  -  -  - 35  -  -  -  -  - 45  -  -  - 58  -  -  -  -  -
%  -  -  -  -  - 10  -  -  -  -  -  -  -  -  -  -  -  -  - 55  -  -  -  - 21  -  -  - 51  -  -  -  - 26  -  - 46  -  -  -  -  -
%  -  -  -  -  -  - 11  5  -  -  -  -  -  -  -  -  -  -  - 19 54  -  -  -  -  -  -  -  -  -  -  -  -  -  - 58  -  -  -  -  -  -
%  -  -  -  -  -  -  -  -  -  -  -  -  -  -  -  -  -  -  - 52  -  -  -  -  -  -  -  -  -  -  -  -  -  -  -  -  -  -  -  -  -  -
%  -  -  -  -  -  -  -  -  -  -  -  -  -  -  -  -  -  -  -  -  - 42  -  -  -  -  -  -  - 29 45  -  -  -  -  -  -  -  -  -  -  -
%  -  -  -  -  -  9  8  6  -  -  - 16  -  -  -  -  -  -  -  -  -  -  - 32 51  -  -  -  -  -  -  -  -  -  -  - 28  -  -  -  -  -
%  -  -  -  -  -  8  -  -  -  -  -  -  -  -  -  -  - 36  -  - 38  -  -  - 44 50  - 30  -  -  -  -  -  -  -  - 27  -  -  -  -  -
%  -  -  -  -  -  -  7  -  -  -  -  -  -  -  -  -  -  - 41 22  - 22  -  -  - 43 23 31  -  -  -  -  -  -  -  - 26  -  -  -  -  -
%  -  -  -  -  -  6  -  -  -  -  -  -  -  -  -  -  -  - 36  -  - 21  -  -  - 27  -  -  -  -  -  -  -  -  -  - 25  -  -  -  -  -
%  -  -  -  -  -  -  -  -  9 15  -  - 14  -  -  -  -  - 37  - 20 44  -  -  -  -  - 43  - 31  -  -  -  -  -  - 24  -  -  -  -  -
%  -  -  -  -  -  -  -  -  -  -  -  -  -  -  -  -  -  -  -  -  -  -  -  - 38 39 40 28  - 30  -  -  -  -  -  - 23  -  -  -  -  -
%  -  2  -  -  -  -  -  -  -  -  -  -  -  -  -  4  -  -  -  - 20  - 37  - 48  -  -  -  - 29  -  -  -  -  -  -  -  -  -  -  -  -
%  -  -  3  -  -  -  -  -  -  -  -  -  -  -  -  -  -  -  -  -  -  -  -  -  -  -  -  -  -  -  -  -  -  -  -  -  -  -  -  -  -  -
%  -  -  -  2  -  -  -  -  -  -  -  -  -  -  -  -  -  -  -  -  -  -  -  -  - 40  -  -  -  -  -  -  -  -  -  -  -  -  -  -  -  -
%  -  -  -  -  -  -  -  -  -  -  -  -  -  -  -  -  -  -  -  -  -  -  -  -  -  -  -  -  -  -  -  -  -  -  -  -  -  -  -  -  -  -
%  1  -  -  -  -  -  -  -  -  -  -  -  -  -  -  -  -  -  -  -  -  -  -  -  -  -  -  -  -  -  -  -  -  -  -  -  -  -  -  -  -  -
node(v_0_0).
node(v_0_1).
node(v_0_2).
node(v_0_3).
node(v_0_4).
node(v_0_5).
node(v_0_6).
node(v_0_7).
node(v_0_8).
node(v_0_9).
node(v_0_10).
node(v_0_11).
node(v_0_12).
node(v_0_13).
node(v_0_14).
node(v_0_15).
node(v_0_16).
node(v_0_17).
node(v_0_18).
node(v_0_19).
node(v_0_20).
node(v_0_21).
node(v_0_22).
node(v_0_23).
node(v_0_24).
node(v_0_25).
node(v_0_26).
node(v_0_27).
node(v_0_28).
node(v_0_29).
node(v_0_30).
node(v_0_31).
node(v_0_32).
node(v_0_33).
node(v_0_34).
node(v_0_35).
node(v_0_36).
node(v_0_37).
node(v_0_38).
node(v_0_39).
node(v_0_40).
node(v_0_41).
node(v_1_0).
node(v_1_1).
node(v_1_2).
node(v_1_3).
node(v_1_4).
node(v_1_5).
node(v_1_6).
node(v_1_7).
node(v_1_8).
node(v_1_9).
node(v_1_10).
node(v_1_11).
node(v_1_12).
node(v_1_13).
node(v_1_14).
node(v_1_15).
node(v_1_16).
node(v_1_17).
node(v_1_18).
node(v_1_19).
node(v_1_20).
node(v_1_21).
node(v_1_22).
node(v_1_23).
node(v_1_24).
node(v_1_25).
node(v_1_26).
node(v_1_27).
node(v_1_28).
node(v_1_29).
node(v_1_30).
node(v_1_31).
node(v_1_32).
node(v_1_33).
node(v_1_34).
node(v_1_35).
node(v_1_36).
node(v_1_37).
node(v_1_38).
node(v_1_39).
node(v_1_40).
node(v_1_41).
node(v_2_0).
node(v_2_1).
node(v_2_2).
node(v_2_3).
node(v_2_4).
node(v_2_5).
node(v_2_6).
node(v_2_7).
node(v_2_8).
node(v_2_9).
node(v_2_10).
node(v_2_11).
node(v_2_12).
node(v_2_13).
node(v_2_14).
node(v_2_15).
node(v_2_16).
node(v_2_17).
node(v_2_18).
node(v_2_19).
node(v_2_20).
node(v_2_21).
node(v_2_22).
node(v_2_23).
node(v_2_24).
node(v_2_25).
node(v_2_26).
node(v_2_27).
node(v_2_28).
node(v_2_29).
node(v_2_30).
node(v_2_31).
node(v_2_32).
node(v_2_33).
node(v_2_34).
node(v_2_35).
node(v_2_36).
node(v_2_37).
node(v_2_38).
node(v_2_39).
node(v_2_40).
node(v_2_41).
node(v_3_0).
node(v_3_1).
node(v_3_2).
node(v_3_3).
node(v_3_4).
node(v_3_5).
node(v_3_6).
node(v_3_7).
node(v_3_8).
node(v_3_9).
node(v_3_10).
node(v_3_11).
node(v_3_12).
node(v_3_13).
node(v_3_14).
node(v_3_15).
node(v_3_16).
node(v_3_17).
node(v_3_18).
node(v_3_19).
node(v_3_20).
node(v_3_21).
node(v_3_22).
node(v_3_23).
node(v_3_24).
node(v_3_25).
node(v_3_26).
node(v_3_27).
node(v_3_28).
node(v_3_29).
node(v_3_30).
node(v_3_31).
node(v_3_32).
node(v_3_33).
node(v_3_34).
node(v_3_35).
node(v_3_36).
node(v_3_37).
node(v_3_38).
node(v_3_39).
node(v_3_40).
node(v_3_41).
node(v_4_0).
node(v_4_1).
node(v_4_2).
node(v_4_3).
node(v_4_4).
node(v_4_5).
node(v_4_6).
node(v_4_7).
node(v_4_8).
node(v_4_9).
node(v_4_10).
node(v_4_11).
node(v_4_12).
node(v_4_13).
node(v_4_14).
node(v_4_15).
node(v_4_16).
node(v_4_17).
node(v_4_18).
node(v_4_19).
node(v_4_20).
node(v_4_21).
node(v_4_22).
node(v_4_23).
node(v_4_24).
node(v_4_25).
node(v_4_26).
node(v_4_27).
node(v_4_28).
node(v_4_29).
node(v_4_30).
node(v_4_31).
node(v_4_32).
node(v_4_33).
node(v_4_34).
node(v_4_35).
node(v_4_36).
node(v_4_37).
node(v_4_38).
node(v_4_39).
node(v_4_40).
node(v_4_41).
node(v_5_0).
node(v_5_1).
node(v_5_2).
node(v_5_3).
node(v_5_4).
node(v_5_5).
node(v_5_6).
node(v_5_7).
node(v_5_8).
node(v_5_9).
node(v_5_10).
node(v_5_11).
node(v_5_12).
node(v_5_13).
node(v_5_14).
node(v_5_15).
node(v_5_16).
node(v_5_17).
node(v_5_18).
node(v_5_19).
node(v_5_20).
node(v_5_21).
node(v_5_22).
node(v_5_23).
node(v_5_24).
node(v_5_25).
node(v_5_26).
node(v_5_27).
node(v_5_28).
node(v_5_29).
node(v_5_30).
node(v_5_31).
node(v_5_32).
node(v_5_33).
node(v_5_34).
node(v_5_35).
node(v_5_36).
node(v_5_37).
node(v_5_38).
node(v_5_39).
node(v_5_40).
node(v_5_41).
node(v_6_0).
node(v_6_1).
node(v_6_2).
node(v_6_3).
node(v_6_4).
node(v_6_5).
node(v_6_6).
node(v_6_7).
node(v_6_8).
node(v_6_9).
node(v_6_10).
node(v_6_11).
node(v_6_12).
node(v_6_13).
node(v_6_14).
node(v_6_15).
node(v_6_16).
node(v_6_17).
node(v_6_18).
node(v_6_19).
node(v_6_20).
node(v_6_21).
node(v_6_22).
node(v_6_23).
node(v_6_24).
node(v_6_25).
node(v_6_26).
node(v_6_27).
node(v_6_28).
node(v_6_29).
node(v_6_30).
node(v_6_31).
node(v_6_32).
node(v_6_33).
node(v_6_34).
node(v_6_35).
node(v_6_36).
node(v_6_37).
node(v_6_38).
node(v_6_39).
node(v_6_40).
node(v_6_41).
node(v_7_0).
node(v_7_1).
node(v_7_2).
node(v_7_3).
node(v_7_4).
node(v_7_5).
node(v_7_6).
node(v_7_7).
node(v_7_8).
node(v_7_9).
node(v_7_10).
node(v_7_11).
node(v_7_12).
node(v_7_13).
node(v_7_14).
node(v_7_15).
node(v_7_16).
node(v_7_17).
node(v_7_18).
node(v_7_19).
node(v_7_20).
node(v_7_21).
node(v_7_22).
node(v_7_23).
node(v_7_24).
node(v_7_25).
node(v_7_26).
node(v_7_27).
node(v_7_28).
node(v_7_29).
node(v_7_30).
node(v_7_31).
node(v_7_32).
node(v_7_33).
node(v_7_34).
node(v_7_35).
node(v_7_36).
node(v_7_37).
node(v_7_38).
node(v_7_39).
node(v_7_40).
node(v_7_41).
node(v_8_0).
node(v_8_1).
node(v_8_2).
node(v_8_3).
node(v_8_4).
node(v_8_5).
node(v_8_6).
node(v_8_7).
node(v_8_8).
node(v_8_9).
node(v_8_10).
node(v_8_11).
node(v_8_12).
node(v_8_13).
node(v_8_14).
node(v_8_15).
node(v_8_16).
node(v_8_17).
node(v_8_18).
node(v_8_19).
node(v_8_20).
node(v_8_21).
node(v_8_22).
node(v_8_23).
node(v_8_24).
node(v_8_25).
node(v_8_26).
node(v_8_27).
node(v_8_28).
node(v_8_29).
node(v_8_30).
node(v_8_31).
node(v_8_32).
node(v_8_33).
node(v_8_34).
node(v_8_35).
node(v_8_36).
node(v_8_37).
node(v_8_38).
node(v_8_39).
node(v_8_40).
node(v_8_41).
node(v_9_0).
node(v_9_1).
node(v_9_2).
node(v_9_3).
node(v_9_4).
node(v_9_5).
node(v_9_6).
node(v_9_7).
node(v_9_8).
node(v_9_9).
node(v_9_10).
node(v_9_11).
node(v_9_12).
node(v_9_13).
node(v_9_14).
node(v_9_15).
node(v_9_16).
node(v_9_17).
node(v_9_18).
node(v_9_19).
node(v_9_20).
node(v_9_21).
node(v_9_22).
node(v_9_23).
node(v_9_24).
node(v_9_25).
node(v_9_26).
node(v_9_27).
node(v_9_28).
node(v_9_29).
node(v_9_30).
node(v_9_31).
node(v_9_32).
node(v_9_33).
node(v_9_34).
node(v_9_35).
node(v_9_36).
node(v_9_37).
node(v_9_38).
node(v_9_39).
node(v_9_40).
node(v_9_41).
node(v_10_0).
node(v_10_1).
node(v_10_2).
node(v_10_3).
node(v_10_4).
node(v_10_5).
node(v_10_6).
node(v_10_7).
node(v_10_8).
node(v_10_9).
node(v_10_10).
node(v_10_11).
node(v_10_12).
node(v_10_13).
node(v_10_14).
node(v_10_15).
node(v_10_16).
node(v_10_17).
node(v_10_18).
node(v_10_19).
node(v_10_20).
node(v_10_21).
node(v_10_22).
node(v_10_23).
node(v_10_24).
node(v_10_25).
node(v_10_26).
node(v_10_27).
node(v_10_28).
node(v_10_29).
node(v_10_30).
node(v_10_31).
node(v_10_32).
node(v_10_33).
node(v_10_34).
node(v_10_35).
node(v_10_36).
node(v_10_37).
node(v_10_38).
node(v_10_39).
node(v_10_40).
node(v_10_41).
node(v_11_0).
node(v_11_1).
node(v_11_2).
node(v_11_3).
node(v_11_4).
node(v_11_5).
node(v_11_6).
node(v_11_7).
node(v_11_8).
node(v_11_9).
node(v_11_10).
node(v_11_11).
node(v_11_12).
node(v_11_13).
node(v_11_14).
node(v_11_15).
node(v_11_16).
node(v_11_17).
node(v_11_18).
node(v_11_19).
node(v_11_20).
node(v_11_21).
node(v_11_22).
node(v_11_23).
node(v_11_24).
node(v_11_25).
node(v_11_26).
node(v_11_27).
node(v_11_28).
node(v_11_29).
node(v_11_30).
node(v_11_31).
node(v_11_32).
node(v_11_33).
node(v_11_34).
node(v_11_35).
node(v_11_36).
node(v_11_37).
node(v_11_38).
node(v_11_39).
node(v_11_40).
node(v_11_41).
node(v_12_0).
node(v_12_1).
node(v_12_2).
node(v_12_3).
node(v_12_4).
node(v_12_5).
node(v_12_6).
node(v_12_7).
node(v_12_8).
node(v_12_9).
node(v_12_10).
node(v_12_11).
node(v_12_12).
node(v_12_13).
node(v_12_14).
node(v_12_15).
node(v_12_16).
node(v_12_17).
node(v_12_18).
node(v_12_19).
node(v_12_20).
node(v_12_21).
node(v_12_22).
node(v_12_23).
node(v_12_24).
node(v_12_25).
node(v_12_26).
node(v_12_27).
node(v_12_28).
node(v_12_29).
node(v_12_30).
node(v_12_31).
node(v_12_32).
node(v_12_33).
node(v_12_34).
node(v_12_35).
node(v_12_36).
node(v_12_37).
node(v_12_38).
node(v_12_39).
node(v_12_40).
node(v_12_41).
node(v_13_0).
node(v_13_1).
node(v_13_2).
node(v_13_3).
node(v_13_4).
node(v_13_5).
node(v_13_6).
node(v_13_7).
node(v_13_8).
node(v_13_9).
node(v_13_10).
node(v_13_11).
node(v_13_12).
node(v_13_13).
node(v_13_14).
node(v_13_15).
node(v_13_16).
node(v_13_17).
node(v_13_18).
node(v_13_19).
node(v_13_20).
node(v_13_21).
node(v_13_22).
node(v_13_23).
node(v_13_24).
node(v_13_25).
node(v_13_26).
node(v_13_27).
node(v_13_28).
node(v_13_29).
node(v_13_30).
node(v_13_31).
node(v_13_32).
node(v_13_33).
node(v_13_34).
node(v_13_35).
node(v_13_36).
node(v_13_37).
node(v_13_38).
node(v_13_39).
node(v_13_40).
node(v_13_41).
node(v_14_0).
node(v_14_1).
node(v_14_2).
node(v_14_3).
node(v_14_4).
node(v_14_5).
node(v_14_6).
node(v_14_7).
node(v_14_8).
node(v_14_9).
node(v_14_10).
node(v_14_11).
node(v_14_12).
node(v_14_13).
node(v_14_14).
node(v_14_15).
node(v_14_16).
node(v_14_17).
node(v_14_18).
node(v_14_19).
node(v_14_20).
node(v_14_21).
node(v_14_22).
node(v_14_23).
node(v_14_24).
node(v_14_25).
node(v_14_26).
node(v_14_27).
node(v_14_28).
node(v_14_29).
node(v_14_30).
node(v_14_31).
node(v_14_32).
node(v_14_33).
node(v_14_34).
node(v_14_35).
node(v_14_36).
node(v_14_37).
node(v_14_38).
node(v_14_39).
node(v_14_40).
node(v_14_41).
node(v_15_0).
node(v_15_1).
node(v_15_2).
node(v_15_3).
node(v_15_4).
node(v_15_5).
node(v_15_6).
node(v_15_7).
node(v_15_8).
node(v_15_9).
node(v_15_10).
node(v_15_11).
node(v_15_12).
node(v_15_13).
node(v_15_14).
node(v_15_15).
node(v_15_16).
node(v_15_17).
node(v_15_18).
node(v_15_19).
node(v_15_20).
node(v_15_21).
node(v_15_22).
node(v_15_23).
node(v_15_24).
node(v_15_25).
node(v_15_26).
node(v_15_27).
node(v_15_28).
node(v_15_29).
node(v_15_30).
node(v_15_31).
node(v_15_32).
node(v_15_33).
node(v_15_34).
node(v_15_35).
node(v_15_36).
node(v_15_37).
node(v_15_38).
node(v_15_39).
node(v_15_40).
node(v_15_41).
node(v_16_0).
node(v_16_1).
node(v_16_2).
node(v_16_3).
node(v_16_4).
node(v_16_5).
node(v_16_6).
node(v_16_7).
node(v_16_8).
node(v_16_9).
node(v_16_10).
node(v_16_11).
node(v_16_12).
node(v_16_13).
node(v_16_14).
node(v_16_15).
node(v_16_16).
node(v_16_17).
node(v_16_18).
node(v_16_19).
node(v_16_20).
node(v_16_21).
node(v_16_22).
node(v_16_23).
node(v_16_24).
node(v_16_25).
node(v_16_26).
node(v_16_27).
node(v_16_28).
node(v_16_29).
node(v_16_30).
node(v_16_31).
node(v_16_32).
node(v_16_33).
node(v_16_34).
node(v_16_35).
node(v_16_36).
node(v_16_37).
node(v_16_38).
node(v_16_39).
node(v_16_40).
node(v_16_41).
node(v_17_0).
node(v_17_1).
node(v_17_2).
node(v_17_3).
node(v_17_4).
node(v_17_5).
node(v_17_6).
node(v_17_7).
node(v_17_8).
node(v_17_9).
node(v_17_10).
node(v_17_11).
node(v_17_12).
node(v_17_13).
node(v_17_14).
node(v_17_15).
node(v_17_16).
node(v_17_17).
node(v_17_18).
node(v_17_19).
node(v_17_20).
node(v_17_21).
node(v_17_22).
node(v_17_23).
node(v_17_24).
node(v_17_25).
node(v_17_26).
node(v_17_27).
node(v_17_28).
node(v_17_29).
node(v_17_30).
node(v_17_31).
node(v_17_32).
node(v_17_33).
node(v_17_34).
node(v_17_35).
node(v_17_36).
node(v_17_37).
node(v_17_38).
node(v_17_39).
node(v_17_40).
node(v_17_41).
node(v_18_0).
node(v_18_1).
node(v_18_2).
node(v_18_3).
node(v_18_4).
node(v_18_5).
node(v_18_6).
node(v_18_7).
node(v_18_8).
node(v_18_9).
node(v_18_10).
node(v_18_11).
node(v_18_12).
node(v_18_13).
node(v_18_14).
node(v_18_15).
node(v_18_16).
node(v_18_17).
node(v_18_18).
node(v_18_19).
node(v_18_20).
node(v_18_21).
node(v_18_22).
node(v_18_23).
node(v_18_24).
node(v_18_25).
node(v_18_26).
node(v_18_27).
node(v_18_28).
node(v_18_29).
node(v_18_30).
node(v_18_31).
node(v_18_32).
node(v_18_33).
node(v_18_34).
node(v_18_35).
node(v_18_36).
node(v_18_37).
node(v_18_38).
node(v_18_39).
node(v_18_40).
node(v_18_41).
node(v_19_0).
node(v_19_1).
node(v_19_2).
node(v_19_3).
node(v_19_4).
node(v_19_5).
node(v_19_6).
node(v_19_7).
node(v_19_8).
node(v_19_9).
node(v_19_10).
node(v_19_11).
node(v_19_12).
node(v_19_13).
node(v_19_14).
node(v_19_15).
node(v_19_16).
node(v_19_17).
node(v_19_18).
node(v_19_19).
node(v_19_20).
node(v_19_21).
node(v_19_22).
node(v_19_23).
node(v_19_24).
node(v_19_25).
node(v_19_26).
node(v_19_27).
node(v_19_28).
node(v_19_29).
node(v_19_30).
node(v_19_31).
node(v_19_32).
node(v_19_33).
node(v_19_34).
node(v_19_35).
node(v_19_36).
node(v_19_37).
node(v_19_38).
node(v_19_39).
node(v_19_40).
node(v_19_41).
node(v_20_0).
node(v_20_1).
node(v_20_2).
node(v_20_3).
node(v_20_4).
node(v_20_5).
node(v_20_6).
node(v_20_7).
node(v_20_8).
node(v_20_9).
node(v_20_10).
node(v_20_11).
node(v_20_12).
node(v_20_13).
node(v_20_14).
node(v_20_15).
node(v_20_16).
node(v_20_17).
node(v_20_18).
node(v_20_19).
node(v_20_20).
node(v_20_21).
node(v_20_22).
node(v_20_23).
node(v_20_24).
node(v_20_25).
node(v_20_26).
node(v_20_27).
node(v_20_28).
node(v_20_29).
node(v_20_30).
node(v_20_31).
node(v_20_32).
node(v_20_33).
node(v_20_34).
node(v_20_35).
node(v_20_36).
node(v_20_37).
node(v_20_38).
node(v_20_39).
node(v_20_40).
node(v_20_41).
node(v_21_0).
node(v_21_1).
node(v_21_2).
node(v_21_3).
node(v_21_4).
node(v_21_5).
node(v_21_6).
node(v_21_7).
node(v_21_8).
node(v_21_9).
node(v_21_10).
node(v_21_11).
node(v_21_12).
node(v_21_13).
node(v_21_14).
node(v_21_15).
node(v_21_16).
node(v_21_17).
node(v_21_18).
node(v_21_19).
node(v_21_20).
node(v_21_21).
node(v_21_22).
node(v_21_23).
node(v_21_24).
node(v_21_25).
node(v_21_26).
node(v_21_27).
node(v_21_28).
node(v_21_29).
node(v_21_30).
node(v_21_31).
node(v_21_32).
node(v_21_33).
node(v_21_34).
node(v_21_35).
node(v_21_36).
node(v_21_37).
node(v_21_38).
node(v_21_39).
node(v_21_40).
node(v_21_41).
node(v_22_0).
node(v_22_1).
node(v_22_2).
node(v_22_3).
node(v_22_4).
node(v_22_5).
node(v_22_6).
node(v_22_7).
node(v_22_8).
node(v_22_9).
node(v_22_10).
node(v_22_11).
node(v_22_12).
node(v_22_13).
node(v_22_14).
node(v_22_15).
node(v_22_16).
node(v_22_17).
node(v_22_18).
node(v_22_19).
node(v_22_20).
node(v_22_21).
node(v_22_22).
node(v_22_23).
node(v_22_24).
node(v_22_25).
node(v_22_26).
node(v_22_27).
node(v_22_28).
node(v_22_29).
node(v_22_30).
node(v_22_31).
node(v_22_32).
node(v_22_33).
node(v_22_34).
node(v_22_35).
node(v_22_36).
node(v_22_37).
node(v_22_38).
node(v_22_39).
node(v_22_40).
node(v_22_41).
node(v_23_0).
node(v_23_1).
node(v_23_2).
node(v_23_3).
node(v_23_4).
node(v_23_5).
node(v_23_6).
node(v_23_7).
node(v_23_8).
node(v_23_9).
node(v_23_10).
node(v_23_11).
node(v_23_12).
node(v_23_13).
node(v_23_14).
node(v_23_15).
node(v_23_16).
node(v_23_17).
node(v_23_18).
node(v_23_19).
node(v_23_20).
node(v_23_21).
node(v_23_22).
node(v_23_23).
node(v_23_24).
node(v_23_25).
node(v_23_26).
node(v_23_27).
node(v_23_28).
node(v_23_29).
node(v_23_30).
node(v_23_31).
node(v_23_32).
node(v_23_33).
node(v_23_34).
node(v_23_35).
node(v_23_36).
node(v_23_37).
node(v_23_38).
node(v_23_39).
node(v_23_40).
node(v_23_41).
node(v_24_0).
node(v_24_1).
node(v_24_2).
node(v_24_3).
node(v_24_4).
node(v_24_5).
node(v_24_6).
node(v_24_7).
node(v_24_8).
node(v_24_9).
node(v_24_10).
node(v_24_11).
node(v_24_12).
node(v_24_13).
node(v_24_14).
node(v_24_15).
node(v_24_16).
node(v_24_17).
node(v_24_18).
node(v_24_19).
node(v_24_20).
node(v_24_21).
node(v_24_22).
node(v_24_23).
node(v_24_24).
node(v_24_25).
node(v_24_26).
node(v_24_27).
node(v_24_28).
node(v_24_29).
node(v_24_30).
node(v_24_31).
node(v_24_32).
node(v_24_33).
node(v_24_34).
node(v_24_35).
node(v_24_36).
node(v_24_37).
node(v_24_38).
node(v_24_39).
node(v_24_40).
node(v_24_41).
edge(e_0_0_1_0, v_0_0, v_1_0).
edge(e_0_0_0_1, v_0_0, v_0_1).
edge(e_0_1_1_1, v_0_1, v_1_1).
edge(e_0_1_0_2, v_0_1, v_0_2).
edge(e_0_2_1_2, v_0_2, v_1_2).
edge(e_0_2_0_3, v_0_2, v_0_3).
edge(e_0_3_1_3, v_0_3, v_1_3).
edge(e_0_3_0_4, v_0_3, v_0_4).
edge(e_0_4_1_4, v_0_4, v_1_4).
edge(e_0_4_0_5, v_0_4, v_0_5).
edge(e_0_5_1_5, v_0_5, v_1_5).
edge(e_0_5_0_6, v_0_5, v_0_6).
edge(e_0_6_1_6, v_0_6, v_1_6).
edge(e_0_6_0_7, v_0_6, v_0_7).
edge(e_0_7_1_7, v_0_7, v_1_7).
edge(e_0_7_0_8, v_0_7, v_0_8).
edge(e_0_8_1_8, v_0_8, v_1_8).
edge(e_0_8_0_9, v_0_8, v_0_9).
edge(e_0_9_1_9, v_0_9, v_1_9).
edge(e_0_9_0_10, v_0_9, v_0_10).
edge(e_0_10_1_10, v_0_10, v_1_10).
edge(e_0_10_0_11, v_0_10, v_0_11).
edge(e_0_11_1_11, v_0_11, v_1_11).
edge(e_0_11_0_12, v_0_11, v_0_12).
edge(e_0_12_1_12, v_0_12, v_1_12).
edge(e_0_12_0_13, v_0_12, v_0_13).
edge(e_0_13_1_13, v_0_13, v_1_13).
edge(e_0_13_0_14, v_0_13, v_0_14).
edge(e_0_14_1_14, v_0_14, v_1_14).
edge(e_0_14_0_15, v_0_14, v_0_15).
edge(e_0_15_1_15, v_0_15, v_1_15).
edge(e_0_15_0_16, v_0_15, v_0_16).
edge(e_0_16_1_16, v_0_16, v_1_16).
edge(e_0_16_0_17, v_0_16, v_0_17).
edge(e_0_17_1_17, v_0_17, v_1_17).
edge(e_0_17_0_18, v_0_17, v_0_18).
edge(e_0_18_1_18, v_0_18, v_1_18).
edge(e_0_18_0_19, v_0_18, v_0_19).
edge(e_0_19_1_19, v_0_19, v_1_19).
edge(e_0_19_0_20, v_0_19, v_0_20).
edge(e_0_20_1_20, v_0_20, v_1_20).
edge(e_0_20_0_21, v_0_20, v_0_21).
edge(e_0_21_1_21, v_0_21, v_1_21).
edge(e_0_21_0_22, v_0_21, v_0_22).
edge(e_0_22_1_22, v_0_22, v_1_22).
edge(e_0_22_0_23, v_0_22, v_0_23).
edge(e_0_23_1_23, v_0_23, v_1_23).
edge(e_0_23_0_24, v_0_23, v_0_24).
edge(e_0_24_1_24, v_0_24, v_1_24).
edge(e_0_24_0_25, v_0_24, v_0_25).
edge(e_0_25_1_25, v_0_25, v_1_25).
edge(e_0_25_0_26, v_0_25, v_0_26).
edge(e_0_26_1_26, v_0_26, v_1_26).
edge(e_0_26_0_27, v_0_26, v_0_27).
edge(e_0_27_1_27, v_0_27, v_1_27).
edge(e_0_27_0_28, v_0_27, v_0_28).
edge(e_0_28_1_28, v_0_28, v_1_28).
edge(e_0_28_0_29, v_0_28, v_0_29).
edge(e_0_29_1_29, v_0_29, v_1_29).
edge(e_0_29_0_30, v_0_29, v_0_30).
edge(e_0_30_1_30, v_0_30, v_1_30).
edge(e_0_30_0_31, v_0_30, v_0_31).
edge(e_0_31_1_31, v_0_31, v_1_31).
edge(e_0_31_0_32, v_0_31, v_0_32).
edge(e_0_32_1_32, v_0_32, v_1_32).
edge(e_0_32_0_33, v_0_32, v_0_33).
edge(e_0_33_1_33, v_0_33, v_1_33).
edge(e_0_33_0_34, v_0_33, v_0_34).
edge(e_0_34_1_34, v_0_34, v_1_34).
edge(e_0_34_0_35, v_0_34, v_0_35).
edge(e_0_35_1_35, v_0_35, v_1_35).
edge(e_0_35_0_36, v_0_35, v_0_36).
edge(e_0_36_1_36, v_0_36, v_1_36).
edge(e_0_36_0_37, v_0_36, v_0_37).
edge(e_0_37_1_37, v_0_37, v_1_37).
edge(e_0_37_0_38, v_0_37, v_0_38).
edge(e_0_38_1_38, v_0_38, v_1_38).
edge(e_0_38_0_39, v_0_38, v_0_39).
edge(e_0_39_1_39, v_0_39, v_1_39).
edge(e_0_39_0_40, v_0_39, v_0_40).
edge(e_0_40_1_40, v_0_40, v_1_40).
edge(e_0_40_0_41, v_0_40, v_0_41).
edge(e_0_41_1_41, v_0_41, v_1_41).
edge(e_1_0_2_0, v_1_0, v_2_0).
edge(e_1_0_1_1, v_1_0, v_1_1).
edge(e_1_1_2_1, v_1_1, v_2_1).
edge(e_1_1_1_2, v_1_1, v_1_2).
edge(e_1_2_2_2, v_1_2, v_2_2).
edge(e_1_2_1_3, v_1_2, v_1_3).
edge(e_1_3_2_3, v_1_3, v_2_3).
edge(e_1_3_1_4, v_1_3, v_1_4).
edge(e_1_4_2_4, v_1_4, v_2_4).
edge(e_1_4_1_5, v_1_4, v_1_5).
edge(e_1_5_2_5, v_1_5, v_2_5).
edge(e_1_5_1_6, v_1_5, v_1_6).
edge(e_1_6_2_6, v_1_6, v_2_6).
edge(e_1_6_1_7, v_1_6, v_1_7).
edge(e_1_7_2_7, v_1_7, v_2_7).
edge(e_1_7_1_8, v_1_7, v_1_8).
edge(e_1_8_2_8, v_1_8, v_2_8).
edge(e_1_8_1_9, v_1_8, v_1_9).
edge(e_1_9_2_9, v_1_9, v_2_9).
edge(e_1_9_1_10, v_1_9, v_1_10).
edge(e_1_10_2_10, v_1_10, v_2_10).
edge(e_1_10_1_11, v_1_10, v_1_11).
edge(e_1_11_2_11, v_1_11, v_2_11).
edge(e_1_11_1_12, v_1_11, v_1_12).
edge(e_1_12_2_12, v_1_12, v_2_12).
edge(e_1_12_1_13, v_1_12, v_1_13).
edge(e_1_13_2_13, v_1_13, v_2_13).
edge(e_1_13_1_14, v_1_13, v_1_14).
edge(e_1_14_2_14, v_1_14, v_2_14).
edge(e_1_14_1_15, v_1_14, v_1_15).
edge(e_1_15_2_15, v_1_15, v_2_15).
edge(e_1_15_1_16, v_1_15, v_1_16).
edge(e_1_16_2_16, v_1_16, v_2_16).
edge(e_1_16_1_17, v_1_16, v_1_17).
edge(e_1_17_2_17, v_1_17, v_2_17).
edge(e_1_17_1_18, v_1_17, v_1_18).
edge(e_1_18_2_18, v_1_18, v_2_18).
edge(e_1_18_1_19, v_1_18, v_1_19).
edge(e_1_19_2_19, v_1_19, v_2_19).
edge(e_1_19_1_20, v_1_19, v_1_20).
edge(e_1_20_2_20, v_1_20, v_2_20).
edge(e_1_20_1_21, v_1_20, v_1_21).
edge(e_1_21_2_21, v_1_21, v_2_21).
edge(e_1_21_1_22, v_1_21, v_1_22).
edge(e_1_22_2_22, v_1_22, v_2_22).
edge(e_1_22_1_23, v_1_22, v_1_23).
edge(e_1_23_2_23, v_1_23, v_2_23).
edge(e_1_23_1_24, v_1_23, v_1_24).
edge(e_1_24_2_24, v_1_24, v_2_24).
edge(e_1_24_1_25, v_1_24, v_1_25).
edge(e_1_25_2_25, v_1_25, v_2_25).
edge(e_1_25_1_26, v_1_25, v_1_26).
edge(e_1_26_2_26, v_1_26, v_2_26).
edge(e_1_26_1_27, v_1_26, v_1_27).
edge(e_1_27_2_27, v_1_27, v_2_27).
edge(e_1_27_1_28, v_1_27, v_1_28).
edge(e_1_28_2_28, v_1_28, v_2_28).
edge(e_1_28_1_29, v_1_28, v_1_29).
edge(e_1_29_2_29, v_1_29, v_2_29).
edge(e_1_29_1_30, v_1_29, v_1_30).
edge(e_1_30_2_30, v_1_30, v_2_30).
edge(e_1_30_1_31, v_1_30, v_1_31).
edge(e_1_31_2_31, v_1_31, v_2_31).
edge(e_1_31_1_32, v_1_31, v_1_32).
edge(e_1_32_2_32, v_1_32, v_2_32).
edge(e_1_32_1_33, v_1_32, v_1_33).
edge(e_1_33_2_33, v_1_33, v_2_33).
edge(e_1_33_1_34, v_1_33, v_1_34).
edge(e_1_34_2_34, v_1_34, v_2_34).
edge(e_1_34_1_35, v_1_34, v_1_35).
edge(e_1_35_2_35, v_1_35, v_2_35).
edge(e_1_35_1_36, v_1_35, v_1_36).
edge(e_1_36_2_36, v_1_36, v_2_36).
edge(e_1_36_1_37, v_1_36, v_1_37).
edge(e_1_37_2_37, v_1_37, v_2_37).
edge(e_1_37_1_38, v_1_37, v_1_38).
edge(e_1_38_2_38, v_1_38, v_2_38).
edge(e_1_38_1_39, v_1_38, v_1_39).
edge(e_1_39_2_39, v_1_39, v_2_39).
edge(e_1_39_1_40, v_1_39, v_1_40).
edge(e_1_40_2_40, v_1_40, v_2_40).
edge(e_1_40_1_41, v_1_40, v_1_41).
edge(e_1_41_2_41, v_1_41, v_2_41).
edge(e_2_0_3_0, v_2_0, v_3_0).
edge(e_2_0_2_1, v_2_0, v_2_1).
edge(e_2_1_3_1, v_2_1, v_3_1).
edge(e_2_1_2_2, v_2_1, v_2_2).
edge(e_2_2_3_2, v_2_2, v_3_2).
edge(e_2_2_2_3, v_2_2, v_2_3).
edge(e_2_3_3_3, v_2_3, v_3_3).
edge(e_2_3_2_4, v_2_3, v_2_4).
edge(e_2_4_3_4, v_2_4, v_3_4).
edge(e_2_4_2_5, v_2_4, v_2_5).
edge(e_2_5_3_5, v_2_5, v_3_5).
edge(e_2_5_2_6, v_2_5, v_2_6).
edge(e_2_6_3_6, v_2_6, v_3_6).
edge(e_2_6_2_7, v_2_6, v_2_7).
edge(e_2_7_3_7, v_2_7, v_3_7).
edge(e_2_7_2_8, v_2_7, v_2_8).
edge(e_2_8_3_8, v_2_8, v_3_8).
edge(e_2_8_2_9, v_2_8, v_2_9).
edge(e_2_9_3_9, v_2_9, v_3_9).
edge(e_2_9_2_10, v_2_9, v_2_10).
edge(e_2_10_3_10, v_2_10, v_3_10).
edge(e_2_10_2_11, v_2_10, v_2_11).
edge(e_2_11_3_11, v_2_11, v_3_11).
edge(e_2_11_2_12, v_2_11, v_2_12).
edge(e_2_12_3_12, v_2_12, v_3_12).
edge(e_2_12_2_13, v_2_12, v_2_13).
edge(e_2_13_3_13, v_2_13, v_3_13).
edge(e_2_13_2_14, v_2_13, v_2_14).
edge(e_2_14_3_14, v_2_14, v_3_14).
edge(e_2_14_2_15, v_2_14, v_2_15).
edge(e_2_15_3_15, v_2_15, v_3_15).
edge(e_2_15_2_16, v_2_15, v_2_16).
edge(e_2_16_3_16, v_2_16, v_3_16).
edge(e_2_16_2_17, v_2_16, v_2_17).
edge(e_2_17_3_17, v_2_17, v_3_17).
edge(e_2_17_2_18, v_2_17, v_2_18).
edge(e_2_18_3_18, v_2_18, v_3_18).
edge(e_2_18_2_19, v_2_18, v_2_19).
edge(e_2_19_3_19, v_2_19, v_3_19).
edge(e_2_19_2_20, v_2_19, v_2_20).
edge(e_2_20_3_20, v_2_20, v_3_20).
edge(e_2_20_2_21, v_2_20, v_2_21).
edge(e_2_21_3_21, v_2_21, v_3_21).
edge(e_2_21_2_22, v_2_21, v_2_22).
edge(e_2_22_3_22, v_2_22, v_3_22).
edge(e_2_22_2_23, v_2_22, v_2_23).
edge(e_2_23_3_23, v_2_23, v_3_23).
edge(e_2_23_2_24, v_2_23, v_2_24).
edge(e_2_24_3_24, v_2_24, v_3_24).
edge(e_2_24_2_25, v_2_24, v_2_25).
edge(e_2_25_3_25, v_2_25, v_3_25).
edge(e_2_25_2_26, v_2_25, v_2_26).
edge(e_2_26_3_26, v_2_26, v_3_26).
edge(e_2_26_2_27, v_2_26, v_2_27).
edge(e_2_27_3_27, v_2_27, v_3_27).
edge(e_2_27_2_28, v_2_27, v_2_28).
edge(e_2_28_3_28, v_2_28, v_3_28).
edge(e_2_28_2_29, v_2_28, v_2_29).
edge(e_2_29_3_29, v_2_29, v_3_29).
edge(e_2_29_2_30, v_2_29, v_2_30).
edge(e_2_30_3_30, v_2_30, v_3_30).
edge(e_2_30_2_31, v_2_30, v_2_31).
edge(e_2_31_3_31, v_2_31, v_3_31).
edge(e_2_31_2_32, v_2_31, v_2_32).
edge(e_2_32_3_32, v_2_32, v_3_32).
edge(e_2_32_2_33, v_2_32, v_2_33).
edge(e_2_33_3_33, v_2_33, v_3_33).
edge(e_2_33_2_34, v_2_33, v_2_34).
edge(e_2_34_3_34, v_2_34, v_3_34).
edge(e_2_34_2_35, v_2_34, v_2_35).
edge(e_2_35_3_35, v_2_35, v_3_35).
edge(e_2_35_2_36, v_2_35, v_2_36).
edge(e_2_36_3_36, v_2_36, v_3_36).
edge(e_2_36_2_37, v_2_36, v_2_37).
edge(e_2_37_3_37, v_2_37, v_3_37).
edge(e_2_37_2_38, v_2_37, v_2_38).
edge(e_2_38_3_38, v_2_38, v_3_38).
edge(e_2_38_2_39, v_2_38, v_2_39).
edge(e_2_39_3_39, v_2_39, v_3_39).
edge(e_2_39_2_40, v_2_39, v_2_40).
edge(e_2_40_3_40, v_2_40, v_3_40).
edge(e_2_40_2_41, v_2_40, v_2_41).
edge(e_2_41_3_41, v_2_41, v_3_41).
edge(e_3_0_4_0, v_3_0, v_4_0).
edge(e_3_0_3_1, v_3_0, v_3_1).
edge(e_3_1_4_1, v_3_1, v_4_1).
edge(e_3_1_3_2, v_3_1, v_3_2).
edge(e_3_2_4_2, v_3_2, v_4_2).
edge(e_3_2_3_3, v_3_2, v_3_3).
edge(e_3_3_4_3, v_3_3, v_4_3).
edge(e_3_3_3_4, v_3_3, v_3_4).
edge(e_3_4_4_4, v_3_4, v_4_4).
edge(e_3_4_3_5, v_3_4, v_3_5).
edge(e_3_5_4_5, v_3_5, v_4_5).
edge(e_3_5_3_6, v_3_5, v_3_6).
edge(e_3_6_4_6, v_3_6, v_4_6).
edge(e_3_6_3_7, v_3_6, v_3_7).
edge(e_3_7_4_7, v_3_7, v_4_7).
edge(e_3_7_3_8, v_3_7, v_3_8).
edge(e_3_8_4_8, v_3_8, v_4_8).
edge(e_3_8_3_9, v_3_8, v_3_9).
edge(e_3_9_4_9, v_3_9, v_4_9).
edge(e_3_9_3_10, v_3_9, v_3_10).
edge(e_3_10_4_10, v_3_10, v_4_10).
edge(e_3_10_3_11, v_3_10, v_3_11).
edge(e_3_11_4_11, v_3_11, v_4_11).
edge(e_3_11_3_12, v_3_11, v_3_12).
edge(e_3_12_4_12, v_3_12, v_4_12).
edge(e_3_12_3_13, v_3_12, v_3_13).
edge(e_3_13_4_13, v_3_13, v_4_13).
edge(e_3_13_3_14, v_3_13, v_3_14).
edge(e_3_14_4_14, v_3_14, v_4_14).
edge(e_3_14_3_15, v_3_14, v_3_15).
edge(e_3_15_4_15, v_3_15, v_4_15).
edge(e_3_15_3_16, v_3_15, v_3_16).
edge(e_3_16_4_16, v_3_16, v_4_16).
edge(e_3_16_3_17, v_3_16, v_3_17).
edge(e_3_17_4_17, v_3_17, v_4_17).
edge(e_3_17_3_18, v_3_17, v_3_18).
edge(e_3_18_4_18, v_3_18, v_4_18).
edge(e_3_18_3_19, v_3_18, v_3_19).
edge(e_3_19_4_19, v_3_19, v_4_19).
edge(e_3_19_3_20, v_3_19, v_3_20).
edge(e_3_20_4_20, v_3_20, v_4_20).
edge(e_3_20_3_21, v_3_20, v_3_21).
edge(e_3_21_4_21, v_3_21, v_4_21).
edge(e_3_21_3_22, v_3_21, v_3_22).
edge(e_3_22_4_22, v_3_22, v_4_22).
edge(e_3_22_3_23, v_3_22, v_3_23).
edge(e_3_23_4_23, v_3_23, v_4_23).
edge(e_3_23_3_24, v_3_23, v_3_24).
edge(e_3_24_4_24, v_3_24, v_4_24).
edge(e_3_24_3_25, v_3_24, v_3_25).
edge(e_3_25_4_25, v_3_25, v_4_25).
edge(e_3_25_3_26, v_3_25, v_3_26).
edge(e_3_26_4_26, v_3_26, v_4_26).
edge(e_3_26_3_27, v_3_26, v_3_27).
edge(e_3_27_4_27, v_3_27, v_4_27).
edge(e_3_27_3_28, v_3_27, v_3_28).
edge(e_3_28_4_28, v_3_28, v_4_28).
edge(e_3_28_3_29, v_3_28, v_3_29).
edge(e_3_29_4_29, v_3_29, v_4_29).
edge(e_3_29_3_30, v_3_29, v_3_30).
edge(e_3_30_4_30, v_3_30, v_4_30).
edge(e_3_30_3_31, v_3_30, v_3_31).
edge(e_3_31_4_31, v_3_31, v_4_31).
edge(e_3_31_3_32, v_3_31, v_3_32).
edge(e_3_32_4_32, v_3_32, v_4_32).
edge(e_3_32_3_33, v_3_32, v_3_33).
edge(e_3_33_4_33, v_3_33, v_4_33).
edge(e_3_33_3_34, v_3_33, v_3_34).
edge(e_3_34_4_34, v_3_34, v_4_34).
edge(e_3_34_3_35, v_3_34, v_3_35).
edge(e_3_35_4_35, v_3_35, v_4_35).
edge(e_3_35_3_36, v_3_35, v_3_36).
edge(e_3_36_4_36, v_3_36, v_4_36).
edge(e_3_36_3_37, v_3_36, v_3_37).
edge(e_3_37_4_37, v_3_37, v_4_37).
edge(e_3_37_3_38, v_3_37, v_3_38).
edge(e_3_38_4_38, v_3_38, v_4_38).
edge(e_3_38_3_39, v_3_38, v_3_39).
edge(e_3_39_4_39, v_3_39, v_4_39).
edge(e_3_39_3_40, v_3_39, v_3_40).
edge(e_3_40_4_40, v_3_40, v_4_40).
edge(e_3_40_3_41, v_3_40, v_3_41).
edge(e_3_41_4_41, v_3_41, v_4_41).
edge(e_4_0_5_0, v_4_0, v_5_0).
edge(e_4_0_4_1, v_4_0, v_4_1).
edge(e_4_1_5_1, v_4_1, v_5_1).
edge(e_4_1_4_2, v_4_1, v_4_2).
edge(e_4_2_5_2, v_4_2, v_5_2).
edge(e_4_2_4_3, v_4_2, v_4_3).
edge(e_4_3_5_3, v_4_3, v_5_3).
edge(e_4_3_4_4, v_4_3, v_4_4).
edge(e_4_4_5_4, v_4_4, v_5_4).
edge(e_4_4_4_5, v_4_4, v_4_5).
edge(e_4_5_5_5, v_4_5, v_5_5).
edge(e_4_5_4_6, v_4_5, v_4_6).
edge(e_4_6_5_6, v_4_6, v_5_6).
edge(e_4_6_4_7, v_4_6, v_4_7).
edge(e_4_7_5_7, v_4_7, v_5_7).
edge(e_4_7_4_8, v_4_7, v_4_8).
edge(e_4_8_5_8, v_4_8, v_5_8).
edge(e_4_8_4_9, v_4_8, v_4_9).
edge(e_4_9_5_9, v_4_9, v_5_9).
edge(e_4_9_4_10, v_4_9, v_4_10).
edge(e_4_10_5_10, v_4_10, v_5_10).
edge(e_4_10_4_11, v_4_10, v_4_11).
edge(e_4_11_5_11, v_4_11, v_5_11).
edge(e_4_11_4_12, v_4_11, v_4_12).
edge(e_4_12_5_12, v_4_12, v_5_12).
edge(e_4_12_4_13, v_4_12, v_4_13).
edge(e_4_13_5_13, v_4_13, v_5_13).
edge(e_4_13_4_14, v_4_13, v_4_14).
edge(e_4_14_5_14, v_4_14, v_5_14).
edge(e_4_14_4_15, v_4_14, v_4_15).
edge(e_4_15_5_15, v_4_15, v_5_15).
edge(e_4_15_4_16, v_4_15, v_4_16).
edge(e_4_16_5_16, v_4_16, v_5_16).
edge(e_4_16_4_17, v_4_16, v_4_17).
edge(e_4_17_5_17, v_4_17, v_5_17).
edge(e_4_17_4_18, v_4_17, v_4_18).
edge(e_4_18_5_18, v_4_18, v_5_18).
edge(e_4_18_4_19, v_4_18, v_4_19).
edge(e_4_19_5_19, v_4_19, v_5_19).
edge(e_4_19_4_20, v_4_19, v_4_20).
edge(e_4_20_5_20, v_4_20, v_5_20).
edge(e_4_20_4_21, v_4_20, v_4_21).
edge(e_4_21_5_21, v_4_21, v_5_21).
edge(e_4_21_4_22, v_4_21, v_4_22).
edge(e_4_22_5_22, v_4_22, v_5_22).
edge(e_4_22_4_23, v_4_22, v_4_23).
edge(e_4_23_5_23, v_4_23, v_5_23).
edge(e_4_23_4_24, v_4_23, v_4_24).
edge(e_4_24_5_24, v_4_24, v_5_24).
edge(e_4_24_4_25, v_4_24, v_4_25).
edge(e_4_25_5_25, v_4_25, v_5_25).
edge(e_4_25_4_26, v_4_25, v_4_26).
edge(e_4_26_5_26, v_4_26, v_5_26).
edge(e_4_26_4_27, v_4_26, v_4_27).
edge(e_4_27_5_27, v_4_27, v_5_27).
edge(e_4_27_4_28, v_4_27, v_4_28).
edge(e_4_28_5_28, v_4_28, v_5_28).
edge(e_4_28_4_29, v_4_28, v_4_29).
edge(e_4_29_5_29, v_4_29, v_5_29).
edge(e_4_29_4_30, v_4_29, v_4_30).
edge(e_4_30_5_30, v_4_30, v_5_30).
edge(e_4_30_4_31, v_4_30, v_4_31).
edge(e_4_31_5_31, v_4_31, v_5_31).
edge(e_4_31_4_32, v_4_31, v_4_32).
edge(e_4_32_5_32, v_4_32, v_5_32).
edge(e_4_32_4_33, v_4_32, v_4_33).
edge(e_4_33_5_33, v_4_33, v_5_33).
edge(e_4_33_4_34, v_4_33, v_4_34).
edge(e_4_34_5_34, v_4_34, v_5_34).
edge(e_4_34_4_35, v_4_34, v_4_35).
edge(e_4_35_5_35, v_4_35, v_5_35).
edge(e_4_35_4_36, v_4_35, v_4_36).
edge(e_4_36_5_36, v_4_36, v_5_36).
edge(e_4_36_4_37, v_4_36, v_4_37).
edge(e_4_37_5_37, v_4_37, v_5_37).
edge(e_4_37_4_38, v_4_37, v_4_38).
edge(e_4_38_5_38, v_4_38, v_5_38).
edge(e_4_38_4_39, v_4_38, v_4_39).
edge(e_4_39_5_39, v_4_39, v_5_39).
edge(e_4_39_4_40, v_4_39, v_4_40).
edge(e_4_40_5_40, v_4_40, v_5_40).
edge(e_4_40_4_41, v_4_40, v_4_41).
edge(e_4_41_5_41, v_4_41, v_5_41).
edge(e_5_0_6_0, v_5_0, v_6_0).
edge(e_5_0_5_1, v_5_0, v_5_1).
edge(e_5_1_6_1, v_5_1, v_6_1).
edge(e_5_1_5_2, v_5_1, v_5_2).
edge(e_5_2_6_2, v_5_2, v_6_2).
edge(e_5_2_5_3, v_5_2, v_5_3).
edge(e_5_3_6_3, v_5_3, v_6_3).
edge(e_5_3_5_4, v_5_3, v_5_4).
edge(e_5_4_6_4, v_5_4, v_6_4).
edge(e_5_4_5_5, v_5_4, v_5_5).
edge(e_5_5_6_5, v_5_5, v_6_5).
edge(e_5_5_5_6, v_5_5, v_5_6).
edge(e_5_6_6_6, v_5_6, v_6_6).
edge(e_5_6_5_7, v_5_6, v_5_7).
edge(e_5_7_6_7, v_5_7, v_6_7).
edge(e_5_7_5_8, v_5_7, v_5_8).
edge(e_5_8_6_8, v_5_8, v_6_8).
edge(e_5_8_5_9, v_5_8, v_5_9).
edge(e_5_9_6_9, v_5_9, v_6_9).
edge(e_5_9_5_10, v_5_9, v_5_10).
edge(e_5_10_6_10, v_5_10, v_6_10).
edge(e_5_10_5_11, v_5_10, v_5_11).
edge(e_5_11_6_11, v_5_11, v_6_11).
edge(e_5_11_5_12, v_5_11, v_5_12).
edge(e_5_12_6_12, v_5_12, v_6_12).
edge(e_5_12_5_13, v_5_12, v_5_13).
edge(e_5_13_6_13, v_5_13, v_6_13).
edge(e_5_13_5_14, v_5_13, v_5_14).
edge(e_5_14_6_14, v_5_14, v_6_14).
edge(e_5_14_5_15, v_5_14, v_5_15).
edge(e_5_15_6_15, v_5_15, v_6_15).
edge(e_5_15_5_16, v_5_15, v_5_16).
edge(e_5_16_6_16, v_5_16, v_6_16).
edge(e_5_16_5_17, v_5_16, v_5_17).
edge(e_5_17_6_17, v_5_17, v_6_17).
edge(e_5_17_5_18, v_5_17, v_5_18).
edge(e_5_18_6_18, v_5_18, v_6_18).
edge(e_5_18_5_19, v_5_18, v_5_19).
edge(e_5_19_6_19, v_5_19, v_6_19).
edge(e_5_19_5_20, v_5_19, v_5_20).
edge(e_5_20_6_20, v_5_20, v_6_20).
edge(e_5_20_5_21, v_5_20, v_5_21).
edge(e_5_21_6_21, v_5_21, v_6_21).
edge(e_5_21_5_22, v_5_21, v_5_22).
edge(e_5_22_6_22, v_5_22, v_6_22).
edge(e_5_22_5_23, v_5_22, v_5_23).
edge(e_5_23_6_23, v_5_23, v_6_23).
edge(e_5_23_5_24, v_5_23, v_5_24).
edge(e_5_24_6_24, v_5_24, v_6_24).
edge(e_5_24_5_25, v_5_24, v_5_25).
edge(e_5_25_6_25, v_5_25, v_6_25).
edge(e_5_25_5_26, v_5_25, v_5_26).
edge(e_5_26_6_26, v_5_26, v_6_26).
edge(e_5_26_5_27, v_5_26, v_5_27).
edge(e_5_27_6_27, v_5_27, v_6_27).
edge(e_5_27_5_28, v_5_27, v_5_28).
edge(e_5_28_6_28, v_5_28, v_6_28).
edge(e_5_28_5_29, v_5_28, v_5_29).
edge(e_5_29_6_29, v_5_29, v_6_29).
edge(e_5_29_5_30, v_5_29, v_5_30).
edge(e_5_30_6_30, v_5_30, v_6_30).
edge(e_5_30_5_31, v_5_30, v_5_31).
edge(e_5_31_6_31, v_5_31, v_6_31).
edge(e_5_31_5_32, v_5_31, v_5_32).
edge(e_5_32_6_32, v_5_32, v_6_32).
edge(e_5_32_5_33, v_5_32, v_5_33).
edge(e_5_33_6_33, v_5_33, v_6_33).
edge(e_5_33_5_34, v_5_33, v_5_34).
edge(e_5_34_6_34, v_5_34, v_6_34).
edge(e_5_34_5_35, v_5_34, v_5_35).
edge(e_5_35_6_35, v_5_35, v_6_35).
edge(e_5_35_5_36, v_5_35, v_5_36).
edge(e_5_36_6_36, v_5_36, v_6_36).
edge(e_5_36_5_37, v_5_36, v_5_37).
edge(e_5_37_6_37, v_5_37, v_6_37).
edge(e_5_37_5_38, v_5_37, v_5_38).
edge(e_5_38_6_38, v_5_38, v_6_38).
edge(e_5_38_5_39, v_5_38, v_5_39).
edge(e_5_39_6_39, v_5_39, v_6_39).
edge(e_5_39_5_40, v_5_39, v_5_40).
edge(e_5_40_6_40, v_5_40, v_6_40).
edge(e_5_40_5_41, v_5_40, v_5_41).
edge(e_5_41_6_41, v_5_41, v_6_41).
edge(e_6_0_7_0, v_6_0, v_7_0).
edge(e_6_0_6_1, v_6_0, v_6_1).
edge(e_6_1_7_1, v_6_1, v_7_1).
edge(e_6_1_6_2, v_6_1, v_6_2).
edge(e_6_2_7_2, v_6_2, v_7_2).
edge(e_6_2_6_3, v_6_2, v_6_3).
edge(e_6_3_7_3, v_6_3, v_7_3).
edge(e_6_3_6_4, v_6_3, v_6_4).
edge(e_6_4_7_4, v_6_4, v_7_4).
edge(e_6_4_6_5, v_6_4, v_6_5).
edge(e_6_5_7_5, v_6_5, v_7_5).
edge(e_6_5_6_6, v_6_5, v_6_6).
edge(e_6_6_7_6, v_6_6, v_7_6).
edge(e_6_6_6_7, v_6_6, v_6_7).
edge(e_6_7_7_7, v_6_7, v_7_7).
edge(e_6_7_6_8, v_6_7, v_6_8).
edge(e_6_8_7_8, v_6_8, v_7_8).
edge(e_6_8_6_9, v_6_8, v_6_9).
edge(e_6_9_7_9, v_6_9, v_7_9).
edge(e_6_9_6_10, v_6_9, v_6_10).
edge(e_6_10_7_10, v_6_10, v_7_10).
edge(e_6_10_6_11, v_6_10, v_6_11).
edge(e_6_11_7_11, v_6_11, v_7_11).
edge(e_6_11_6_12, v_6_11, v_6_12).
edge(e_6_12_7_12, v_6_12, v_7_12).
edge(e_6_12_6_13, v_6_12, v_6_13).
edge(e_6_13_7_13, v_6_13, v_7_13).
edge(e_6_13_6_14, v_6_13, v_6_14).
edge(e_6_14_7_14, v_6_14, v_7_14).
edge(e_6_14_6_15, v_6_14, v_6_15).
edge(e_6_15_7_15, v_6_15, v_7_15).
edge(e_6_15_6_16, v_6_15, v_6_16).
edge(e_6_16_7_16, v_6_16, v_7_16).
edge(e_6_16_6_17, v_6_16, v_6_17).
edge(e_6_17_7_17, v_6_17, v_7_17).
edge(e_6_17_6_18, v_6_17, v_6_18).
edge(e_6_18_7_18, v_6_18, v_7_18).
edge(e_6_18_6_19, v_6_18, v_6_19).
edge(e_6_19_7_19, v_6_19, v_7_19).
edge(e_6_19_6_20, v_6_19, v_6_20).
edge(e_6_20_7_20, v_6_20, v_7_20).
edge(e_6_20_6_21, v_6_20, v_6_21).
edge(e_6_21_7_21, v_6_21, v_7_21).
edge(e_6_21_6_22, v_6_21, v_6_22).
edge(e_6_22_7_22, v_6_22, v_7_22).
edge(e_6_22_6_23, v_6_22, v_6_23).
edge(e_6_23_7_23, v_6_23, v_7_23).
edge(e_6_23_6_24, v_6_23, v_6_24).
edge(e_6_24_7_24, v_6_24, v_7_24).
edge(e_6_24_6_25, v_6_24, v_6_25).
edge(e_6_25_7_25, v_6_25, v_7_25).
edge(e_6_25_6_26, v_6_25, v_6_26).
edge(e_6_26_7_26, v_6_26, v_7_26).
edge(e_6_26_6_27, v_6_26, v_6_27).
edge(e_6_27_7_27, v_6_27, v_7_27).
edge(e_6_27_6_28, v_6_27, v_6_28).
edge(e_6_28_7_28, v_6_28, v_7_28).
edge(e_6_28_6_29, v_6_28, v_6_29).
edge(e_6_29_7_29, v_6_29, v_7_29).
edge(e_6_29_6_30, v_6_29, v_6_30).
edge(e_6_30_7_30, v_6_30, v_7_30).
edge(e_6_30_6_31, v_6_30, v_6_31).
edge(e_6_31_7_31, v_6_31, v_7_31).
edge(e_6_31_6_32, v_6_31, v_6_32).
edge(e_6_32_7_32, v_6_32, v_7_32).
edge(e_6_32_6_33, v_6_32, v_6_33).
edge(e_6_33_7_33, v_6_33, v_7_33).
edge(e_6_33_6_34, v_6_33, v_6_34).
edge(e_6_34_7_34, v_6_34, v_7_34).
edge(e_6_34_6_35, v_6_34, v_6_35).
edge(e_6_35_7_35, v_6_35, v_7_35).
edge(e_6_35_6_36, v_6_35, v_6_36).
edge(e_6_36_7_36, v_6_36, v_7_36).
edge(e_6_36_6_37, v_6_36, v_6_37).
edge(e_6_37_7_37, v_6_37, v_7_37).
edge(e_6_37_6_38, v_6_37, v_6_38).
edge(e_6_38_7_38, v_6_38, v_7_38).
edge(e_6_38_6_39, v_6_38, v_6_39).
edge(e_6_39_7_39, v_6_39, v_7_39).
edge(e_6_39_6_40, v_6_39, v_6_40).
edge(e_6_40_7_40, v_6_40, v_7_40).
edge(e_6_40_6_41, v_6_40, v_6_41).
edge(e_6_41_7_41, v_6_41, v_7_41).
edge(e_7_0_8_0, v_7_0, v_8_0).
edge(e_7_0_7_1, v_7_0, v_7_1).
edge(e_7_1_8_1, v_7_1, v_8_1).
edge(e_7_1_7_2, v_7_1, v_7_2).
edge(e_7_2_8_2, v_7_2, v_8_2).
edge(e_7_2_7_3, v_7_2, v_7_3).
edge(e_7_3_8_3, v_7_3, v_8_3).
edge(e_7_3_7_4, v_7_3, v_7_4).
edge(e_7_4_8_4, v_7_4, v_8_4).
edge(e_7_4_7_5, v_7_4, v_7_5).
edge(e_7_5_8_5, v_7_5, v_8_5).
edge(e_7_5_7_6, v_7_5, v_7_6).
edge(e_7_6_8_6, v_7_6, v_8_6).
edge(e_7_6_7_7, v_7_6, v_7_7).
edge(e_7_7_8_7, v_7_7, v_8_7).
edge(e_7_7_7_8, v_7_7, v_7_8).
edge(e_7_8_8_8, v_7_8, v_8_8).
edge(e_7_8_7_9, v_7_8, v_7_9).
edge(e_7_9_8_9, v_7_9, v_8_9).
edge(e_7_9_7_10, v_7_9, v_7_10).
edge(e_7_10_8_10, v_7_10, v_8_10).
edge(e_7_10_7_11, v_7_10, v_7_11).
edge(e_7_11_8_11, v_7_11, v_8_11).
edge(e_7_11_7_12, v_7_11, v_7_12).
edge(e_7_12_8_12, v_7_12, v_8_12).
edge(e_7_12_7_13, v_7_12, v_7_13).
edge(e_7_13_8_13, v_7_13, v_8_13).
edge(e_7_13_7_14, v_7_13, v_7_14).
edge(e_7_14_8_14, v_7_14, v_8_14).
edge(e_7_14_7_15, v_7_14, v_7_15).
edge(e_7_15_8_15, v_7_15, v_8_15).
edge(e_7_15_7_16, v_7_15, v_7_16).
edge(e_7_16_8_16, v_7_16, v_8_16).
edge(e_7_16_7_17, v_7_16, v_7_17).
edge(e_7_17_8_17, v_7_17, v_8_17).
edge(e_7_17_7_18, v_7_17, v_7_18).
edge(e_7_18_8_18, v_7_18, v_8_18).
edge(e_7_18_7_19, v_7_18, v_7_19).
edge(e_7_19_8_19, v_7_19, v_8_19).
edge(e_7_19_7_20, v_7_19, v_7_20).
edge(e_7_20_8_20, v_7_20, v_8_20).
edge(e_7_20_7_21, v_7_20, v_7_21).
edge(e_7_21_8_21, v_7_21, v_8_21).
edge(e_7_21_7_22, v_7_21, v_7_22).
edge(e_7_22_8_22, v_7_22, v_8_22).
edge(e_7_22_7_23, v_7_22, v_7_23).
edge(e_7_23_8_23, v_7_23, v_8_23).
edge(e_7_23_7_24, v_7_23, v_7_24).
edge(e_7_24_8_24, v_7_24, v_8_24).
edge(e_7_24_7_25, v_7_24, v_7_25).
edge(e_7_25_8_25, v_7_25, v_8_25).
edge(e_7_25_7_26, v_7_25, v_7_26).
edge(e_7_26_8_26, v_7_26, v_8_26).
edge(e_7_26_7_27, v_7_26, v_7_27).
edge(e_7_27_8_27, v_7_27, v_8_27).
edge(e_7_27_7_28, v_7_27, v_7_28).
edge(e_7_28_8_28, v_7_28, v_8_28).
edge(e_7_28_7_29, v_7_28, v_7_29).
edge(e_7_29_8_29, v_7_29, v_8_29).
edge(e_7_29_7_30, v_7_29, v_7_30).
edge(e_7_30_8_30, v_7_30, v_8_30).
edge(e_7_30_7_31, v_7_30, v_7_31).
edge(e_7_31_8_31, v_7_31, v_8_31).
edge(e_7_31_7_32, v_7_31, v_7_32).
edge(e_7_32_8_32, v_7_32, v_8_32).
edge(e_7_32_7_33, v_7_32, v_7_33).
edge(e_7_33_8_33, v_7_33, v_8_33).
edge(e_7_33_7_34, v_7_33, v_7_34).
edge(e_7_34_8_34, v_7_34, v_8_34).
edge(e_7_34_7_35, v_7_34, v_7_35).
edge(e_7_35_8_35, v_7_35, v_8_35).
edge(e_7_35_7_36, v_7_35, v_7_36).
edge(e_7_36_8_36, v_7_36, v_8_36).
edge(e_7_36_7_37, v_7_36, v_7_37).
edge(e_7_37_8_37, v_7_37, v_8_37).
edge(e_7_37_7_38, v_7_37, v_7_38).
edge(e_7_38_8_38, v_7_38, v_8_38).
edge(e_7_38_7_39, v_7_38, v_7_39).
edge(e_7_39_8_39, v_7_39, v_8_39).
edge(e_7_39_7_40, v_7_39, v_7_40).
edge(e_7_40_8_40, v_7_40, v_8_40).
edge(e_7_40_7_41, v_7_40, v_7_41).
edge(e_7_41_8_41, v_7_41, v_8_41).
edge(e_8_0_9_0, v_8_0, v_9_0).
edge(e_8_0_8_1, v_8_0, v_8_1).
edge(e_8_1_9_1, v_8_1, v_9_1).
edge(e_8_1_8_2, v_8_1, v_8_2).
edge(e_8_2_9_2, v_8_2, v_9_2).
edge(e_8_2_8_3, v_8_2, v_8_3).
edge(e_8_3_9_3, v_8_3, v_9_3).
edge(e_8_3_8_4, v_8_3, v_8_4).
edge(e_8_4_9_4, v_8_4, v_9_4).
edge(e_8_4_8_5, v_8_4, v_8_5).
edge(e_8_5_9_5, v_8_5, v_9_5).
edge(e_8_5_8_6, v_8_5, v_8_6).
edge(e_8_6_9_6, v_8_6, v_9_6).
edge(e_8_6_8_7, v_8_6, v_8_7).
edge(e_8_7_9_7, v_8_7, v_9_7).
edge(e_8_7_8_8, v_8_7, v_8_8).
edge(e_8_8_9_8, v_8_8, v_9_8).
edge(e_8_8_8_9, v_8_8, v_8_9).
edge(e_8_9_9_9, v_8_9, v_9_9).
edge(e_8_9_8_10, v_8_9, v_8_10).
edge(e_8_10_9_10, v_8_10, v_9_10).
edge(e_8_10_8_11, v_8_10, v_8_11).
edge(e_8_11_9_11, v_8_11, v_9_11).
edge(e_8_11_8_12, v_8_11, v_8_12).
edge(e_8_12_9_12, v_8_12, v_9_12).
edge(e_8_12_8_13, v_8_12, v_8_13).
edge(e_8_13_9_13, v_8_13, v_9_13).
edge(e_8_13_8_14, v_8_13, v_8_14).
edge(e_8_14_9_14, v_8_14, v_9_14).
edge(e_8_14_8_15, v_8_14, v_8_15).
edge(e_8_15_9_15, v_8_15, v_9_15).
edge(e_8_15_8_16, v_8_15, v_8_16).
edge(e_8_16_9_16, v_8_16, v_9_16).
edge(e_8_16_8_17, v_8_16, v_8_17).
edge(e_8_17_9_17, v_8_17, v_9_17).
edge(e_8_17_8_18, v_8_17, v_8_18).
edge(e_8_18_9_18, v_8_18, v_9_18).
edge(e_8_18_8_19, v_8_18, v_8_19).
edge(e_8_19_9_19, v_8_19, v_9_19).
edge(e_8_19_8_20, v_8_19, v_8_20).
edge(e_8_20_9_20, v_8_20, v_9_20).
edge(e_8_20_8_21, v_8_20, v_8_21).
edge(e_8_21_9_21, v_8_21, v_9_21).
edge(e_8_21_8_22, v_8_21, v_8_22).
edge(e_8_22_9_22, v_8_22, v_9_22).
edge(e_8_22_8_23, v_8_22, v_8_23).
edge(e_8_23_9_23, v_8_23, v_9_23).
edge(e_8_23_8_24, v_8_23, v_8_24).
edge(e_8_24_9_24, v_8_24, v_9_24).
edge(e_8_24_8_25, v_8_24, v_8_25).
edge(e_8_25_9_25, v_8_25, v_9_25).
edge(e_8_25_8_26, v_8_25, v_8_26).
edge(e_8_26_9_26, v_8_26, v_9_26).
edge(e_8_26_8_27, v_8_26, v_8_27).
edge(e_8_27_9_27, v_8_27, v_9_27).
edge(e_8_27_8_28, v_8_27, v_8_28).
edge(e_8_28_9_28, v_8_28, v_9_28).
edge(e_8_28_8_29, v_8_28, v_8_29).
edge(e_8_29_9_29, v_8_29, v_9_29).
edge(e_8_29_8_30, v_8_29, v_8_30).
edge(e_8_30_9_30, v_8_30, v_9_30).
edge(e_8_30_8_31, v_8_30, v_8_31).
edge(e_8_31_9_31, v_8_31, v_9_31).
edge(e_8_31_8_32, v_8_31, v_8_32).
edge(e_8_32_9_32, v_8_32, v_9_32).
edge(e_8_32_8_33, v_8_32, v_8_33).
edge(e_8_33_9_33, v_8_33, v_9_33).
edge(e_8_33_8_34, v_8_33, v_8_34).
edge(e_8_34_9_34, v_8_34, v_9_34).
edge(e_8_34_8_35, v_8_34, v_8_35).
edge(e_8_35_9_35, v_8_35, v_9_35).
edge(e_8_35_8_36, v_8_35, v_8_36).
edge(e_8_36_9_36, v_8_36, v_9_36).
edge(e_8_36_8_37, v_8_36, v_8_37).
edge(e_8_37_9_37, v_8_37, v_9_37).
edge(e_8_37_8_38, v_8_37, v_8_38).
edge(e_8_38_9_38, v_8_38, v_9_38).
edge(e_8_38_8_39, v_8_38, v_8_39).
edge(e_8_39_9_39, v_8_39, v_9_39).
edge(e_8_39_8_40, v_8_39, v_8_40).
edge(e_8_40_9_40, v_8_40, v_9_40).
edge(e_8_40_8_41, v_8_40, v_8_41).
edge(e_8_41_9_41, v_8_41, v_9_41).
edge(e_9_0_10_0, v_9_0, v_10_0).
edge(e_9_0_9_1, v_9_0, v_9_1).
edge(e_9_1_10_1, v_9_1, v_10_1).
edge(e_9_1_9_2, v_9_1, v_9_2).
edge(e_9_2_10_2, v_9_2, v_10_2).
edge(e_9_2_9_3, v_9_2, v_9_3).
edge(e_9_3_10_3, v_9_3, v_10_3).
edge(e_9_3_9_4, v_9_3, v_9_4).
edge(e_9_4_10_4, v_9_4, v_10_4).
edge(e_9_4_9_5, v_9_4, v_9_5).
edge(e_9_5_10_5, v_9_5, v_10_5).
edge(e_9_5_9_6, v_9_5, v_9_6).
edge(e_9_6_10_6, v_9_6, v_10_6).
edge(e_9_6_9_7, v_9_6, v_9_7).
edge(e_9_7_10_7, v_9_7, v_10_7).
edge(e_9_7_9_8, v_9_7, v_9_8).
edge(e_9_8_10_8, v_9_8, v_10_8).
edge(e_9_8_9_9, v_9_8, v_9_9).
edge(e_9_9_10_9, v_9_9, v_10_9).
edge(e_9_9_9_10, v_9_9, v_9_10).
edge(e_9_10_10_10, v_9_10, v_10_10).
edge(e_9_10_9_11, v_9_10, v_9_11).
edge(e_9_11_10_11, v_9_11, v_10_11).
edge(e_9_11_9_12, v_9_11, v_9_12).
edge(e_9_12_10_12, v_9_12, v_10_12).
edge(e_9_12_9_13, v_9_12, v_9_13).
edge(e_9_13_10_13, v_9_13, v_10_13).
edge(e_9_13_9_14, v_9_13, v_9_14).
edge(e_9_14_10_14, v_9_14, v_10_14).
edge(e_9_14_9_15, v_9_14, v_9_15).
edge(e_9_15_10_15, v_9_15, v_10_15).
edge(e_9_15_9_16, v_9_15, v_9_16).
edge(e_9_16_10_16, v_9_16, v_10_16).
edge(e_9_16_9_17, v_9_16, v_9_17).
edge(e_9_17_10_17, v_9_17, v_10_17).
edge(e_9_17_9_18, v_9_17, v_9_18).
edge(e_9_18_10_18, v_9_18, v_10_18).
edge(e_9_18_9_19, v_9_18, v_9_19).
edge(e_9_19_10_19, v_9_19, v_10_19).
edge(e_9_19_9_20, v_9_19, v_9_20).
edge(e_9_20_10_20, v_9_20, v_10_20).
edge(e_9_20_9_21, v_9_20, v_9_21).
edge(e_9_21_10_21, v_9_21, v_10_21).
edge(e_9_21_9_22, v_9_21, v_9_22).
edge(e_9_22_10_22, v_9_22, v_10_22).
edge(e_9_22_9_23, v_9_22, v_9_23).
edge(e_9_23_10_23, v_9_23, v_10_23).
edge(e_9_23_9_24, v_9_23, v_9_24).
edge(e_9_24_10_24, v_9_24, v_10_24).
edge(e_9_24_9_25, v_9_24, v_9_25).
edge(e_9_25_10_25, v_9_25, v_10_25).
edge(e_9_25_9_26, v_9_25, v_9_26).
edge(e_9_26_10_26, v_9_26, v_10_26).
edge(e_9_26_9_27, v_9_26, v_9_27).
edge(e_9_27_10_27, v_9_27, v_10_27).
edge(e_9_27_9_28, v_9_27, v_9_28).
edge(e_9_28_10_28, v_9_28, v_10_28).
edge(e_9_28_9_29, v_9_28, v_9_29).
edge(e_9_29_10_29, v_9_29, v_10_29).
edge(e_9_29_9_30, v_9_29, v_9_30).
edge(e_9_30_10_30, v_9_30, v_10_30).
edge(e_9_30_9_31, v_9_30, v_9_31).
edge(e_9_31_10_31, v_9_31, v_10_31).
edge(e_9_31_9_32, v_9_31, v_9_32).
edge(e_9_32_10_32, v_9_32, v_10_32).
edge(e_9_32_9_33, v_9_32, v_9_33).
edge(e_9_33_10_33, v_9_33, v_10_33).
edge(e_9_33_9_34, v_9_33, v_9_34).
edge(e_9_34_10_34, v_9_34, v_10_34).
edge(e_9_34_9_35, v_9_34, v_9_35).
edge(e_9_35_10_35, v_9_35, v_10_35).
edge(e_9_35_9_36, v_9_35, v_9_36).
edge(e_9_36_10_36, v_9_36, v_10_36).
edge(e_9_36_9_37, v_9_36, v_9_37).
edge(e_9_37_10_37, v_9_37, v_10_37).
edge(e_9_37_9_38, v_9_37, v_9_38).
edge(e_9_38_10_38, v_9_38, v_10_38).
edge(e_9_38_9_39, v_9_38, v_9_39).
edge(e_9_39_10_39, v_9_39, v_10_39).
edge(e_9_39_9_40, v_9_39, v_9_40).
edge(e_9_40_10_40, v_9_40, v_10_40).
edge(e_9_40_9_41, v_9_40, v_9_41).
edge(e_9_41_10_41, v_9_41, v_10_41).
edge(e_10_0_11_0, v_10_0, v_11_0).
edge(e_10_0_10_1, v_10_0, v_10_1).
edge(e_10_1_11_1, v_10_1, v_11_1).
edge(e_10_1_10_2, v_10_1, v_10_2).
edge(e_10_2_11_2, v_10_2, v_11_2).
edge(e_10_2_10_3, v_10_2, v_10_3).
edge(e_10_3_11_3, v_10_3, v_11_3).
edge(e_10_3_10_4, v_10_3, v_10_4).
edge(e_10_4_11_4, v_10_4, v_11_4).
edge(e_10_4_10_5, v_10_4, v_10_5).
edge(e_10_5_11_5, v_10_5, v_11_5).
edge(e_10_5_10_6, v_10_5, v_10_6).
edge(e_10_6_11_6, v_10_6, v_11_6).
edge(e_10_6_10_7, v_10_6, v_10_7).
edge(e_10_7_11_7, v_10_7, v_11_7).
edge(e_10_7_10_8, v_10_7, v_10_8).
edge(e_10_8_11_8, v_10_8, v_11_8).
edge(e_10_8_10_9, v_10_8, v_10_9).
edge(e_10_9_11_9, v_10_9, v_11_9).
edge(e_10_9_10_10, v_10_9, v_10_10).
edge(e_10_10_11_10, v_10_10, v_11_10).
edge(e_10_10_10_11, v_10_10, v_10_11).
edge(e_10_11_11_11, v_10_11, v_11_11).
edge(e_10_11_10_12, v_10_11, v_10_12).
edge(e_10_12_11_12, v_10_12, v_11_12).
edge(e_10_12_10_13, v_10_12, v_10_13).
edge(e_10_13_11_13, v_10_13, v_11_13).
edge(e_10_13_10_14, v_10_13, v_10_14).
edge(e_10_14_11_14, v_10_14, v_11_14).
edge(e_10_14_10_15, v_10_14, v_10_15).
edge(e_10_15_11_15, v_10_15, v_11_15).
edge(e_10_15_10_16, v_10_15, v_10_16).
edge(e_10_16_11_16, v_10_16, v_11_16).
edge(e_10_16_10_17, v_10_16, v_10_17).
edge(e_10_17_11_17, v_10_17, v_11_17).
edge(e_10_17_10_18, v_10_17, v_10_18).
edge(e_10_18_11_18, v_10_18, v_11_18).
edge(e_10_18_10_19, v_10_18, v_10_19).
edge(e_10_19_11_19, v_10_19, v_11_19).
edge(e_10_19_10_20, v_10_19, v_10_20).
edge(e_10_20_11_20, v_10_20, v_11_20).
edge(e_10_20_10_21, v_10_20, v_10_21).
edge(e_10_21_11_21, v_10_21, v_11_21).
edge(e_10_21_10_22, v_10_21, v_10_22).
edge(e_10_22_11_22, v_10_22, v_11_22).
edge(e_10_22_10_23, v_10_22, v_10_23).
edge(e_10_23_11_23, v_10_23, v_11_23).
edge(e_10_23_10_24, v_10_23, v_10_24).
edge(e_10_24_11_24, v_10_24, v_11_24).
edge(e_10_24_10_25, v_10_24, v_10_25).
edge(e_10_25_11_25, v_10_25, v_11_25).
edge(e_10_25_10_26, v_10_25, v_10_26).
edge(e_10_26_11_26, v_10_26, v_11_26).
edge(e_10_26_10_27, v_10_26, v_10_27).
edge(e_10_27_11_27, v_10_27, v_11_27).
edge(e_10_27_10_28, v_10_27, v_10_28).
edge(e_10_28_11_28, v_10_28, v_11_28).
edge(e_10_28_10_29, v_10_28, v_10_29).
edge(e_10_29_11_29, v_10_29, v_11_29).
edge(e_10_29_10_30, v_10_29, v_10_30).
edge(e_10_30_11_30, v_10_30, v_11_30).
edge(e_10_30_10_31, v_10_30, v_10_31).
edge(e_10_31_11_31, v_10_31, v_11_31).
edge(e_10_31_10_32, v_10_31, v_10_32).
edge(e_10_32_11_32, v_10_32, v_11_32).
edge(e_10_32_10_33, v_10_32, v_10_33).
edge(e_10_33_11_33, v_10_33, v_11_33).
edge(e_10_33_10_34, v_10_33, v_10_34).
edge(e_10_34_11_34, v_10_34, v_11_34).
edge(e_10_34_10_35, v_10_34, v_10_35).
edge(e_10_35_11_35, v_10_35, v_11_35).
edge(e_10_35_10_36, v_10_35, v_10_36).
edge(e_10_36_11_36, v_10_36, v_11_36).
edge(e_10_36_10_37, v_10_36, v_10_37).
edge(e_10_37_11_37, v_10_37, v_11_37).
edge(e_10_37_10_38, v_10_37, v_10_38).
edge(e_10_38_11_38, v_10_38, v_11_38).
edge(e_10_38_10_39, v_10_38, v_10_39).
edge(e_10_39_11_39, v_10_39, v_11_39).
edge(e_10_39_10_40, v_10_39, v_10_40).
edge(e_10_40_11_40, v_10_40, v_11_40).
edge(e_10_40_10_41, v_10_40, v_10_41).
edge(e_10_41_11_41, v_10_41, v_11_41).
edge(e_11_0_12_0, v_11_0, v_12_0).
edge(e_11_0_11_1, v_11_0, v_11_1).
edge(e_11_1_12_1, v_11_1, v_12_1).
edge(e_11_1_11_2, v_11_1, v_11_2).
edge(e_11_2_12_2, v_11_2, v_12_2).
edge(e_11_2_11_3, v_11_2, v_11_3).
edge(e_11_3_12_3, v_11_3, v_12_3).
edge(e_11_3_11_4, v_11_3, v_11_4).
edge(e_11_4_12_4, v_11_4, v_12_4).
edge(e_11_4_11_5, v_11_4, v_11_5).
edge(e_11_5_12_5, v_11_5, v_12_5).
edge(e_11_5_11_6, v_11_5, v_11_6).
edge(e_11_6_12_6, v_11_6, v_12_6).
edge(e_11_6_11_7, v_11_6, v_11_7).
edge(e_11_7_12_7, v_11_7, v_12_7).
edge(e_11_7_11_8, v_11_7, v_11_8).
edge(e_11_8_12_8, v_11_8, v_12_8).
edge(e_11_8_11_9, v_11_8, v_11_9).
edge(e_11_9_12_9, v_11_9, v_12_9).
edge(e_11_9_11_10, v_11_9, v_11_10).
edge(e_11_10_12_10, v_11_10, v_12_10).
edge(e_11_10_11_11, v_11_10, v_11_11).
edge(e_11_11_12_11, v_11_11, v_12_11).
edge(e_11_11_11_12, v_11_11, v_11_12).
edge(e_11_12_12_12, v_11_12, v_12_12).
edge(e_11_12_11_13, v_11_12, v_11_13).
edge(e_11_13_12_13, v_11_13, v_12_13).
edge(e_11_13_11_14, v_11_13, v_11_14).
edge(e_11_14_12_14, v_11_14, v_12_14).
edge(e_11_14_11_15, v_11_14, v_11_15).
edge(e_11_15_12_15, v_11_15, v_12_15).
edge(e_11_15_11_16, v_11_15, v_11_16).
edge(e_11_16_12_16, v_11_16, v_12_16).
edge(e_11_16_11_17, v_11_16, v_11_17).
edge(e_11_17_12_17, v_11_17, v_12_17).
edge(e_11_17_11_18, v_11_17, v_11_18).
edge(e_11_18_12_18, v_11_18, v_12_18).
edge(e_11_18_11_19, v_11_18, v_11_19).
edge(e_11_19_12_19, v_11_19, v_12_19).
edge(e_11_19_11_20, v_11_19, v_11_20).
edge(e_11_20_12_20, v_11_20, v_12_20).
edge(e_11_20_11_21, v_11_20, v_11_21).
edge(e_11_21_12_21, v_11_21, v_12_21).
edge(e_11_21_11_22, v_11_21, v_11_22).
edge(e_11_22_12_22, v_11_22, v_12_22).
edge(e_11_22_11_23, v_11_22, v_11_23).
edge(e_11_23_12_23, v_11_23, v_12_23).
edge(e_11_23_11_24, v_11_23, v_11_24).
edge(e_11_24_12_24, v_11_24, v_12_24).
edge(e_11_24_11_25, v_11_24, v_11_25).
edge(e_11_25_12_25, v_11_25, v_12_25).
edge(e_11_25_11_26, v_11_25, v_11_26).
edge(e_11_26_12_26, v_11_26, v_12_26).
edge(e_11_26_11_27, v_11_26, v_11_27).
edge(e_11_27_12_27, v_11_27, v_12_27).
edge(e_11_27_11_28, v_11_27, v_11_28).
edge(e_11_28_12_28, v_11_28, v_12_28).
edge(e_11_28_11_29, v_11_28, v_11_29).
edge(e_11_29_12_29, v_11_29, v_12_29).
edge(e_11_29_11_30, v_11_29, v_11_30).
edge(e_11_30_12_30, v_11_30, v_12_30).
edge(e_11_30_11_31, v_11_30, v_11_31).
edge(e_11_31_12_31, v_11_31, v_12_31).
edge(e_11_31_11_32, v_11_31, v_11_32).
edge(e_11_32_12_32, v_11_32, v_12_32).
edge(e_11_32_11_33, v_11_32, v_11_33).
edge(e_11_33_12_33, v_11_33, v_12_33).
edge(e_11_33_11_34, v_11_33, v_11_34).
edge(e_11_34_12_34, v_11_34, v_12_34).
edge(e_11_34_11_35, v_11_34, v_11_35).
edge(e_11_35_12_35, v_11_35, v_12_35).
edge(e_11_35_11_36, v_11_35, v_11_36).
edge(e_11_36_12_36, v_11_36, v_12_36).
edge(e_11_36_11_37, v_11_36, v_11_37).
edge(e_11_37_12_37, v_11_37, v_12_37).
edge(e_11_37_11_38, v_11_37, v_11_38).
edge(e_11_38_12_38, v_11_38, v_12_38).
edge(e_11_38_11_39, v_11_38, v_11_39).
edge(e_11_39_12_39, v_11_39, v_12_39).
edge(e_11_39_11_40, v_11_39, v_11_40).
edge(e_11_40_12_40, v_11_40, v_12_40).
edge(e_11_40_11_41, v_11_40, v_11_41).
edge(e_11_41_12_41, v_11_41, v_12_41).
edge(e_12_0_13_0, v_12_0, v_13_0).
edge(e_12_0_12_1, v_12_0, v_12_1).
edge(e_12_1_13_1, v_12_1, v_13_1).
edge(e_12_1_12_2, v_12_1, v_12_2).
edge(e_12_2_13_2, v_12_2, v_13_2).
edge(e_12_2_12_3, v_12_2, v_12_3).
edge(e_12_3_13_3, v_12_3, v_13_3).
edge(e_12_3_12_4, v_12_3, v_12_4).
edge(e_12_4_13_4, v_12_4, v_13_4).
edge(e_12_4_12_5, v_12_4, v_12_5).
edge(e_12_5_13_5, v_12_5, v_13_5).
edge(e_12_5_12_6, v_12_5, v_12_6).
edge(e_12_6_13_6, v_12_6, v_13_6).
edge(e_12_6_12_7, v_12_6, v_12_7).
edge(e_12_7_13_7, v_12_7, v_13_7).
edge(e_12_7_12_8, v_12_7, v_12_8).
edge(e_12_8_13_8, v_12_8, v_13_8).
edge(e_12_8_12_9, v_12_8, v_12_9).
edge(e_12_9_13_9, v_12_9, v_13_9).
edge(e_12_9_12_10, v_12_9, v_12_10).
edge(e_12_10_13_10, v_12_10, v_13_10).
edge(e_12_10_12_11, v_12_10, v_12_11).
edge(e_12_11_13_11, v_12_11, v_13_11).
edge(e_12_11_12_12, v_12_11, v_12_12).
edge(e_12_12_13_12, v_12_12, v_13_12).
edge(e_12_12_12_13, v_12_12, v_12_13).
edge(e_12_13_13_13, v_12_13, v_13_13).
edge(e_12_13_12_14, v_12_13, v_12_14).
edge(e_12_14_13_14, v_12_14, v_13_14).
edge(e_12_14_12_15, v_12_14, v_12_15).
edge(e_12_15_13_15, v_12_15, v_13_15).
edge(e_12_15_12_16, v_12_15, v_12_16).
edge(e_12_16_13_16, v_12_16, v_13_16).
edge(e_12_16_12_17, v_12_16, v_12_17).
edge(e_12_17_13_17, v_12_17, v_13_17).
edge(e_12_17_12_18, v_12_17, v_12_18).
edge(e_12_18_13_18, v_12_18, v_13_18).
edge(e_12_18_12_19, v_12_18, v_12_19).
edge(e_12_19_13_19, v_12_19, v_13_19).
edge(e_12_19_12_20, v_12_19, v_12_20).
edge(e_12_20_13_20, v_12_20, v_13_20).
edge(e_12_20_12_21, v_12_20, v_12_21).
edge(e_12_21_13_21, v_12_21, v_13_21).
edge(e_12_21_12_22, v_12_21, v_12_22).
edge(e_12_22_13_22, v_12_22, v_13_22).
edge(e_12_22_12_23, v_12_22, v_12_23).
edge(e_12_23_13_23, v_12_23, v_13_23).
edge(e_12_23_12_24, v_12_23, v_12_24).
edge(e_12_24_13_24, v_12_24, v_13_24).
edge(e_12_24_12_25, v_12_24, v_12_25).
edge(e_12_25_13_25, v_12_25, v_13_25).
edge(e_12_25_12_26, v_12_25, v_12_26).
edge(e_12_26_13_26, v_12_26, v_13_26).
edge(e_12_26_12_27, v_12_26, v_12_27).
edge(e_12_27_13_27, v_12_27, v_13_27).
edge(e_12_27_12_28, v_12_27, v_12_28).
edge(e_12_28_13_28, v_12_28, v_13_28).
edge(e_12_28_12_29, v_12_28, v_12_29).
edge(e_12_29_13_29, v_12_29, v_13_29).
edge(e_12_29_12_30, v_12_29, v_12_30).
edge(e_12_30_13_30, v_12_30, v_13_30).
edge(e_12_30_12_31, v_12_30, v_12_31).
edge(e_12_31_13_31, v_12_31, v_13_31).
edge(e_12_31_12_32, v_12_31, v_12_32).
edge(e_12_32_13_32, v_12_32, v_13_32).
edge(e_12_32_12_33, v_12_32, v_12_33).
edge(e_12_33_13_33, v_12_33, v_13_33).
edge(e_12_33_12_34, v_12_33, v_12_34).
edge(e_12_34_13_34, v_12_34, v_13_34).
edge(e_12_34_12_35, v_12_34, v_12_35).
edge(e_12_35_13_35, v_12_35, v_13_35).
edge(e_12_35_12_36, v_12_35, v_12_36).
edge(e_12_36_13_36, v_12_36, v_13_36).
edge(e_12_36_12_37, v_12_36, v_12_37).
edge(e_12_37_13_37, v_12_37, v_13_37).
edge(e_12_37_12_38, v_12_37, v_12_38).
edge(e_12_38_13_38, v_12_38, v_13_38).
edge(e_12_38_12_39, v_12_38, v_12_39).
edge(e_12_39_13_39, v_12_39, v_13_39).
edge(e_12_39_12_40, v_12_39, v_12_40).
edge(e_12_40_13_40, v_12_40, v_13_40).
edge(e_12_40_12_41, v_12_40, v_12_41).
edge(e_12_41_13_41, v_12_41, v_13_41).
edge(e_13_0_14_0, v_13_0, v_14_0).
edge(e_13_0_13_1, v_13_0, v_13_1).
edge(e_13_1_14_1, v_13_1, v_14_1).
edge(e_13_1_13_2, v_13_1, v_13_2).
edge(e_13_2_14_2, v_13_2, v_14_2).
edge(e_13_2_13_3, v_13_2, v_13_3).
edge(e_13_3_14_3, v_13_3, v_14_3).
edge(e_13_3_13_4, v_13_3, v_13_4).
edge(e_13_4_14_4, v_13_4, v_14_4).
edge(e_13_4_13_5, v_13_4, v_13_5).
edge(e_13_5_14_5, v_13_5, v_14_5).
edge(e_13_5_13_6, v_13_5, v_13_6).
edge(e_13_6_14_6, v_13_6, v_14_6).
edge(e_13_6_13_7, v_13_6, v_13_7).
edge(e_13_7_14_7, v_13_7, v_14_7).
edge(e_13_7_13_8, v_13_7, v_13_8).
edge(e_13_8_14_8, v_13_8, v_14_8).
edge(e_13_8_13_9, v_13_8, v_13_9).
edge(e_13_9_14_9, v_13_9, v_14_9).
edge(e_13_9_13_10, v_13_9, v_13_10).
edge(e_13_10_14_10, v_13_10, v_14_10).
edge(e_13_10_13_11, v_13_10, v_13_11).
edge(e_13_11_14_11, v_13_11, v_14_11).
edge(e_13_11_13_12, v_13_11, v_13_12).
edge(e_13_12_14_12, v_13_12, v_14_12).
edge(e_13_12_13_13, v_13_12, v_13_13).
edge(e_13_13_14_13, v_13_13, v_14_13).
edge(e_13_13_13_14, v_13_13, v_13_14).
edge(e_13_14_14_14, v_13_14, v_14_14).
edge(e_13_14_13_15, v_13_14, v_13_15).
edge(e_13_15_14_15, v_13_15, v_14_15).
edge(e_13_15_13_16, v_13_15, v_13_16).
edge(e_13_16_14_16, v_13_16, v_14_16).
edge(e_13_16_13_17, v_13_16, v_13_17).
edge(e_13_17_14_17, v_13_17, v_14_17).
edge(e_13_17_13_18, v_13_17, v_13_18).
edge(e_13_18_14_18, v_13_18, v_14_18).
edge(e_13_18_13_19, v_13_18, v_13_19).
edge(e_13_19_14_19, v_13_19, v_14_19).
edge(e_13_19_13_20, v_13_19, v_13_20).
edge(e_13_20_14_20, v_13_20, v_14_20).
edge(e_13_20_13_21, v_13_20, v_13_21).
edge(e_13_21_14_21, v_13_21, v_14_21).
edge(e_13_21_13_22, v_13_21, v_13_22).
edge(e_13_22_14_22, v_13_22, v_14_22).
edge(e_13_22_13_23, v_13_22, v_13_23).
edge(e_13_23_14_23, v_13_23, v_14_23).
edge(e_13_23_13_24, v_13_23, v_13_24).
edge(e_13_24_14_24, v_13_24, v_14_24).
edge(e_13_24_13_25, v_13_24, v_13_25).
edge(e_13_25_14_25, v_13_25, v_14_25).
edge(e_13_25_13_26, v_13_25, v_13_26).
edge(e_13_26_14_26, v_13_26, v_14_26).
edge(e_13_26_13_27, v_13_26, v_13_27).
edge(e_13_27_14_27, v_13_27, v_14_27).
edge(e_13_27_13_28, v_13_27, v_13_28).
edge(e_13_28_14_28, v_13_28, v_14_28).
edge(e_13_28_13_29, v_13_28, v_13_29).
edge(e_13_29_14_29, v_13_29, v_14_29).
edge(e_13_29_13_30, v_13_29, v_13_30).
edge(e_13_30_14_30, v_13_30, v_14_30).
edge(e_13_30_13_31, v_13_30, v_13_31).
edge(e_13_31_14_31, v_13_31, v_14_31).
edge(e_13_31_13_32, v_13_31, v_13_32).
edge(e_13_32_14_32, v_13_32, v_14_32).
edge(e_13_32_13_33, v_13_32, v_13_33).
edge(e_13_33_14_33, v_13_33, v_14_33).
edge(e_13_33_13_34, v_13_33, v_13_34).
edge(e_13_34_14_34, v_13_34, v_14_34).
edge(e_13_34_13_35, v_13_34, v_13_35).
edge(e_13_35_14_35, v_13_35, v_14_35).
edge(e_13_35_13_36, v_13_35, v_13_36).
edge(e_13_36_14_36, v_13_36, v_14_36).
edge(e_13_36_13_37, v_13_36, v_13_37).
edge(e_13_37_14_37, v_13_37, v_14_37).
edge(e_13_37_13_38, v_13_37, v_13_38).
edge(e_13_38_14_38, v_13_38, v_14_38).
edge(e_13_38_13_39, v_13_38, v_13_39).
edge(e_13_39_14_39, v_13_39, v_14_39).
edge(e_13_39_13_40, v_13_39, v_13_40).
edge(e_13_40_14_40, v_13_40, v_14_40).
edge(e_13_40_13_41, v_13_40, v_13_41).
edge(e_13_41_14_41, v_13_41, v_14_41).
edge(e_14_0_15_0, v_14_0, v_15_0).
edge(e_14_0_14_1, v_14_0, v_14_1).
edge(e_14_1_15_1, v_14_1, v_15_1).
edge(e_14_1_14_2, v_14_1, v_14_2).
edge(e_14_2_15_2, v_14_2, v_15_2).
edge(e_14_2_14_3, v_14_2, v_14_3).
edge(e_14_3_15_3, v_14_3, v_15_3).
edge(e_14_3_14_4, v_14_3, v_14_4).
edge(e_14_4_15_4, v_14_4, v_15_4).
edge(e_14_4_14_5, v_14_4, v_14_5).
edge(e_14_5_15_5, v_14_5, v_15_5).
edge(e_14_5_14_6, v_14_5, v_14_6).
edge(e_14_6_15_6, v_14_6, v_15_6).
edge(e_14_6_14_7, v_14_6, v_14_7).
edge(e_14_7_15_7, v_14_7, v_15_7).
edge(e_14_7_14_8, v_14_7, v_14_8).
edge(e_14_8_15_8, v_14_8, v_15_8).
edge(e_14_8_14_9, v_14_8, v_14_9).
edge(e_14_9_15_9, v_14_9, v_15_9).
edge(e_14_9_14_10, v_14_9, v_14_10).
edge(e_14_10_15_10, v_14_10, v_15_10).
edge(e_14_10_14_11, v_14_10, v_14_11).
edge(e_14_11_15_11, v_14_11, v_15_11).
edge(e_14_11_14_12, v_14_11, v_14_12).
edge(e_14_12_15_12, v_14_12, v_15_12).
edge(e_14_12_14_13, v_14_12, v_14_13).
edge(e_14_13_15_13, v_14_13, v_15_13).
edge(e_14_13_14_14, v_14_13, v_14_14).
edge(e_14_14_15_14, v_14_14, v_15_14).
edge(e_14_14_14_15, v_14_14, v_14_15).
edge(e_14_15_15_15, v_14_15, v_15_15).
edge(e_14_15_14_16, v_14_15, v_14_16).
edge(e_14_16_15_16, v_14_16, v_15_16).
edge(e_14_16_14_17, v_14_16, v_14_17).
edge(e_14_17_15_17, v_14_17, v_15_17).
edge(e_14_17_14_18, v_14_17, v_14_18).
edge(e_14_18_15_18, v_14_18, v_15_18).
edge(e_14_18_14_19, v_14_18, v_14_19).
edge(e_14_19_15_19, v_14_19, v_15_19).
edge(e_14_19_14_20, v_14_19, v_14_20).
edge(e_14_20_15_20, v_14_20, v_15_20).
edge(e_14_20_14_21, v_14_20, v_14_21).
edge(e_14_21_15_21, v_14_21, v_15_21).
edge(e_14_21_14_22, v_14_21, v_14_22).
edge(e_14_22_15_22, v_14_22, v_15_22).
edge(e_14_22_14_23, v_14_22, v_14_23).
edge(e_14_23_15_23, v_14_23, v_15_23).
edge(e_14_23_14_24, v_14_23, v_14_24).
edge(e_14_24_15_24, v_14_24, v_15_24).
edge(e_14_24_14_25, v_14_24, v_14_25).
edge(e_14_25_15_25, v_14_25, v_15_25).
edge(e_14_25_14_26, v_14_25, v_14_26).
edge(e_14_26_15_26, v_14_26, v_15_26).
edge(e_14_26_14_27, v_14_26, v_14_27).
edge(e_14_27_15_27, v_14_27, v_15_27).
edge(e_14_27_14_28, v_14_27, v_14_28).
edge(e_14_28_15_28, v_14_28, v_15_28).
edge(e_14_28_14_29, v_14_28, v_14_29).
edge(e_14_29_15_29, v_14_29, v_15_29).
edge(e_14_29_14_30, v_14_29, v_14_30).
edge(e_14_30_15_30, v_14_30, v_15_30).
edge(e_14_30_14_31, v_14_30, v_14_31).
edge(e_14_31_15_31, v_14_31, v_15_31).
edge(e_14_31_14_32, v_14_31, v_14_32).
edge(e_14_32_15_32, v_14_32, v_15_32).
edge(e_14_32_14_33, v_14_32, v_14_33).
edge(e_14_33_15_33, v_14_33, v_15_33).
edge(e_14_33_14_34, v_14_33, v_14_34).
edge(e_14_34_15_34, v_14_34, v_15_34).
edge(e_14_34_14_35, v_14_34, v_14_35).
edge(e_14_35_15_35, v_14_35, v_15_35).
edge(e_14_35_14_36, v_14_35, v_14_36).
edge(e_14_36_15_36, v_14_36, v_15_36).
edge(e_14_36_14_37, v_14_36, v_14_37).
edge(e_14_37_15_37, v_14_37, v_15_37).
edge(e_14_37_14_38, v_14_37, v_14_38).
edge(e_14_38_15_38, v_14_38, v_15_38).
edge(e_14_38_14_39, v_14_38, v_14_39).
edge(e_14_39_15_39, v_14_39, v_15_39).
edge(e_14_39_14_40, v_14_39, v_14_40).
edge(e_14_40_15_40, v_14_40, v_15_40).
edge(e_14_40_14_41, v_14_40, v_14_41).
edge(e_14_41_15_41, v_14_41, v_15_41).
edge(e_15_0_16_0, v_15_0, v_16_0).
edge(e_15_0_15_1, v_15_0, v_15_1).
edge(e_15_1_16_1, v_15_1, v_16_1).
edge(e_15_1_15_2, v_15_1, v_15_2).
edge(e_15_2_16_2, v_15_2, v_16_2).
edge(e_15_2_15_3, v_15_2, v_15_3).
edge(e_15_3_16_3, v_15_3, v_16_3).
edge(e_15_3_15_4, v_15_3, v_15_4).
edge(e_15_4_16_4, v_15_4, v_16_4).
edge(e_15_4_15_5, v_15_4, v_15_5).
edge(e_15_5_16_5, v_15_5, v_16_5).
edge(e_15_5_15_6, v_15_5, v_15_6).
edge(e_15_6_16_6, v_15_6, v_16_6).
edge(e_15_6_15_7, v_15_6, v_15_7).
edge(e_15_7_16_7, v_15_7, v_16_7).
edge(e_15_7_15_8, v_15_7, v_15_8).
edge(e_15_8_16_8, v_15_8, v_16_8).
edge(e_15_8_15_9, v_15_8, v_15_9).
edge(e_15_9_16_9, v_15_9, v_16_9).
edge(e_15_9_15_10, v_15_9, v_15_10).
edge(e_15_10_16_10, v_15_10, v_16_10).
edge(e_15_10_15_11, v_15_10, v_15_11).
edge(e_15_11_16_11, v_15_11, v_16_11).
edge(e_15_11_15_12, v_15_11, v_15_12).
edge(e_15_12_16_12, v_15_12, v_16_12).
edge(e_15_12_15_13, v_15_12, v_15_13).
edge(e_15_13_16_13, v_15_13, v_16_13).
edge(e_15_13_15_14, v_15_13, v_15_14).
edge(e_15_14_16_14, v_15_14, v_16_14).
edge(e_15_14_15_15, v_15_14, v_15_15).
edge(e_15_15_16_15, v_15_15, v_16_15).
edge(e_15_15_15_16, v_15_15, v_15_16).
edge(e_15_16_16_16, v_15_16, v_16_16).
edge(e_15_16_15_17, v_15_16, v_15_17).
edge(e_15_17_16_17, v_15_17, v_16_17).
edge(e_15_17_15_18, v_15_17, v_15_18).
edge(e_15_18_16_18, v_15_18, v_16_18).
edge(e_15_18_15_19, v_15_18, v_15_19).
edge(e_15_19_16_19, v_15_19, v_16_19).
edge(e_15_19_15_20, v_15_19, v_15_20).
edge(e_15_20_16_20, v_15_20, v_16_20).
edge(e_15_20_15_21, v_15_20, v_15_21).
edge(e_15_21_16_21, v_15_21, v_16_21).
edge(e_15_21_15_22, v_15_21, v_15_22).
edge(e_15_22_16_22, v_15_22, v_16_22).
edge(e_15_22_15_23, v_15_22, v_15_23).
edge(e_15_23_16_23, v_15_23, v_16_23).
edge(e_15_23_15_24, v_15_23, v_15_24).
edge(e_15_24_16_24, v_15_24, v_16_24).
edge(e_15_24_15_25, v_15_24, v_15_25).
edge(e_15_25_16_25, v_15_25, v_16_25).
edge(e_15_25_15_26, v_15_25, v_15_26).
edge(e_15_26_16_26, v_15_26, v_16_26).
edge(e_15_26_15_27, v_15_26, v_15_27).
edge(e_15_27_16_27, v_15_27, v_16_27).
edge(e_15_27_15_28, v_15_27, v_15_28).
edge(e_15_28_16_28, v_15_28, v_16_28).
edge(e_15_28_15_29, v_15_28, v_15_29).
edge(e_15_29_16_29, v_15_29, v_16_29).
edge(e_15_29_15_30, v_15_29, v_15_30).
edge(e_15_30_16_30, v_15_30, v_16_30).
edge(e_15_30_15_31, v_15_30, v_15_31).
edge(e_15_31_16_31, v_15_31, v_16_31).
edge(e_15_31_15_32, v_15_31, v_15_32).
edge(e_15_32_16_32, v_15_32, v_16_32).
edge(e_15_32_15_33, v_15_32, v_15_33).
edge(e_15_33_16_33, v_15_33, v_16_33).
edge(e_15_33_15_34, v_15_33, v_15_34).
edge(e_15_34_16_34, v_15_34, v_16_34).
edge(e_15_34_15_35, v_15_34, v_15_35).
edge(e_15_35_16_35, v_15_35, v_16_35).
edge(e_15_35_15_36, v_15_35, v_15_36).
edge(e_15_36_16_36, v_15_36, v_16_36).
edge(e_15_36_15_37, v_15_36, v_15_37).
edge(e_15_37_16_37, v_15_37, v_16_37).
edge(e_15_37_15_38, v_15_37, v_15_38).
edge(e_15_38_16_38, v_15_38, v_16_38).
edge(e_15_38_15_39, v_15_38, v_15_39).
edge(e_15_39_16_39, v_15_39, v_16_39).
edge(e_15_39_15_40, v_15_39, v_15_40).
edge(e_15_40_16_40, v_15_40, v_16_40).
edge(e_15_40_15_41, v_15_40, v_15_41).
edge(e_15_41_16_41, v_15_41, v_16_41).
edge(e_16_0_17_0, v_16_0, v_17_0).
edge(e_16_0_16_1, v_16_0, v_16_1).
edge(e_16_1_17_1, v_16_1, v_17_1).
edge(e_16_1_16_2, v_16_1, v_16_2).
edge(e_16_2_17_2, v_16_2, v_17_2).
edge(e_16_2_16_3, v_16_2, v_16_3).
edge(e_16_3_17_3, v_16_3, v_17_3).
edge(e_16_3_16_4, v_16_3, v_16_4).
edge(e_16_4_17_4, v_16_4, v_17_4).
edge(e_16_4_16_5, v_16_4, v_16_5).
edge(e_16_5_17_5, v_16_5, v_17_5).
edge(e_16_5_16_6, v_16_5, v_16_6).
edge(e_16_6_17_6, v_16_6, v_17_6).
edge(e_16_6_16_7, v_16_6, v_16_7).
edge(e_16_7_17_7, v_16_7, v_17_7).
edge(e_16_7_16_8, v_16_7, v_16_8).
edge(e_16_8_17_8, v_16_8, v_17_8).
edge(e_16_8_16_9, v_16_8, v_16_9).
edge(e_16_9_17_9, v_16_9, v_17_9).
edge(e_16_9_16_10, v_16_9, v_16_10).
edge(e_16_10_17_10, v_16_10, v_17_10).
edge(e_16_10_16_11, v_16_10, v_16_11).
edge(e_16_11_17_11, v_16_11, v_17_11).
edge(e_16_11_16_12, v_16_11, v_16_12).
edge(e_16_12_17_12, v_16_12, v_17_12).
edge(e_16_12_16_13, v_16_12, v_16_13).
edge(e_16_13_17_13, v_16_13, v_17_13).
edge(e_16_13_16_14, v_16_13, v_16_14).
edge(e_16_14_17_14, v_16_14, v_17_14).
edge(e_16_14_16_15, v_16_14, v_16_15).
edge(e_16_15_17_15, v_16_15, v_17_15).
edge(e_16_15_16_16, v_16_15, v_16_16).
edge(e_16_16_17_16, v_16_16, v_17_16).
edge(e_16_16_16_17, v_16_16, v_16_17).
edge(e_16_17_17_17, v_16_17, v_17_17).
edge(e_16_17_16_18, v_16_17, v_16_18).
edge(e_16_18_17_18, v_16_18, v_17_18).
edge(e_16_18_16_19, v_16_18, v_16_19).
edge(e_16_19_17_19, v_16_19, v_17_19).
edge(e_16_19_16_20, v_16_19, v_16_20).
edge(e_16_20_17_20, v_16_20, v_17_20).
edge(e_16_20_16_21, v_16_20, v_16_21).
edge(e_16_21_17_21, v_16_21, v_17_21).
edge(e_16_21_16_22, v_16_21, v_16_22).
edge(e_16_22_17_22, v_16_22, v_17_22).
edge(e_16_22_16_23, v_16_22, v_16_23).
edge(e_16_23_17_23, v_16_23, v_17_23).
edge(e_16_23_16_24, v_16_23, v_16_24).
edge(e_16_24_17_24, v_16_24, v_17_24).
edge(e_16_24_16_25, v_16_24, v_16_25).
edge(e_16_25_17_25, v_16_25, v_17_25).
edge(e_16_25_16_26, v_16_25, v_16_26).
edge(e_16_26_17_26, v_16_26, v_17_26).
edge(e_16_26_16_27, v_16_26, v_16_27).
edge(e_16_27_17_27, v_16_27, v_17_27).
edge(e_16_27_16_28, v_16_27, v_16_28).
edge(e_16_28_17_28, v_16_28, v_17_28).
edge(e_16_28_16_29, v_16_28, v_16_29).
edge(e_16_29_17_29, v_16_29, v_17_29).
edge(e_16_29_16_30, v_16_29, v_16_30).
edge(e_16_30_17_30, v_16_30, v_17_30).
edge(e_16_30_16_31, v_16_30, v_16_31).
edge(e_16_31_17_31, v_16_31, v_17_31).
edge(e_16_31_16_32, v_16_31, v_16_32).
edge(e_16_32_17_32, v_16_32, v_17_32).
edge(e_16_32_16_33, v_16_32, v_16_33).
edge(e_16_33_17_33, v_16_33, v_17_33).
edge(e_16_33_16_34, v_16_33, v_16_34).
edge(e_16_34_17_34, v_16_34, v_17_34).
edge(e_16_34_16_35, v_16_34, v_16_35).
edge(e_16_35_17_35, v_16_35, v_17_35).
edge(e_16_35_16_36, v_16_35, v_16_36).
edge(e_16_36_17_36, v_16_36, v_17_36).
edge(e_16_36_16_37, v_16_36, v_16_37).
edge(e_16_37_17_37, v_16_37, v_17_37).
edge(e_16_37_16_38, v_16_37, v_16_38).
edge(e_16_38_17_38, v_16_38, v_17_38).
edge(e_16_38_16_39, v_16_38, v_16_39).
edge(e_16_39_17_39, v_16_39, v_17_39).
edge(e_16_39_16_40, v_16_39, v_16_40).
edge(e_16_40_17_40, v_16_40, v_17_40).
edge(e_16_40_16_41, v_16_40, v_16_41).
edge(e_16_41_17_41, v_16_41, v_17_41).
edge(e_17_0_18_0, v_17_0, v_18_0).
edge(e_17_0_17_1, v_17_0, v_17_1).
edge(e_17_1_18_1, v_17_1, v_18_1).
edge(e_17_1_17_2, v_17_1, v_17_2).
edge(e_17_2_18_2, v_17_2, v_18_2).
edge(e_17_2_17_3, v_17_2, v_17_3).
edge(e_17_3_18_3, v_17_3, v_18_3).
edge(e_17_3_17_4, v_17_3, v_17_4).
edge(e_17_4_18_4, v_17_4, v_18_4).
edge(e_17_4_17_5, v_17_4, v_17_5).
edge(e_17_5_18_5, v_17_5, v_18_5).
edge(e_17_5_17_6, v_17_5, v_17_6).
edge(e_17_6_18_6, v_17_6, v_18_6).
edge(e_17_6_17_7, v_17_6, v_17_7).
edge(e_17_7_18_7, v_17_7, v_18_7).
edge(e_17_7_17_8, v_17_7, v_17_8).
edge(e_17_8_18_8, v_17_8, v_18_8).
edge(e_17_8_17_9, v_17_8, v_17_9).
edge(e_17_9_18_9, v_17_9, v_18_9).
edge(e_17_9_17_10, v_17_9, v_17_10).
edge(e_17_10_18_10, v_17_10, v_18_10).
edge(e_17_10_17_11, v_17_10, v_17_11).
edge(e_17_11_18_11, v_17_11, v_18_11).
edge(e_17_11_17_12, v_17_11, v_17_12).
edge(e_17_12_18_12, v_17_12, v_18_12).
edge(e_17_12_17_13, v_17_12, v_17_13).
edge(e_17_13_18_13, v_17_13, v_18_13).
edge(e_17_13_17_14, v_17_13, v_17_14).
edge(e_17_14_18_14, v_17_14, v_18_14).
edge(e_17_14_17_15, v_17_14, v_17_15).
edge(e_17_15_18_15, v_17_15, v_18_15).
edge(e_17_15_17_16, v_17_15, v_17_16).
edge(e_17_16_18_16, v_17_16, v_18_16).
edge(e_17_16_17_17, v_17_16, v_17_17).
edge(e_17_17_18_17, v_17_17, v_18_17).
edge(e_17_17_17_18, v_17_17, v_17_18).
edge(e_17_18_18_18, v_17_18, v_18_18).
edge(e_17_18_17_19, v_17_18, v_17_19).
edge(e_17_19_18_19, v_17_19, v_18_19).
edge(e_17_19_17_20, v_17_19, v_17_20).
edge(e_17_20_18_20, v_17_20, v_18_20).
edge(e_17_20_17_21, v_17_20, v_17_21).
edge(e_17_21_18_21, v_17_21, v_18_21).
edge(e_17_21_17_22, v_17_21, v_17_22).
edge(e_17_22_18_22, v_17_22, v_18_22).
edge(e_17_22_17_23, v_17_22, v_17_23).
edge(e_17_23_18_23, v_17_23, v_18_23).
edge(e_17_23_17_24, v_17_23, v_17_24).
edge(e_17_24_18_24, v_17_24, v_18_24).
edge(e_17_24_17_25, v_17_24, v_17_25).
edge(e_17_25_18_25, v_17_25, v_18_25).
edge(e_17_25_17_26, v_17_25, v_17_26).
edge(e_17_26_18_26, v_17_26, v_18_26).
edge(e_17_26_17_27, v_17_26, v_17_27).
edge(e_17_27_18_27, v_17_27, v_18_27).
edge(e_17_27_17_28, v_17_27, v_17_28).
edge(e_17_28_18_28, v_17_28, v_18_28).
edge(e_17_28_17_29, v_17_28, v_17_29).
edge(e_17_29_18_29, v_17_29, v_18_29).
edge(e_17_29_17_30, v_17_29, v_17_30).
edge(e_17_30_18_30, v_17_30, v_18_30).
edge(e_17_30_17_31, v_17_30, v_17_31).
edge(e_17_31_18_31, v_17_31, v_18_31).
edge(e_17_31_17_32, v_17_31, v_17_32).
edge(e_17_32_18_32, v_17_32, v_18_32).
edge(e_17_32_17_33, v_17_32, v_17_33).
edge(e_17_33_18_33, v_17_33, v_18_33).
edge(e_17_33_17_34, v_17_33, v_17_34).
edge(e_17_34_18_34, v_17_34, v_18_34).
edge(e_17_34_17_35, v_17_34, v_17_35).
edge(e_17_35_18_35, v_17_35, v_18_35).
edge(e_17_35_17_36, v_17_35, v_17_36).
edge(e_17_36_18_36, v_17_36, v_18_36).
edge(e_17_36_17_37, v_17_36, v_17_37).
edge(e_17_37_18_37, v_17_37, v_18_37).
edge(e_17_37_17_38, v_17_37, v_17_38).
edge(e_17_38_18_38, v_17_38, v_18_38).
edge(e_17_38_17_39, v_17_38, v_17_39).
edge(e_17_39_18_39, v_17_39, v_18_39).
edge(e_17_39_17_40, v_17_39, v_17_40).
edge(e_17_40_18_40, v_17_40, v_18_40).
edge(e_17_40_17_41, v_17_40, v_17_41).
edge(e_17_41_18_41, v_17_41, v_18_41).
edge(e_18_0_19_0, v_18_0, v_19_0).
edge(e_18_0_18_1, v_18_0, v_18_1).
edge(e_18_1_19_1, v_18_1, v_19_1).
edge(e_18_1_18_2, v_18_1, v_18_2).
edge(e_18_2_19_2, v_18_2, v_19_2).
edge(e_18_2_18_3, v_18_2, v_18_3).
edge(e_18_3_19_3, v_18_3, v_19_3).
edge(e_18_3_18_4, v_18_3, v_18_4).
edge(e_18_4_19_4, v_18_4, v_19_4).
edge(e_18_4_18_5, v_18_4, v_18_5).
edge(e_18_5_19_5, v_18_5, v_19_5).
edge(e_18_5_18_6, v_18_5, v_18_6).
edge(e_18_6_19_6, v_18_6, v_19_6).
edge(e_18_6_18_7, v_18_6, v_18_7).
edge(e_18_7_19_7, v_18_7, v_19_7).
edge(e_18_7_18_8, v_18_7, v_18_8).
edge(e_18_8_19_8, v_18_8, v_19_8).
edge(e_18_8_18_9, v_18_8, v_18_9).
edge(e_18_9_19_9, v_18_9, v_19_9).
edge(e_18_9_18_10, v_18_9, v_18_10).
edge(e_18_10_19_10, v_18_10, v_19_10).
edge(e_18_10_18_11, v_18_10, v_18_11).
edge(e_18_11_19_11, v_18_11, v_19_11).
edge(e_18_11_18_12, v_18_11, v_18_12).
edge(e_18_12_19_12, v_18_12, v_19_12).
edge(e_18_12_18_13, v_18_12, v_18_13).
edge(e_18_13_19_13, v_18_13, v_19_13).
edge(e_18_13_18_14, v_18_13, v_18_14).
edge(e_18_14_19_14, v_18_14, v_19_14).
edge(e_18_14_18_15, v_18_14, v_18_15).
edge(e_18_15_19_15, v_18_15, v_19_15).
edge(e_18_15_18_16, v_18_15, v_18_16).
edge(e_18_16_19_16, v_18_16, v_19_16).
edge(e_18_16_18_17, v_18_16, v_18_17).
edge(e_18_17_19_17, v_18_17, v_19_17).
edge(e_18_17_18_18, v_18_17, v_18_18).
edge(e_18_18_19_18, v_18_18, v_19_18).
edge(e_18_18_18_19, v_18_18, v_18_19).
edge(e_18_19_19_19, v_18_19, v_19_19).
edge(e_18_19_18_20, v_18_19, v_18_20).
edge(e_18_20_19_20, v_18_20, v_19_20).
edge(e_18_20_18_21, v_18_20, v_18_21).
edge(e_18_21_19_21, v_18_21, v_19_21).
edge(e_18_21_18_22, v_18_21, v_18_22).
edge(e_18_22_19_22, v_18_22, v_19_22).
edge(e_18_22_18_23, v_18_22, v_18_23).
edge(e_18_23_19_23, v_18_23, v_19_23).
edge(e_18_23_18_24, v_18_23, v_18_24).
edge(e_18_24_19_24, v_18_24, v_19_24).
edge(e_18_24_18_25, v_18_24, v_18_25).
edge(e_18_25_19_25, v_18_25, v_19_25).
edge(e_18_25_18_26, v_18_25, v_18_26).
edge(e_18_26_19_26, v_18_26, v_19_26).
edge(e_18_26_18_27, v_18_26, v_18_27).
edge(e_18_27_19_27, v_18_27, v_19_27).
edge(e_18_27_18_28, v_18_27, v_18_28).
edge(e_18_28_19_28, v_18_28, v_19_28).
edge(e_18_28_18_29, v_18_28, v_18_29).
edge(e_18_29_19_29, v_18_29, v_19_29).
edge(e_18_29_18_30, v_18_29, v_18_30).
edge(e_18_30_19_30, v_18_30, v_19_30).
edge(e_18_30_18_31, v_18_30, v_18_31).
edge(e_18_31_19_31, v_18_31, v_19_31).
edge(e_18_31_18_32, v_18_31, v_18_32).
edge(e_18_32_19_32, v_18_32, v_19_32).
edge(e_18_32_18_33, v_18_32, v_18_33).
edge(e_18_33_19_33, v_18_33, v_19_33).
edge(e_18_33_18_34, v_18_33, v_18_34).
edge(e_18_34_19_34, v_18_34, v_19_34).
edge(e_18_34_18_35, v_18_34, v_18_35).
edge(e_18_35_19_35, v_18_35, v_19_35).
edge(e_18_35_18_36, v_18_35, v_18_36).
edge(e_18_36_19_36, v_18_36, v_19_36).
edge(e_18_36_18_37, v_18_36, v_18_37).
edge(e_18_37_19_37, v_18_37, v_19_37).
edge(e_18_37_18_38, v_18_37, v_18_38).
edge(e_18_38_19_38, v_18_38, v_19_38).
edge(e_18_38_18_39, v_18_38, v_18_39).
edge(e_18_39_19_39, v_18_39, v_19_39).
edge(e_18_39_18_40, v_18_39, v_18_40).
edge(e_18_40_19_40, v_18_40, v_19_40).
edge(e_18_40_18_41, v_18_40, v_18_41).
edge(e_18_41_19_41, v_18_41, v_19_41).
edge(e_19_0_20_0, v_19_0, v_20_0).
edge(e_19_0_19_1, v_19_0, v_19_1).
edge(e_19_1_20_1, v_19_1, v_20_1).
edge(e_19_1_19_2, v_19_1, v_19_2).
edge(e_19_2_20_2, v_19_2, v_20_2).
edge(e_19_2_19_3, v_19_2, v_19_3).
edge(e_19_3_20_3, v_19_3, v_20_3).
edge(e_19_3_19_4, v_19_3, v_19_4).
edge(e_19_4_20_4, v_19_4, v_20_4).
edge(e_19_4_19_5, v_19_4, v_19_5).
edge(e_19_5_20_5, v_19_5, v_20_5).
edge(e_19_5_19_6, v_19_5, v_19_6).
edge(e_19_6_20_6, v_19_6, v_20_6).
edge(e_19_6_19_7, v_19_6, v_19_7).
edge(e_19_7_20_7, v_19_7, v_20_7).
edge(e_19_7_19_8, v_19_7, v_19_8).
edge(e_19_8_20_8, v_19_8, v_20_8).
edge(e_19_8_19_9, v_19_8, v_19_9).
edge(e_19_9_20_9, v_19_9, v_20_9).
edge(e_19_9_19_10, v_19_9, v_19_10).
edge(e_19_10_20_10, v_19_10, v_20_10).
edge(e_19_10_19_11, v_19_10, v_19_11).
edge(e_19_11_20_11, v_19_11, v_20_11).
edge(e_19_11_19_12, v_19_11, v_19_12).
edge(e_19_12_20_12, v_19_12, v_20_12).
edge(e_19_12_19_13, v_19_12, v_19_13).
edge(e_19_13_20_13, v_19_13, v_20_13).
edge(e_19_13_19_14, v_19_13, v_19_14).
edge(e_19_14_20_14, v_19_14, v_20_14).
edge(e_19_14_19_15, v_19_14, v_19_15).
edge(e_19_15_20_15, v_19_15, v_20_15).
edge(e_19_15_19_16, v_19_15, v_19_16).
edge(e_19_16_20_16, v_19_16, v_20_16).
edge(e_19_16_19_17, v_19_16, v_19_17).
edge(e_19_17_20_17, v_19_17, v_20_17).
edge(e_19_17_19_18, v_19_17, v_19_18).
edge(e_19_18_20_18, v_19_18, v_20_18).
edge(e_19_18_19_19, v_19_18, v_19_19).
edge(e_19_19_20_19, v_19_19, v_20_19).
edge(e_19_19_19_20, v_19_19, v_19_20).
edge(e_19_20_20_20, v_19_20, v_20_20).
edge(e_19_20_19_21, v_19_20, v_19_21).
edge(e_19_21_20_21, v_19_21, v_20_21).
edge(e_19_21_19_22, v_19_21, v_19_22).
edge(e_19_22_20_22, v_19_22, v_20_22).
edge(e_19_22_19_23, v_19_22, v_19_23).
edge(e_19_23_20_23, v_19_23, v_20_23).
edge(e_19_23_19_24, v_19_23, v_19_24).
edge(e_19_24_20_24, v_19_24, v_20_24).
edge(e_19_24_19_25, v_19_24, v_19_25).
edge(e_19_25_20_25, v_19_25, v_20_25).
edge(e_19_25_19_26, v_19_25, v_19_26).
edge(e_19_26_20_26, v_19_26, v_20_26).
edge(e_19_26_19_27, v_19_26, v_19_27).
edge(e_19_27_20_27, v_19_27, v_20_27).
edge(e_19_27_19_28, v_19_27, v_19_28).
edge(e_19_28_20_28, v_19_28, v_20_28).
edge(e_19_28_19_29, v_19_28, v_19_29).
edge(e_19_29_20_29, v_19_29, v_20_29).
edge(e_19_29_19_30, v_19_29, v_19_30).
edge(e_19_30_20_30, v_19_30, v_20_30).
edge(e_19_30_19_31, v_19_30, v_19_31).
edge(e_19_31_20_31, v_19_31, v_20_31).
edge(e_19_31_19_32, v_19_31, v_19_32).
edge(e_19_32_20_32, v_19_32, v_20_32).
edge(e_19_32_19_33, v_19_32, v_19_33).
edge(e_19_33_20_33, v_19_33, v_20_33).
edge(e_19_33_19_34, v_19_33, v_19_34).
edge(e_19_34_20_34, v_19_34, v_20_34).
edge(e_19_34_19_35, v_19_34, v_19_35).
edge(e_19_35_20_35, v_19_35, v_20_35).
edge(e_19_35_19_36, v_19_35, v_19_36).
edge(e_19_36_20_36, v_19_36, v_20_36).
edge(e_19_36_19_37, v_19_36, v_19_37).
edge(e_19_37_20_37, v_19_37, v_20_37).
edge(e_19_37_19_38, v_19_37, v_19_38).
edge(e_19_38_20_38, v_19_38, v_20_38).
edge(e_19_38_19_39, v_19_38, v_19_39).
edge(e_19_39_20_39, v_19_39, v_20_39).
edge(e_19_39_19_40, v_19_39, v_19_40).
edge(e_19_40_20_40, v_19_40, v_20_40).
edge(e_19_40_19_41, v_19_40, v_19_41).
edge(e_19_41_20_41, v_19_41, v_20_41).
edge(e_20_0_21_0, v_20_0, v_21_0).
edge(e_20_0_20_1, v_20_0, v_20_1).
edge(e_20_1_21_1, v_20_1, v_21_1).
edge(e_20_1_20_2, v_20_1, v_20_2).
edge(e_20_2_21_2, v_20_2, v_21_2).
edge(e_20_2_20_3, v_20_2, v_20_3).
edge(e_20_3_21_3, v_20_3, v_21_3).
edge(e_20_3_20_4, v_20_3, v_20_4).
edge(e_20_4_21_4, v_20_4, v_21_4).
edge(e_20_4_20_5, v_20_4, v_20_5).
edge(e_20_5_21_5, v_20_5, v_21_5).
edge(e_20_5_20_6, v_20_5, v_20_6).
edge(e_20_6_21_6, v_20_6, v_21_6).
edge(e_20_6_20_7, v_20_6, v_20_7).
edge(e_20_7_21_7, v_20_7, v_21_7).
edge(e_20_7_20_8, v_20_7, v_20_8).
edge(e_20_8_21_8, v_20_8, v_21_8).
edge(e_20_8_20_9, v_20_8, v_20_9).
edge(e_20_9_21_9, v_20_9, v_21_9).
edge(e_20_9_20_10, v_20_9, v_20_10).
edge(e_20_10_21_10, v_20_10, v_21_10).
edge(e_20_10_20_11, v_20_10, v_20_11).
edge(e_20_11_21_11, v_20_11, v_21_11).
edge(e_20_11_20_12, v_20_11, v_20_12).
edge(e_20_12_21_12, v_20_12, v_21_12).
edge(e_20_12_20_13, v_20_12, v_20_13).
edge(e_20_13_21_13, v_20_13, v_21_13).
edge(e_20_13_20_14, v_20_13, v_20_14).
edge(e_20_14_21_14, v_20_14, v_21_14).
edge(e_20_14_20_15, v_20_14, v_20_15).
edge(e_20_15_21_15, v_20_15, v_21_15).
edge(e_20_15_20_16, v_20_15, v_20_16).
edge(e_20_16_21_16, v_20_16, v_21_16).
edge(e_20_16_20_17, v_20_16, v_20_17).
edge(e_20_17_21_17, v_20_17, v_21_17).
edge(e_20_17_20_18, v_20_17, v_20_18).
edge(e_20_18_21_18, v_20_18, v_21_18).
edge(e_20_18_20_19, v_20_18, v_20_19).
edge(e_20_19_21_19, v_20_19, v_21_19).
edge(e_20_19_20_20, v_20_19, v_20_20).
edge(e_20_20_21_20, v_20_20, v_21_20).
edge(e_20_20_20_21, v_20_20, v_20_21).
edge(e_20_21_21_21, v_20_21, v_21_21).
edge(e_20_21_20_22, v_20_21, v_20_22).
edge(e_20_22_21_22, v_20_22, v_21_22).
edge(e_20_22_20_23, v_20_22, v_20_23).
edge(e_20_23_21_23, v_20_23, v_21_23).
edge(e_20_23_20_24, v_20_23, v_20_24).
edge(e_20_24_21_24, v_20_24, v_21_24).
edge(e_20_24_20_25, v_20_24, v_20_25).
edge(e_20_25_21_25, v_20_25, v_21_25).
edge(e_20_25_20_26, v_20_25, v_20_26).
edge(e_20_26_21_26, v_20_26, v_21_26).
edge(e_20_26_20_27, v_20_26, v_20_27).
edge(e_20_27_21_27, v_20_27, v_21_27).
edge(e_20_27_20_28, v_20_27, v_20_28).
edge(e_20_28_21_28, v_20_28, v_21_28).
edge(e_20_28_20_29, v_20_28, v_20_29).
edge(e_20_29_21_29, v_20_29, v_21_29).
edge(e_20_29_20_30, v_20_29, v_20_30).
edge(e_20_30_21_30, v_20_30, v_21_30).
edge(e_20_30_20_31, v_20_30, v_20_31).
edge(e_20_31_21_31, v_20_31, v_21_31).
edge(e_20_31_20_32, v_20_31, v_20_32).
edge(e_20_32_21_32, v_20_32, v_21_32).
edge(e_20_32_20_33, v_20_32, v_20_33).
edge(e_20_33_21_33, v_20_33, v_21_33).
edge(e_20_33_20_34, v_20_33, v_20_34).
edge(e_20_34_21_34, v_20_34, v_21_34).
edge(e_20_34_20_35, v_20_34, v_20_35).
edge(e_20_35_21_35, v_20_35, v_21_35).
edge(e_20_35_20_36, v_20_35, v_20_36).
edge(e_20_36_21_36, v_20_36, v_21_36).
edge(e_20_36_20_37, v_20_36, v_20_37).
edge(e_20_37_21_37, v_20_37, v_21_37).
edge(e_20_37_20_38, v_20_37, v_20_38).
edge(e_20_38_21_38, v_20_38, v_21_38).
edge(e_20_38_20_39, v_20_38, v_20_39).
edge(e_20_39_21_39, v_20_39, v_21_39).
edge(e_20_39_20_40, v_20_39, v_20_40).
edge(e_20_40_21_40, v_20_40, v_21_40).
edge(e_20_40_20_41, v_20_40, v_20_41).
edge(e_20_41_21_41, v_20_41, v_21_41).
edge(e_21_0_22_0, v_21_0, v_22_0).
edge(e_21_0_21_1, v_21_0, v_21_1).
edge(e_21_1_22_1, v_21_1, v_22_1).
edge(e_21_1_21_2, v_21_1, v_21_2).
edge(e_21_2_22_2, v_21_2, v_22_2).
edge(e_21_2_21_3, v_21_2, v_21_3).
edge(e_21_3_22_3, v_21_3, v_22_3).
edge(e_21_3_21_4, v_21_3, v_21_4).
edge(e_21_4_22_4, v_21_4, v_22_4).
edge(e_21_4_21_5, v_21_4, v_21_5).
edge(e_21_5_22_5, v_21_5, v_22_5).
edge(e_21_5_21_6, v_21_5, v_21_6).
edge(e_21_6_22_6, v_21_6, v_22_6).
edge(e_21_6_21_7, v_21_6, v_21_7).
edge(e_21_7_22_7, v_21_7, v_22_7).
edge(e_21_7_21_8, v_21_7, v_21_8).
edge(e_21_8_22_8, v_21_8, v_22_8).
edge(e_21_8_21_9, v_21_8, v_21_9).
edge(e_21_9_22_9, v_21_9, v_22_9).
edge(e_21_9_21_10, v_21_9, v_21_10).
edge(e_21_10_22_10, v_21_10, v_22_10).
edge(e_21_10_21_11, v_21_10, v_21_11).
edge(e_21_11_22_11, v_21_11, v_22_11).
edge(e_21_11_21_12, v_21_11, v_21_12).
edge(e_21_12_22_12, v_21_12, v_22_12).
edge(e_21_12_21_13, v_21_12, v_21_13).
edge(e_21_13_22_13, v_21_13, v_22_13).
edge(e_21_13_21_14, v_21_13, v_21_14).
edge(e_21_14_22_14, v_21_14, v_22_14).
edge(e_21_14_21_15, v_21_14, v_21_15).
edge(e_21_15_22_15, v_21_15, v_22_15).
edge(e_21_15_21_16, v_21_15, v_21_16).
edge(e_21_16_22_16, v_21_16, v_22_16).
edge(e_21_16_21_17, v_21_16, v_21_17).
edge(e_21_17_22_17, v_21_17, v_22_17).
edge(e_21_17_21_18, v_21_17, v_21_18).
edge(e_21_18_22_18, v_21_18, v_22_18).
edge(e_21_18_21_19, v_21_18, v_21_19).
edge(e_21_19_22_19, v_21_19, v_22_19).
edge(e_21_19_21_20, v_21_19, v_21_20).
edge(e_21_20_22_20, v_21_20, v_22_20).
edge(e_21_20_21_21, v_21_20, v_21_21).
edge(e_21_21_22_21, v_21_21, v_22_21).
edge(e_21_21_21_22, v_21_21, v_21_22).
edge(e_21_22_22_22, v_21_22, v_22_22).
edge(e_21_22_21_23, v_21_22, v_21_23).
edge(e_21_23_22_23, v_21_23, v_22_23).
edge(e_21_23_21_24, v_21_23, v_21_24).
edge(e_21_24_22_24, v_21_24, v_22_24).
edge(e_21_24_21_25, v_21_24, v_21_25).
edge(e_21_25_22_25, v_21_25, v_22_25).
edge(e_21_25_21_26, v_21_25, v_21_26).
edge(e_21_26_22_26, v_21_26, v_22_26).
edge(e_21_26_21_27, v_21_26, v_21_27).
edge(e_21_27_22_27, v_21_27, v_22_27).
edge(e_21_27_21_28, v_21_27, v_21_28).
edge(e_21_28_22_28, v_21_28, v_22_28).
edge(e_21_28_21_29, v_21_28, v_21_29).
edge(e_21_29_22_29, v_21_29, v_22_29).
edge(e_21_29_21_30, v_21_29, v_21_30).
edge(e_21_30_22_30, v_21_30, v_22_30).
edge(e_21_30_21_31, v_21_30, v_21_31).
edge(e_21_31_22_31, v_21_31, v_22_31).
edge(e_21_31_21_32, v_21_31, v_21_32).
edge(e_21_32_22_32, v_21_32, v_22_32).
edge(e_21_32_21_33, v_21_32, v_21_33).
edge(e_21_33_22_33, v_21_33, v_22_33).
edge(e_21_33_21_34, v_21_33, v_21_34).
edge(e_21_34_22_34, v_21_34, v_22_34).
edge(e_21_34_21_35, v_21_34, v_21_35).
edge(e_21_35_22_35, v_21_35, v_22_35).
edge(e_21_35_21_36, v_21_35, v_21_36).
edge(e_21_36_22_36, v_21_36, v_22_36).
edge(e_21_36_21_37, v_21_36, v_21_37).
edge(e_21_37_22_37, v_21_37, v_22_37).
edge(e_21_37_21_38, v_21_37, v_21_38).
edge(e_21_38_22_38, v_21_38, v_22_38).
edge(e_21_38_21_39, v_21_38, v_21_39).
edge(e_21_39_22_39, v_21_39, v_22_39).
edge(e_21_39_21_40, v_21_39, v_21_40).
edge(e_21_40_22_40, v_21_40, v_22_40).
edge(e_21_40_21_41, v_21_40, v_21_41).
edge(e_21_41_22_41, v_21_41, v_22_41).
edge(e_22_0_23_0, v_22_0, v_23_0).
edge(e_22_0_22_1, v_22_0, v_22_1).
edge(e_22_1_23_1, v_22_1, v_23_1).
edge(e_22_1_22_2, v_22_1, v_22_2).
edge(e_22_2_23_2, v_22_2, v_23_2).
edge(e_22_2_22_3, v_22_2, v_22_3).
edge(e_22_3_23_3, v_22_3, v_23_3).
edge(e_22_3_22_4, v_22_3, v_22_4).
edge(e_22_4_23_4, v_22_4, v_23_4).
edge(e_22_4_22_5, v_22_4, v_22_5).
edge(e_22_5_23_5, v_22_5, v_23_5).
edge(e_22_5_22_6, v_22_5, v_22_6).
edge(e_22_6_23_6, v_22_6, v_23_6).
edge(e_22_6_22_7, v_22_6, v_22_7).
edge(e_22_7_23_7, v_22_7, v_23_7).
edge(e_22_7_22_8, v_22_7, v_22_8).
edge(e_22_8_23_8, v_22_8, v_23_8).
edge(e_22_8_22_9, v_22_8, v_22_9).
edge(e_22_9_23_9, v_22_9, v_23_9).
edge(e_22_9_22_10, v_22_9, v_22_10).
edge(e_22_10_23_10, v_22_10, v_23_10).
edge(e_22_10_22_11, v_22_10, v_22_11).
edge(e_22_11_23_11, v_22_11, v_23_11).
edge(e_22_11_22_12, v_22_11, v_22_12).
edge(e_22_12_23_12, v_22_12, v_23_12).
edge(e_22_12_22_13, v_22_12, v_22_13).
edge(e_22_13_23_13, v_22_13, v_23_13).
edge(e_22_13_22_14, v_22_13, v_22_14).
edge(e_22_14_23_14, v_22_14, v_23_14).
edge(e_22_14_22_15, v_22_14, v_22_15).
edge(e_22_15_23_15, v_22_15, v_23_15).
edge(e_22_15_22_16, v_22_15, v_22_16).
edge(e_22_16_23_16, v_22_16, v_23_16).
edge(e_22_16_22_17, v_22_16, v_22_17).
edge(e_22_17_23_17, v_22_17, v_23_17).
edge(e_22_17_22_18, v_22_17, v_22_18).
edge(e_22_18_23_18, v_22_18, v_23_18).
edge(e_22_18_22_19, v_22_18, v_22_19).
edge(e_22_19_23_19, v_22_19, v_23_19).
edge(e_22_19_22_20, v_22_19, v_22_20).
edge(e_22_20_23_20, v_22_20, v_23_20).
edge(e_22_20_22_21, v_22_20, v_22_21).
edge(e_22_21_23_21, v_22_21, v_23_21).
edge(e_22_21_22_22, v_22_21, v_22_22).
edge(e_22_22_23_22, v_22_22, v_23_22).
edge(e_22_22_22_23, v_22_22, v_22_23).
edge(e_22_23_23_23, v_22_23, v_23_23).
edge(e_22_23_22_24, v_22_23, v_22_24).
edge(e_22_24_23_24, v_22_24, v_23_24).
edge(e_22_24_22_25, v_22_24, v_22_25).
edge(e_22_25_23_25, v_22_25, v_23_25).
edge(e_22_25_22_26, v_22_25, v_22_26).
edge(e_22_26_23_26, v_22_26, v_23_26).
edge(e_22_26_22_27, v_22_26, v_22_27).
edge(e_22_27_23_27, v_22_27, v_23_27).
edge(e_22_27_22_28, v_22_27, v_22_28).
edge(e_22_28_23_28, v_22_28, v_23_28).
edge(e_22_28_22_29, v_22_28, v_22_29).
edge(e_22_29_23_29, v_22_29, v_23_29).
edge(e_22_29_22_30, v_22_29, v_22_30).
edge(e_22_30_23_30, v_22_30, v_23_30).
edge(e_22_30_22_31, v_22_30, v_22_31).
edge(e_22_31_23_31, v_22_31, v_23_31).
edge(e_22_31_22_32, v_22_31, v_22_32).
edge(e_22_32_23_32, v_22_32, v_23_32).
edge(e_22_32_22_33, v_22_32, v_22_33).
edge(e_22_33_23_33, v_22_33, v_23_33).
edge(e_22_33_22_34, v_22_33, v_22_34).
edge(e_22_34_23_34, v_22_34, v_23_34).
edge(e_22_34_22_35, v_22_34, v_22_35).
edge(e_22_35_23_35, v_22_35, v_23_35).
edge(e_22_35_22_36, v_22_35, v_22_36).
edge(e_22_36_23_36, v_22_36, v_23_36).
edge(e_22_36_22_37, v_22_36, v_22_37).
edge(e_22_37_23_37, v_22_37, v_23_37).
edge(e_22_37_22_38, v_22_37, v_22_38).
edge(e_22_38_23_38, v_22_38, v_23_38).
edge(e_22_38_22_39, v_22_38, v_22_39).
edge(e_22_39_23_39, v_22_39, v_23_39).
edge(e_22_39_22_40, v_22_39, v_22_40).
edge(e_22_40_23_40, v_22_40, v_23_40).
edge(e_22_40_22_41, v_22_40, v_22_41).
edge(e_22_41_23_41, v_22_41, v_23_41).
edge(e_23_0_24_0, v_23_0, v_24_0).
edge(e_23_0_23_1, v_23_0, v_23_1).
edge(e_23_1_24_1, v_23_1, v_24_1).
edge(e_23_1_23_2, v_23_1, v_23_2).
edge(e_23_2_24_2, v_23_2, v_24_2).
edge(e_23_2_23_3, v_23_2, v_23_3).
edge(e_23_3_24_3, v_23_3, v_24_3).
edge(e_23_3_23_4, v_23_3, v_23_4).
edge(e_23_4_24_4, v_23_4, v_24_4).
edge(e_23_4_23_5, v_23_4, v_23_5).
edge(e_23_5_24_5, v_23_5, v_24_5).
edge(e_23_5_23_6, v_23_5, v_23_6).
edge(e_23_6_24_6, v_23_6, v_24_6).
edge(e_23_6_23_7, v_23_6, v_23_7).
edge(e_23_7_24_7, v_23_7, v_24_7).
edge(e_23_7_23_8, v_23_7, v_23_8).
edge(e_23_8_24_8, v_23_8, v_24_8).
edge(e_23_8_23_9, v_23_8, v_23_9).
edge(e_23_9_24_9, v_23_9, v_24_9).
edge(e_23_9_23_10, v_23_9, v_23_10).
edge(e_23_10_24_10, v_23_10, v_24_10).
edge(e_23_10_23_11, v_23_10, v_23_11).
edge(e_23_11_24_11, v_23_11, v_24_11).
edge(e_23_11_23_12, v_23_11, v_23_12).
edge(e_23_12_24_12, v_23_12, v_24_12).
edge(e_23_12_23_13, v_23_12, v_23_13).
edge(e_23_13_24_13, v_23_13, v_24_13).
edge(e_23_13_23_14, v_23_13, v_23_14).
edge(e_23_14_24_14, v_23_14, v_24_14).
edge(e_23_14_23_15, v_23_14, v_23_15).
edge(e_23_15_24_15, v_23_15, v_24_15).
edge(e_23_15_23_16, v_23_15, v_23_16).
edge(e_23_16_24_16, v_23_16, v_24_16).
edge(e_23_16_23_17, v_23_16, v_23_17).
edge(e_23_17_24_17, v_23_17, v_24_17).
edge(e_23_17_23_18, v_23_17, v_23_18).
edge(e_23_18_24_18, v_23_18, v_24_18).
edge(e_23_18_23_19, v_23_18, v_23_19).
edge(e_23_19_24_19, v_23_19, v_24_19).
edge(e_23_19_23_20, v_23_19, v_23_20).
edge(e_23_20_24_20, v_23_20, v_24_20).
edge(e_23_20_23_21, v_23_20, v_23_21).
edge(e_23_21_24_21, v_23_21, v_24_21).
edge(e_23_21_23_22, v_23_21, v_23_22).
edge(e_23_22_24_22, v_23_22, v_24_22).
edge(e_23_22_23_23, v_23_22, v_23_23).
edge(e_23_23_24_23, v_23_23, v_24_23).
edge(e_23_23_23_24, v_23_23, v_23_24).
edge(e_23_24_24_24, v_23_24, v_24_24).
edge(e_23_24_23_25, v_23_24, v_23_25).
edge(e_23_25_24_25, v_23_25, v_24_25).
edge(e_23_25_23_26, v_23_25, v_23_26).
edge(e_23_26_24_26, v_23_26, v_24_26).
edge(e_23_26_23_27, v_23_26, v_23_27).
edge(e_23_27_24_27, v_23_27, v_24_27).
edge(e_23_27_23_28, v_23_27, v_23_28).
edge(e_23_28_24_28, v_23_28, v_24_28).
edge(e_23_28_23_29, v_23_28, v_23_29).
edge(e_23_29_24_29, v_23_29, v_24_29).
edge(e_23_29_23_30, v_23_29, v_23_30).
edge(e_23_30_24_30, v_23_30, v_24_30).
edge(e_23_30_23_31, v_23_30, v_23_31).
edge(e_23_31_24_31, v_23_31, v_24_31).
edge(e_23_31_23_32, v_23_31, v_23_32).
edge(e_23_32_24_32, v_23_32, v_24_32).
edge(e_23_32_23_33, v_23_32, v_23_33).
edge(e_23_33_24_33, v_23_33, v_24_33).
edge(e_23_33_23_34, v_23_33, v_23_34).
edge(e_23_34_24_34, v_23_34, v_24_34).
edge(e_23_34_23_35, v_23_34, v_23_35).
edge(e_23_35_24_35, v_23_35, v_24_35).
edge(e_23_35_23_36, v_23_35, v_23_36).
edge(e_23_36_24_36, v_23_36, v_24_36).
edge(e_23_36_23_37, v_23_36, v_23_37).
edge(e_23_37_24_37, v_23_37, v_24_37).
edge(e_23_37_23_38, v_23_37, v_23_38).
edge(e_23_38_24_38, v_23_38, v_24_38).
edge(e_23_38_23_39, v_23_38, v_23_39).
edge(e_23_39_24_39, v_23_39, v_24_39).
edge(e_23_39_23_40, v_23_39, v_23_40).
edge(e_23_40_24_40, v_23_40, v_24_40).
edge(e_23_40_23_41, v_23_40, v_23_41).
edge(e_23_41_24_41, v_23_41, v_24_41).
edge(e_24_0_24_1, v_24_0, v_24_1).
edge(e_24_1_24_2, v_24_1, v_24_2).
edge(e_24_2_24_3, v_24_2, v_24_3).
edge(e_24_3_24_4, v_24_3, v_24_4).
edge(e_24_4_24_5, v_24_4, v_24_5).
edge(e_24_5_24_6, v_24_5, v_24_6).
edge(e_24_6_24_7, v_24_6, v_24_7).
edge(e_24_7_24_8, v_24_7, v_24_8).
edge(e_24_8_24_9, v_24_8, v_24_9).
edge(e_24_9_24_10, v_24_9, v_24_10).
edge(e_24_10_24_11, v_24_10, v_24_11).
edge(e_24_11_24_12, v_24_11, v_24_12).
edge(e_24_12_24_13, v_24_12, v_24_13).
edge(e_24_13_24_14, v_24_13, v_24_14).
edge(e_24_14_24_15, v_24_14, v_24_15).
edge(e_24_15_24_16, v_24_15, v_24_16).
edge(e_24_16_24_17, v_24_16, v_24_17).
edge(e_24_17_24_18, v_24_17, v_24_18).
edge(e_24_18_24_19, v_24_18, v_24_19).
edge(e_24_19_24_20, v_24_19, v_24_20).
edge(e_24_20_24_21, v_24_20, v_24_21).
edge(e_24_21_24_22, v_24_21, v_24_22).
edge(e_24_22_24_23, v_24_22, v_24_23).
edge(e_24_23_24_24, v_24_23, v_24_24).
edge(e_24_24_24_25, v_24_24, v_24_25).
edge(e_24_25_24_26, v_24_25, v_24_26).
edge(e_24_26_24_27, v_24_26, v_24_27).
edge(e_24_27_24_28, v_24_27, v_24_28).
edge(e_24_28_24_29, v_24_28, v_24_29).
edge(e_24_29_24_30, v_24_29, v_24_30).
edge(e_24_30_24_31, v_24_30, v_24_31).
edge(e_24_31_24_32, v_24_31, v_24_32).
edge(e_24_32_24_33, v_24_32, v_24_33).
edge(e_24_33_24_34, v_24_33, v_24_34).
edge(e_24_34_24_35, v_24_34, v_24_35).
edge(e_24_35_24_36, v_24_35, v_24_36).
edge(e_24_36_24_37, v_24_36, v_24_37).
edge(e_24_37_24_38, v_24_37, v_24_38).
edge(e_24_38_24_39, v_24_38, v_24_39).
edge(e_24_39_24_40, v_24_39, v_24_40).
edge(e_24_40_24_41, v_24_40, v_24_41).
connection(1, v_0_41, v_24_0).
connection(10, v_2_13, v_10_5).
connection(11, v_9_5, v_11_6).
connection(12, v_1_13, v_8_5).
connection(13, v_6_5, v_7_16).
connection(14, v_5_5, v_18_12).
connection(15, v_4_17, v_18_9).
connection(16, v_5_14, v_14_11).
connection(17, v_2_15, v_6_14).
connection(18, v_2_21, v_5_16).
connection(19, v_5_15, v_11_19).
connection(2, v_20_1, v_22_3).
connection(20, v_18_20, v_20_20).
connection(21, v_10_24, v_17_21).
connection(22, v_16_19, v_16_21).
connection(23, v_16_26, v_19_36).
connection(24, v_3_39, v_18_36).
connection(25, v_1_32, v_17_36).
connection(26, v_10_33, v_16_36).
connection(27, v_15_36, v_17_25).
connection(28, v_14_36, v_19_27).
connection(29, v_13_29, v_20_29).
connection(3, v_8_14, v_21_2).
connection(30, v_15_27, v_19_29).
connection(31, v_16_27, v_18_29).
connection(32, v_8_23, v_14_23).
connection(33, v_5_25, v_7_23).
connection(34, v_3_23, v_6_23).
connection(35, v_6_25, v_9_26).
connection(36, v_15_17, v_17_18).
connection(37, v_18_18, v_20_22).
connection(38, v_15_20, v_19_24).
connection(39, v_2_38, v_19_25).
connection(4, v_6_3, v_20_15).
connection(40, v_19_26, v_22_25).
connection(41, v_8_15, v_16_18).
connection(42, v_8_16, v_13_21).
connection(43, v_16_25, v_18_27).
connection(44, v_15_24, v_18_21).
connection(45, v_9_32, v_13_30).
connection(46, v_4_29, v_10_36).
connection(47, v_4_31, v_8_37).
connection(48, v_6_30, v_20_24).
connection(49, v_2_36, v_4_40).
connection(5, v_2_2, v_11_7).
connection(50, v_2_28, v_15_25).
connection(51, v_10_28, v_14_24).
connection(52, v_8_22, v_12_19).
connection(53, v_6_21, v_8_20).
connection(54, v_7_20, v_11_20).
connection(55, v_6_20, v_10_19).
connection(56, v_2_18, v_4_25).
connection(57, v_7_25, v_8_29).
connection(58, v_9_36, v_11_35).
connection(59, v_3_31, v_5_32).
connection(6, v_14_7, v_17_5).
connection(60, v_2_20, v_4_18).
connection(61, v_2_19, v_3_18).
connection(62, v_2_16, v_4_16).
connection(7, v_7_5, v_16_6).
connection(8, v_14_6, v_15_5).
connection(9, v_14_5, v_18_8).
% END
