% Numberlink Puzzle
% # Numberlink Puzzle
% # Author: Otto Janko
% # Source: http://www.janko.at/Raetsel/
% # URL: http://www.janko.at/Raetsel/Arukone/123.a.htm
% size 9 9
%  -  -  -  -  -  -  -  -  -
%  -  1  -  -  3  -  -  -  -
%  -  -  5  -  -  -  1  3  -
%  7  6  -  -  -  -  -  -  -
%  -  -  -  -  -  7  6  -  2
%  -  -  -  -  -  -  -  -  -
%  -  -  -  -  -  -  -  -  -
%  -  2  4  -  -  -  -  -  4
%  -  -  -  -  -  -  -  -  5
node(v_0_0).
node(v_0_1).
node(v_0_2).
node(v_0_3).
node(v_0_4).
node(v_0_5).
node(v_0_6).
node(v_0_7).
node(v_0_8).
node(v_1_0).
node(v_1_1).
node(v_1_2).
node(v_1_3).
node(v_1_4).
node(v_1_5).
node(v_1_6).
node(v_1_7).
node(v_1_8).
node(v_2_0).
node(v_2_1).
node(v_2_2).
node(v_2_3).
node(v_2_4).
node(v_2_5).
node(v_2_6).
node(v_2_7).
node(v_2_8).
node(v_3_0).
node(v_3_1).
node(v_3_2).
node(v_3_3).
node(v_3_4).
node(v_3_5).
node(v_3_6).
node(v_3_7).
node(v_3_8).
node(v_4_0).
node(v_4_1).
node(v_4_2).
node(v_4_3).
node(v_4_4).
node(v_4_5).
node(v_4_6).
node(v_4_7).
node(v_4_8).
node(v_5_0).
node(v_5_1).
node(v_5_2).
node(v_5_3).
node(v_5_4).
node(v_5_5).
node(v_5_6).
node(v_5_7).
node(v_5_8).
node(v_6_0).
node(v_6_1).
node(v_6_2).
node(v_6_3).
node(v_6_4).
node(v_6_5).
node(v_6_6).
node(v_6_7).
node(v_6_8).
node(v_7_0).
node(v_7_1).
node(v_7_2).
node(v_7_3).
node(v_7_4).
node(v_7_5).
node(v_7_6).
node(v_7_7).
node(v_7_8).
node(v_8_0).
node(v_8_1).
node(v_8_2).
node(v_8_3).
node(v_8_4).
node(v_8_5).
node(v_8_6).
node(v_8_7).
node(v_8_8).
edge(e_0_0_1_0, v_0_0, v_1_0).
edge(e_0_0_0_1, v_0_0, v_0_1).
edge(e_0_1_1_1, v_0_1, v_1_1).
edge(e_0_1_0_2, v_0_1, v_0_2).
edge(e_0_2_1_2, v_0_2, v_1_2).
edge(e_0_2_0_3, v_0_2, v_0_3).
edge(e_0_3_1_3, v_0_3, v_1_3).
edge(e_0_3_0_4, v_0_3, v_0_4).
edge(e_0_4_1_4, v_0_4, v_1_4).
edge(e_0_4_0_5, v_0_4, v_0_5).
edge(e_0_5_1_5, v_0_5, v_1_5).
edge(e_0_5_0_6, v_0_5, v_0_6).
edge(e_0_6_1_6, v_0_6, v_1_6).
edge(e_0_6_0_7, v_0_6, v_0_7).
edge(e_0_7_1_7, v_0_7, v_1_7).
edge(e_0_7_0_8, v_0_7, v_0_8).
edge(e_0_8_1_8, v_0_8, v_1_8).
edge(e_1_0_2_0, v_1_0, v_2_0).
edge(e_1_0_1_1, v_1_0, v_1_1).
edge(e_1_1_2_1, v_1_1, v_2_1).
edge(e_1_1_1_2, v_1_1, v_1_2).
edge(e_1_2_2_2, v_1_2, v_2_2).
edge(e_1_2_1_3, v_1_2, v_1_3).
edge(e_1_3_2_3, v_1_3, v_2_3).
edge(e_1_3_1_4, v_1_3, v_1_4).
edge(e_1_4_2_4, v_1_4, v_2_4).
edge(e_1_4_1_5, v_1_4, v_1_5).
edge(e_1_5_2_5, v_1_5, v_2_5).
edge(e_1_5_1_6, v_1_5, v_1_6).
edge(e_1_6_2_6, v_1_6, v_2_6).
edge(e_1_6_1_7, v_1_6, v_1_7).
edge(e_1_7_2_7, v_1_7, v_2_7).
edge(e_1_7_1_8, v_1_7, v_1_8).
edge(e_1_8_2_8, v_1_8, v_2_8).
edge(e_2_0_3_0, v_2_0, v_3_0).
edge(e_2_0_2_1, v_2_0, v_2_1).
edge(e_2_1_3_1, v_2_1, v_3_1).
edge(e_2_1_2_2, v_2_1, v_2_2).
edge(e_2_2_3_2, v_2_2, v_3_2).
edge(e_2_2_2_3, v_2_2, v_2_3).
edge(e_2_3_3_3, v_2_3, v_3_3).
edge(e_2_3_2_4, v_2_3, v_2_4).
edge(e_2_4_3_4, v_2_4, v_3_4).
edge(e_2_4_2_5, v_2_4, v_2_5).
edge(e_2_5_3_5, v_2_5, v_3_5).
edge(e_2_5_2_6, v_2_5, v_2_6).
edge(e_2_6_3_6, v_2_6, v_3_6).
edge(e_2_6_2_7, v_2_6, v_2_7).
edge(e_2_7_3_7, v_2_7, v_3_7).
edge(e_2_7_2_8, v_2_7, v_2_8).
edge(e_2_8_3_8, v_2_8, v_3_8).
edge(e_3_0_4_0, v_3_0, v_4_0).
edge(e_3_0_3_1, v_3_0, v_3_1).
edge(e_3_1_4_1, v_3_1, v_4_1).
edge(e_3_1_3_2, v_3_1, v_3_2).
edge(e_3_2_4_2, v_3_2, v_4_2).
edge(e_3_2_3_3, v_3_2, v_3_3).
edge(e_3_3_4_3, v_3_3, v_4_3).
edge(e_3_3_3_4, v_3_3, v_3_4).
edge(e_3_4_4_4, v_3_4, v_4_4).
edge(e_3_4_3_5, v_3_4, v_3_5).
edge(e_3_5_4_5, v_3_5, v_4_5).
edge(e_3_5_3_6, v_3_5, v_3_6).
edge(e_3_6_4_6, v_3_6, v_4_6).
edge(e_3_6_3_7, v_3_6, v_3_7).
edge(e_3_7_4_7, v_3_7, v_4_7).
edge(e_3_7_3_8, v_3_7, v_3_8).
edge(e_3_8_4_8, v_3_8, v_4_8).
edge(e_4_0_5_0, v_4_0, v_5_0).
edge(e_4_0_4_1, v_4_0, v_4_1).
edge(e_4_1_5_1, v_4_1, v_5_1).
edge(e_4_1_4_2, v_4_1, v_4_2).
edge(e_4_2_5_2, v_4_2, v_5_2).
edge(e_4_2_4_3, v_4_2, v_4_3).
edge(e_4_3_5_3, v_4_3, v_5_3).
edge(e_4_3_4_4, v_4_3, v_4_4).
edge(e_4_4_5_4, v_4_4, v_5_4).
edge(e_4_4_4_5, v_4_4, v_4_5).
edge(e_4_5_5_5, v_4_5, v_5_5).
edge(e_4_5_4_6, v_4_5, v_4_6).
edge(e_4_6_5_6, v_4_6, v_5_6).
edge(e_4_6_4_7, v_4_6, v_4_7).
edge(e_4_7_5_7, v_4_7, v_5_7).
edge(e_4_7_4_8, v_4_7, v_4_8).
edge(e_4_8_5_8, v_4_8, v_5_8).
edge(e_5_0_6_0, v_5_0, v_6_0).
edge(e_5_0_5_1, v_5_0, v_5_1).
edge(e_5_1_6_1, v_5_1, v_6_1).
edge(e_5_1_5_2, v_5_1, v_5_2).
edge(e_5_2_6_2, v_5_2, v_6_2).
edge(e_5_2_5_3, v_5_2, v_5_3).
edge(e_5_3_6_3, v_5_3, v_6_3).
edge(e_5_3_5_4, v_5_3, v_5_4).
edge(e_5_4_6_4, v_5_4, v_6_4).
edge(e_5_4_5_5, v_5_4, v_5_5).
edge(e_5_5_6_5, v_5_5, v_6_5).
edge(e_5_5_5_6, v_5_5, v_5_6).
edge(e_5_6_6_6, v_5_6, v_6_6).
edge(e_5_6_5_7, v_5_6, v_5_7).
edge(e_5_7_6_7, v_5_7, v_6_7).
edge(e_5_7_5_8, v_5_7, v_5_8).
edge(e_5_8_6_8, v_5_8, v_6_8).
edge(e_6_0_7_0, v_6_0, v_7_0).
edge(e_6_0_6_1, v_6_0, v_6_1).
edge(e_6_1_7_1, v_6_1, v_7_1).
edge(e_6_1_6_2, v_6_1, v_6_2).
edge(e_6_2_7_2, v_6_2, v_7_2).
edge(e_6_2_6_3, v_6_2, v_6_3).
edge(e_6_3_7_3, v_6_3, v_7_3).
edge(e_6_3_6_4, v_6_3, v_6_4).
edge(e_6_4_7_4, v_6_4, v_7_4).
edge(e_6_4_6_5, v_6_4, v_6_5).
edge(e_6_5_7_5, v_6_5, v_7_5).
edge(e_6_5_6_6, v_6_5, v_6_6).
edge(e_6_6_7_6, v_6_6, v_7_6).
edge(e_6_6_6_7, v_6_6, v_6_7).
edge(e_6_7_7_7, v_6_7, v_7_7).
edge(e_6_7_6_8, v_6_7, v_6_8).
edge(e_6_8_7_8, v_6_8, v_7_8).
edge(e_7_0_8_0, v_7_0, v_8_0).
edge(e_7_0_7_1, v_7_0, v_7_1).
edge(e_7_1_8_1, v_7_1, v_8_1).
edge(e_7_1_7_2, v_7_1, v_7_2).
edge(e_7_2_8_2, v_7_2, v_8_2).
edge(e_7_2_7_3, v_7_2, v_7_3).
edge(e_7_3_8_3, v_7_3, v_8_3).
edge(e_7_3_7_4, v_7_3, v_7_4).
edge(e_7_4_8_4, v_7_4, v_8_4).
edge(e_7_4_7_5, v_7_4, v_7_5).
edge(e_7_5_8_5, v_7_5, v_8_5).
edge(e_7_5_7_6, v_7_5, v_7_6).
edge(e_7_6_8_6, v_7_6, v_8_6).
edge(e_7_6_7_7, v_7_6, v_7_7).
edge(e_7_7_8_7, v_7_7, v_8_7).
edge(e_7_7_7_8, v_7_7, v_7_8).
edge(e_7_8_8_8, v_7_8, v_8_8).
edge(e_8_0_8_1, v_8_0, v_8_1).
edge(e_8_1_8_2, v_8_1, v_8_2).
edge(e_8_2_8_3, v_8_2, v_8_3).
edge(e_8_3_8_4, v_8_3, v_8_4).
edge(e_8_4_8_5, v_8_4, v_8_5).
edge(e_8_5_8_6, v_8_5, v_8_6).
edge(e_8_6_8_7, v_8_6, v_8_7).
edge(e_8_7_8_8, v_8_7, v_8_8).
connection(1, v_1_1, v_2_6).
connection(2, v_4_8, v_7_1).
connection(3, v_1_4, v_2_7).
connection(4, v_7_2, v_7_8).
connection(5, v_2_2, v_8_8).
connection(6, v_3_1, v_4_6).
connection(7, v_3_0, v_4_5).
% END
