% Numberlink Puzzle
% # Numberlink Puzzle
% # Author: Otto Janko
% # Source: http://www.janko.at/Raetsel/
% # URL: http://www.janko.at/Raetsel/Arukone/127.a.htm
% size 15 15
%  -  -  -  -  -  -  -  -  -  -  7  -  -  -  -
%  -  5  -  -  -  -  -  -  1  -  -  -  -  -  -
%  -  3  2  -  -  -  -  -  -  -  -  -  -  -  -
%  -  -  -  4  -  -  -  -  -  -  -  5  6  -  -
%  -  -  -  -  -  -  -  -  -  -  -  -  2  -  -
%  -  -  -  -  -  -  -  -  -  -  -  -  -  -  -
%  -  -  -  -  -  -  -  -  -  -  -  -  -  -  -
%  -  -  -  -  -  -  -  -  -  -  -  -  -  -  -
%  -  -  -  -  -  -  -  -  -  -  -  -  -  4  -
%  -  -  -  -  -  -  -  -  -  -  -  -  -  -  -
%  -  -  -  -  6  -  -  -  -  -  -  -  -  -  -
%  -  -  -  1  -  -  -  -  7  -  -  -  -  -  -
%  -  -  -  -  -  -  -  -  -  -  -  -  -  -  -
%  -  -  -  -  -  -  -  -  -  -  -  -  -  -  -
%  -  -  -  -  -  -  -  3  -  -  -  -  -  -  -
node(v_0_0).
node(v_0_1).
node(v_0_2).
node(v_0_3).
node(v_0_4).
node(v_0_5).
node(v_0_6).
node(v_0_7).
node(v_0_8).
node(v_0_9).
node(v_0_10).
node(v_0_11).
node(v_0_12).
node(v_0_13).
node(v_0_14).
node(v_1_0).
node(v_1_1).
node(v_1_2).
node(v_1_3).
node(v_1_4).
node(v_1_5).
node(v_1_6).
node(v_1_7).
node(v_1_8).
node(v_1_9).
node(v_1_10).
node(v_1_11).
node(v_1_12).
node(v_1_13).
node(v_1_14).
node(v_2_0).
node(v_2_1).
node(v_2_2).
node(v_2_3).
node(v_2_4).
node(v_2_5).
node(v_2_6).
node(v_2_7).
node(v_2_8).
node(v_2_9).
node(v_2_10).
node(v_2_11).
node(v_2_12).
node(v_2_13).
node(v_2_14).
node(v_3_0).
node(v_3_1).
node(v_3_2).
node(v_3_3).
node(v_3_4).
node(v_3_5).
node(v_3_6).
node(v_3_7).
node(v_3_8).
node(v_3_9).
node(v_3_10).
node(v_3_11).
node(v_3_12).
node(v_3_13).
node(v_3_14).
node(v_4_0).
node(v_4_1).
node(v_4_2).
node(v_4_3).
node(v_4_4).
node(v_4_5).
node(v_4_6).
node(v_4_7).
node(v_4_8).
node(v_4_9).
node(v_4_10).
node(v_4_11).
node(v_4_12).
node(v_4_13).
node(v_4_14).
node(v_5_0).
node(v_5_1).
node(v_5_2).
node(v_5_3).
node(v_5_4).
node(v_5_5).
node(v_5_6).
node(v_5_7).
node(v_5_8).
node(v_5_9).
node(v_5_10).
node(v_5_11).
node(v_5_12).
node(v_5_13).
node(v_5_14).
node(v_6_0).
node(v_6_1).
node(v_6_2).
node(v_6_3).
node(v_6_4).
node(v_6_5).
node(v_6_6).
node(v_6_7).
node(v_6_8).
node(v_6_9).
node(v_6_10).
node(v_6_11).
node(v_6_12).
node(v_6_13).
node(v_6_14).
node(v_7_0).
node(v_7_1).
node(v_7_2).
node(v_7_3).
node(v_7_4).
node(v_7_5).
node(v_7_6).
node(v_7_7).
node(v_7_8).
node(v_7_9).
node(v_7_10).
node(v_7_11).
node(v_7_12).
node(v_7_13).
node(v_7_14).
node(v_8_0).
node(v_8_1).
node(v_8_2).
node(v_8_3).
node(v_8_4).
node(v_8_5).
node(v_8_6).
node(v_8_7).
node(v_8_8).
node(v_8_9).
node(v_8_10).
node(v_8_11).
node(v_8_12).
node(v_8_13).
node(v_8_14).
node(v_9_0).
node(v_9_1).
node(v_9_2).
node(v_9_3).
node(v_9_4).
node(v_9_5).
node(v_9_6).
node(v_9_7).
node(v_9_8).
node(v_9_9).
node(v_9_10).
node(v_9_11).
node(v_9_12).
node(v_9_13).
node(v_9_14).
node(v_10_0).
node(v_10_1).
node(v_10_2).
node(v_10_3).
node(v_10_4).
node(v_10_5).
node(v_10_6).
node(v_10_7).
node(v_10_8).
node(v_10_9).
node(v_10_10).
node(v_10_11).
node(v_10_12).
node(v_10_13).
node(v_10_14).
node(v_11_0).
node(v_11_1).
node(v_11_2).
node(v_11_3).
node(v_11_4).
node(v_11_5).
node(v_11_6).
node(v_11_7).
node(v_11_8).
node(v_11_9).
node(v_11_10).
node(v_11_11).
node(v_11_12).
node(v_11_13).
node(v_11_14).
node(v_12_0).
node(v_12_1).
node(v_12_2).
node(v_12_3).
node(v_12_4).
node(v_12_5).
node(v_12_6).
node(v_12_7).
node(v_12_8).
node(v_12_9).
node(v_12_10).
node(v_12_11).
node(v_12_12).
node(v_12_13).
node(v_12_14).
node(v_13_0).
node(v_13_1).
node(v_13_2).
node(v_13_3).
node(v_13_4).
node(v_13_5).
node(v_13_6).
node(v_13_7).
node(v_13_8).
node(v_13_9).
node(v_13_10).
node(v_13_11).
node(v_13_12).
node(v_13_13).
node(v_13_14).
node(v_14_0).
node(v_14_1).
node(v_14_2).
node(v_14_3).
node(v_14_4).
node(v_14_5).
node(v_14_6).
node(v_14_7).
node(v_14_8).
node(v_14_9).
node(v_14_10).
node(v_14_11).
node(v_14_12).
node(v_14_13).
node(v_14_14).
edge(e_0_0_1_0, v_0_0, v_1_0).
edge(e_0_0_0_1, v_0_0, v_0_1).
edge(e_0_1_1_1, v_0_1, v_1_1).
edge(e_0_1_0_2, v_0_1, v_0_2).
edge(e_0_2_1_2, v_0_2, v_1_2).
edge(e_0_2_0_3, v_0_2, v_0_3).
edge(e_0_3_1_3, v_0_3, v_1_3).
edge(e_0_3_0_4, v_0_3, v_0_4).
edge(e_0_4_1_4, v_0_4, v_1_4).
edge(e_0_4_0_5, v_0_4, v_0_5).
edge(e_0_5_1_5, v_0_5, v_1_5).
edge(e_0_5_0_6, v_0_5, v_0_6).
edge(e_0_6_1_6, v_0_6, v_1_6).
edge(e_0_6_0_7, v_0_6, v_0_7).
edge(e_0_7_1_7, v_0_7, v_1_7).
edge(e_0_7_0_8, v_0_7, v_0_8).
edge(e_0_8_1_8, v_0_8, v_1_8).
edge(e_0_8_0_9, v_0_8, v_0_9).
edge(e_0_9_1_9, v_0_9, v_1_9).
edge(e_0_9_0_10, v_0_9, v_0_10).
edge(e_0_10_1_10, v_0_10, v_1_10).
edge(e_0_10_0_11, v_0_10, v_0_11).
edge(e_0_11_1_11, v_0_11, v_1_11).
edge(e_0_11_0_12, v_0_11, v_0_12).
edge(e_0_12_1_12, v_0_12, v_1_12).
edge(e_0_12_0_13, v_0_12, v_0_13).
edge(e_0_13_1_13, v_0_13, v_1_13).
edge(e_0_13_0_14, v_0_13, v_0_14).
edge(e_0_14_1_14, v_0_14, v_1_14).
edge(e_1_0_2_0, v_1_0, v_2_0).
edge(e_1_0_1_1, v_1_0, v_1_1).
edge(e_1_1_2_1, v_1_1, v_2_1).
edge(e_1_1_1_2, v_1_1, v_1_2).
edge(e_1_2_2_2, v_1_2, v_2_2).
edge(e_1_2_1_3, v_1_2, v_1_3).
edge(e_1_3_2_3, v_1_3, v_2_3).
edge(e_1_3_1_4, v_1_3, v_1_4).
edge(e_1_4_2_4, v_1_4, v_2_4).
edge(e_1_4_1_5, v_1_4, v_1_5).
edge(e_1_5_2_5, v_1_5, v_2_5).
edge(e_1_5_1_6, v_1_5, v_1_6).
edge(e_1_6_2_6, v_1_6, v_2_6).
edge(e_1_6_1_7, v_1_6, v_1_7).
edge(e_1_7_2_7, v_1_7, v_2_7).
edge(e_1_7_1_8, v_1_7, v_1_8).
edge(e_1_8_2_8, v_1_8, v_2_8).
edge(e_1_8_1_9, v_1_8, v_1_9).
edge(e_1_9_2_9, v_1_9, v_2_9).
edge(e_1_9_1_10, v_1_9, v_1_10).
edge(e_1_10_2_10, v_1_10, v_2_10).
edge(e_1_10_1_11, v_1_10, v_1_11).
edge(e_1_11_2_11, v_1_11, v_2_11).
edge(e_1_11_1_12, v_1_11, v_1_12).
edge(e_1_12_2_12, v_1_12, v_2_12).
edge(e_1_12_1_13, v_1_12, v_1_13).
edge(e_1_13_2_13, v_1_13, v_2_13).
edge(e_1_13_1_14, v_1_13, v_1_14).
edge(e_1_14_2_14, v_1_14, v_2_14).
edge(e_2_0_3_0, v_2_0, v_3_0).
edge(e_2_0_2_1, v_2_0, v_2_1).
edge(e_2_1_3_1, v_2_1, v_3_1).
edge(e_2_1_2_2, v_2_1, v_2_2).
edge(e_2_2_3_2, v_2_2, v_3_2).
edge(e_2_2_2_3, v_2_2, v_2_3).
edge(e_2_3_3_3, v_2_3, v_3_3).
edge(e_2_3_2_4, v_2_3, v_2_4).
edge(e_2_4_3_4, v_2_4, v_3_4).
edge(e_2_4_2_5, v_2_4, v_2_5).
edge(e_2_5_3_5, v_2_5, v_3_5).
edge(e_2_5_2_6, v_2_5, v_2_6).
edge(e_2_6_3_6, v_2_6, v_3_6).
edge(e_2_6_2_7, v_2_6, v_2_7).
edge(e_2_7_3_7, v_2_7, v_3_7).
edge(e_2_7_2_8, v_2_7, v_2_8).
edge(e_2_8_3_8, v_2_8, v_3_8).
edge(e_2_8_2_9, v_2_8, v_2_9).
edge(e_2_9_3_9, v_2_9, v_3_9).
edge(e_2_9_2_10, v_2_9, v_2_10).
edge(e_2_10_3_10, v_2_10, v_3_10).
edge(e_2_10_2_11, v_2_10, v_2_11).
edge(e_2_11_3_11, v_2_11, v_3_11).
edge(e_2_11_2_12, v_2_11, v_2_12).
edge(e_2_12_3_12, v_2_12, v_3_12).
edge(e_2_12_2_13, v_2_12, v_2_13).
edge(e_2_13_3_13, v_2_13, v_3_13).
edge(e_2_13_2_14, v_2_13, v_2_14).
edge(e_2_14_3_14, v_2_14, v_3_14).
edge(e_3_0_4_0, v_3_0, v_4_0).
edge(e_3_0_3_1, v_3_0, v_3_1).
edge(e_3_1_4_1, v_3_1, v_4_1).
edge(e_3_1_3_2, v_3_1, v_3_2).
edge(e_3_2_4_2, v_3_2, v_4_2).
edge(e_3_2_3_3, v_3_2, v_3_3).
edge(e_3_3_4_3, v_3_3, v_4_3).
edge(e_3_3_3_4, v_3_3, v_3_4).
edge(e_3_4_4_4, v_3_4, v_4_4).
edge(e_3_4_3_5, v_3_4, v_3_5).
edge(e_3_5_4_5, v_3_5, v_4_5).
edge(e_3_5_3_6, v_3_5, v_3_6).
edge(e_3_6_4_6, v_3_6, v_4_6).
edge(e_3_6_3_7, v_3_6, v_3_7).
edge(e_3_7_4_7, v_3_7, v_4_7).
edge(e_3_7_3_8, v_3_7, v_3_8).
edge(e_3_8_4_8, v_3_8, v_4_8).
edge(e_3_8_3_9, v_3_8, v_3_9).
edge(e_3_9_4_9, v_3_9, v_4_9).
edge(e_3_9_3_10, v_3_9, v_3_10).
edge(e_3_10_4_10, v_3_10, v_4_10).
edge(e_3_10_3_11, v_3_10, v_3_11).
edge(e_3_11_4_11, v_3_11, v_4_11).
edge(e_3_11_3_12, v_3_11, v_3_12).
edge(e_3_12_4_12, v_3_12, v_4_12).
edge(e_3_12_3_13, v_3_12, v_3_13).
edge(e_3_13_4_13, v_3_13, v_4_13).
edge(e_3_13_3_14, v_3_13, v_3_14).
edge(e_3_14_4_14, v_3_14, v_4_14).
edge(e_4_0_5_0, v_4_0, v_5_0).
edge(e_4_0_4_1, v_4_0, v_4_1).
edge(e_4_1_5_1, v_4_1, v_5_1).
edge(e_4_1_4_2, v_4_1, v_4_2).
edge(e_4_2_5_2, v_4_2, v_5_2).
edge(e_4_2_4_3, v_4_2, v_4_3).
edge(e_4_3_5_3, v_4_3, v_5_3).
edge(e_4_3_4_4, v_4_3, v_4_4).
edge(e_4_4_5_4, v_4_4, v_5_4).
edge(e_4_4_4_5, v_4_4, v_4_5).
edge(e_4_5_5_5, v_4_5, v_5_5).
edge(e_4_5_4_6, v_4_5, v_4_6).
edge(e_4_6_5_6, v_4_6, v_5_6).
edge(e_4_6_4_7, v_4_6, v_4_7).
edge(e_4_7_5_7, v_4_7, v_5_7).
edge(e_4_7_4_8, v_4_7, v_4_8).
edge(e_4_8_5_8, v_4_8, v_5_8).
edge(e_4_8_4_9, v_4_8, v_4_9).
edge(e_4_9_5_9, v_4_9, v_5_9).
edge(e_4_9_4_10, v_4_9, v_4_10).
edge(e_4_10_5_10, v_4_10, v_5_10).
edge(e_4_10_4_11, v_4_10, v_4_11).
edge(e_4_11_5_11, v_4_11, v_5_11).
edge(e_4_11_4_12, v_4_11, v_4_12).
edge(e_4_12_5_12, v_4_12, v_5_12).
edge(e_4_12_4_13, v_4_12, v_4_13).
edge(e_4_13_5_13, v_4_13, v_5_13).
edge(e_4_13_4_14, v_4_13, v_4_14).
edge(e_4_14_5_14, v_4_14, v_5_14).
edge(e_5_0_6_0, v_5_0, v_6_0).
edge(e_5_0_5_1, v_5_0, v_5_1).
edge(e_5_1_6_1, v_5_1, v_6_1).
edge(e_5_1_5_2, v_5_1, v_5_2).
edge(e_5_2_6_2, v_5_2, v_6_2).
edge(e_5_2_5_3, v_5_2, v_5_3).
edge(e_5_3_6_3, v_5_3, v_6_3).
edge(e_5_3_5_4, v_5_3, v_5_4).
edge(e_5_4_6_4, v_5_4, v_6_4).
edge(e_5_4_5_5, v_5_4, v_5_5).
edge(e_5_5_6_5, v_5_5, v_6_5).
edge(e_5_5_5_6, v_5_5, v_5_6).
edge(e_5_6_6_6, v_5_6, v_6_6).
edge(e_5_6_5_7, v_5_6, v_5_7).
edge(e_5_7_6_7, v_5_7, v_6_7).
edge(e_5_7_5_8, v_5_7, v_5_8).
edge(e_5_8_6_8, v_5_8, v_6_8).
edge(e_5_8_5_9, v_5_8, v_5_9).
edge(e_5_9_6_9, v_5_9, v_6_9).
edge(e_5_9_5_10, v_5_9, v_5_10).
edge(e_5_10_6_10, v_5_10, v_6_10).
edge(e_5_10_5_11, v_5_10, v_5_11).
edge(e_5_11_6_11, v_5_11, v_6_11).
edge(e_5_11_5_12, v_5_11, v_5_12).
edge(e_5_12_6_12, v_5_12, v_6_12).
edge(e_5_12_5_13, v_5_12, v_5_13).
edge(e_5_13_6_13, v_5_13, v_6_13).
edge(e_5_13_5_14, v_5_13, v_5_14).
edge(e_5_14_6_14, v_5_14, v_6_14).
edge(e_6_0_7_0, v_6_0, v_7_0).
edge(e_6_0_6_1, v_6_0, v_6_1).
edge(e_6_1_7_1, v_6_1, v_7_1).
edge(e_6_1_6_2, v_6_1, v_6_2).
edge(e_6_2_7_2, v_6_2, v_7_2).
edge(e_6_2_6_3, v_6_2, v_6_3).
edge(e_6_3_7_3, v_6_3, v_7_3).
edge(e_6_3_6_4, v_6_3, v_6_4).
edge(e_6_4_7_4, v_6_4, v_7_4).
edge(e_6_4_6_5, v_6_4, v_6_5).
edge(e_6_5_7_5, v_6_5, v_7_5).
edge(e_6_5_6_6, v_6_5, v_6_6).
edge(e_6_6_7_6, v_6_6, v_7_6).
edge(e_6_6_6_7, v_6_6, v_6_7).
edge(e_6_7_7_7, v_6_7, v_7_7).
edge(e_6_7_6_8, v_6_7, v_6_8).
edge(e_6_8_7_8, v_6_8, v_7_8).
edge(e_6_8_6_9, v_6_8, v_6_9).
edge(e_6_9_7_9, v_6_9, v_7_9).
edge(e_6_9_6_10, v_6_9, v_6_10).
edge(e_6_10_7_10, v_6_10, v_7_10).
edge(e_6_10_6_11, v_6_10, v_6_11).
edge(e_6_11_7_11, v_6_11, v_7_11).
edge(e_6_11_6_12, v_6_11, v_6_12).
edge(e_6_12_7_12, v_6_12, v_7_12).
edge(e_6_12_6_13, v_6_12, v_6_13).
edge(e_6_13_7_13, v_6_13, v_7_13).
edge(e_6_13_6_14, v_6_13, v_6_14).
edge(e_6_14_7_14, v_6_14, v_7_14).
edge(e_7_0_8_0, v_7_0, v_8_0).
edge(e_7_0_7_1, v_7_0, v_7_1).
edge(e_7_1_8_1, v_7_1, v_8_1).
edge(e_7_1_7_2, v_7_1, v_7_2).
edge(e_7_2_8_2, v_7_2, v_8_2).
edge(e_7_2_7_3, v_7_2, v_7_3).
edge(e_7_3_8_3, v_7_3, v_8_3).
edge(e_7_3_7_4, v_7_3, v_7_4).
edge(e_7_4_8_4, v_7_4, v_8_4).
edge(e_7_4_7_5, v_7_4, v_7_5).
edge(e_7_5_8_5, v_7_5, v_8_5).
edge(e_7_5_7_6, v_7_5, v_7_6).
edge(e_7_6_8_6, v_7_6, v_8_6).
edge(e_7_6_7_7, v_7_6, v_7_7).
edge(e_7_7_8_7, v_7_7, v_8_7).
edge(e_7_7_7_8, v_7_7, v_7_8).
edge(e_7_8_8_8, v_7_8, v_8_8).
edge(e_7_8_7_9, v_7_8, v_7_9).
edge(e_7_9_8_9, v_7_9, v_8_9).
edge(e_7_9_7_10, v_7_9, v_7_10).
edge(e_7_10_8_10, v_7_10, v_8_10).
edge(e_7_10_7_11, v_7_10, v_7_11).
edge(e_7_11_8_11, v_7_11, v_8_11).
edge(e_7_11_7_12, v_7_11, v_7_12).
edge(e_7_12_8_12, v_7_12, v_8_12).
edge(e_7_12_7_13, v_7_12, v_7_13).
edge(e_7_13_8_13, v_7_13, v_8_13).
edge(e_7_13_7_14, v_7_13, v_7_14).
edge(e_7_14_8_14, v_7_14, v_8_14).
edge(e_8_0_9_0, v_8_0, v_9_0).
edge(e_8_0_8_1, v_8_0, v_8_1).
edge(e_8_1_9_1, v_8_1, v_9_1).
edge(e_8_1_8_2, v_8_1, v_8_2).
edge(e_8_2_9_2, v_8_2, v_9_2).
edge(e_8_2_8_3, v_8_2, v_8_3).
edge(e_8_3_9_3, v_8_3, v_9_3).
edge(e_8_3_8_4, v_8_3, v_8_4).
edge(e_8_4_9_4, v_8_4, v_9_4).
edge(e_8_4_8_5, v_8_4, v_8_5).
edge(e_8_5_9_5, v_8_5, v_9_5).
edge(e_8_5_8_6, v_8_5, v_8_6).
edge(e_8_6_9_6, v_8_6, v_9_6).
edge(e_8_6_8_7, v_8_6, v_8_7).
edge(e_8_7_9_7, v_8_7, v_9_7).
edge(e_8_7_8_8, v_8_7, v_8_8).
edge(e_8_8_9_8, v_8_8, v_9_8).
edge(e_8_8_8_9, v_8_8, v_8_9).
edge(e_8_9_9_9, v_8_9, v_9_9).
edge(e_8_9_8_10, v_8_9, v_8_10).
edge(e_8_10_9_10, v_8_10, v_9_10).
edge(e_8_10_8_11, v_8_10, v_8_11).
edge(e_8_11_9_11, v_8_11, v_9_11).
edge(e_8_11_8_12, v_8_11, v_8_12).
edge(e_8_12_9_12, v_8_12, v_9_12).
edge(e_8_12_8_13, v_8_12, v_8_13).
edge(e_8_13_9_13, v_8_13, v_9_13).
edge(e_8_13_8_14, v_8_13, v_8_14).
edge(e_8_14_9_14, v_8_14, v_9_14).
edge(e_9_0_10_0, v_9_0, v_10_0).
edge(e_9_0_9_1, v_9_0, v_9_1).
edge(e_9_1_10_1, v_9_1, v_10_1).
edge(e_9_1_9_2, v_9_1, v_9_2).
edge(e_9_2_10_2, v_9_2, v_10_2).
edge(e_9_2_9_3, v_9_2, v_9_3).
edge(e_9_3_10_3, v_9_3, v_10_3).
edge(e_9_3_9_4, v_9_3, v_9_4).
edge(e_9_4_10_4, v_9_4, v_10_4).
edge(e_9_4_9_5, v_9_4, v_9_5).
edge(e_9_5_10_5, v_9_5, v_10_5).
edge(e_9_5_9_6, v_9_5, v_9_6).
edge(e_9_6_10_6, v_9_6, v_10_6).
edge(e_9_6_9_7, v_9_6, v_9_7).
edge(e_9_7_10_7, v_9_7, v_10_7).
edge(e_9_7_9_8, v_9_7, v_9_8).
edge(e_9_8_10_8, v_9_8, v_10_8).
edge(e_9_8_9_9, v_9_8, v_9_9).
edge(e_9_9_10_9, v_9_9, v_10_9).
edge(e_9_9_9_10, v_9_9, v_9_10).
edge(e_9_10_10_10, v_9_10, v_10_10).
edge(e_9_10_9_11, v_9_10, v_9_11).
edge(e_9_11_10_11, v_9_11, v_10_11).
edge(e_9_11_9_12, v_9_11, v_9_12).
edge(e_9_12_10_12, v_9_12, v_10_12).
edge(e_9_12_9_13, v_9_12, v_9_13).
edge(e_9_13_10_13, v_9_13, v_10_13).
edge(e_9_13_9_14, v_9_13, v_9_14).
edge(e_9_14_10_14, v_9_14, v_10_14).
edge(e_10_0_11_0, v_10_0, v_11_0).
edge(e_10_0_10_1, v_10_0, v_10_1).
edge(e_10_1_11_1, v_10_1, v_11_1).
edge(e_10_1_10_2, v_10_1, v_10_2).
edge(e_10_2_11_2, v_10_2, v_11_2).
edge(e_10_2_10_3, v_10_2, v_10_3).
edge(e_10_3_11_3, v_10_3, v_11_3).
edge(e_10_3_10_4, v_10_3, v_10_4).
edge(e_10_4_11_4, v_10_4, v_11_4).
edge(e_10_4_10_5, v_10_4, v_10_5).
edge(e_10_5_11_5, v_10_5, v_11_5).
edge(e_10_5_10_6, v_10_5, v_10_6).
edge(e_10_6_11_6, v_10_6, v_11_6).
edge(e_10_6_10_7, v_10_6, v_10_7).
edge(e_10_7_11_7, v_10_7, v_11_7).
edge(e_10_7_10_8, v_10_7, v_10_8).
edge(e_10_8_11_8, v_10_8, v_11_8).
edge(e_10_8_10_9, v_10_8, v_10_9).
edge(e_10_9_11_9, v_10_9, v_11_9).
edge(e_10_9_10_10, v_10_9, v_10_10).
edge(e_10_10_11_10, v_10_10, v_11_10).
edge(e_10_10_10_11, v_10_10, v_10_11).
edge(e_10_11_11_11, v_10_11, v_11_11).
edge(e_10_11_10_12, v_10_11, v_10_12).
edge(e_10_12_11_12, v_10_12, v_11_12).
edge(e_10_12_10_13, v_10_12, v_10_13).
edge(e_10_13_11_13, v_10_13, v_11_13).
edge(e_10_13_10_14, v_10_13, v_10_14).
edge(e_10_14_11_14, v_10_14, v_11_14).
edge(e_11_0_12_0, v_11_0, v_12_0).
edge(e_11_0_11_1, v_11_0, v_11_1).
edge(e_11_1_12_1, v_11_1, v_12_1).
edge(e_11_1_11_2, v_11_1, v_11_2).
edge(e_11_2_12_2, v_11_2, v_12_2).
edge(e_11_2_11_3, v_11_2, v_11_3).
edge(e_11_3_12_3, v_11_3, v_12_3).
edge(e_11_3_11_4, v_11_3, v_11_4).
edge(e_11_4_12_4, v_11_4, v_12_4).
edge(e_11_4_11_5, v_11_4, v_11_5).
edge(e_11_5_12_5, v_11_5, v_12_5).
edge(e_11_5_11_6, v_11_5, v_11_6).
edge(e_11_6_12_6, v_11_6, v_12_6).
edge(e_11_6_11_7, v_11_6, v_11_7).
edge(e_11_7_12_7, v_11_7, v_12_7).
edge(e_11_7_11_8, v_11_7, v_11_8).
edge(e_11_8_12_8, v_11_8, v_12_8).
edge(e_11_8_11_9, v_11_8, v_11_9).
edge(e_11_9_12_9, v_11_9, v_12_9).
edge(e_11_9_11_10, v_11_9, v_11_10).
edge(e_11_10_12_10, v_11_10, v_12_10).
edge(e_11_10_11_11, v_11_10, v_11_11).
edge(e_11_11_12_11, v_11_11, v_12_11).
edge(e_11_11_11_12, v_11_11, v_11_12).
edge(e_11_12_12_12, v_11_12, v_12_12).
edge(e_11_12_11_13, v_11_12, v_11_13).
edge(e_11_13_12_13, v_11_13, v_12_13).
edge(e_11_13_11_14, v_11_13, v_11_14).
edge(e_11_14_12_14, v_11_14, v_12_14).
edge(e_12_0_13_0, v_12_0, v_13_0).
edge(e_12_0_12_1, v_12_0, v_12_1).
edge(e_12_1_13_1, v_12_1, v_13_1).
edge(e_12_1_12_2, v_12_1, v_12_2).
edge(e_12_2_13_2, v_12_2, v_13_2).
edge(e_12_2_12_3, v_12_2, v_12_3).
edge(e_12_3_13_3, v_12_3, v_13_3).
edge(e_12_3_12_4, v_12_3, v_12_4).
edge(e_12_4_13_4, v_12_4, v_13_4).
edge(e_12_4_12_5, v_12_4, v_12_5).
edge(e_12_5_13_5, v_12_5, v_13_5).
edge(e_12_5_12_6, v_12_5, v_12_6).
edge(e_12_6_13_6, v_12_6, v_13_6).
edge(e_12_6_12_7, v_12_6, v_12_7).
edge(e_12_7_13_7, v_12_7, v_13_7).
edge(e_12_7_12_8, v_12_7, v_12_8).
edge(e_12_8_13_8, v_12_8, v_13_8).
edge(e_12_8_12_9, v_12_8, v_12_9).
edge(e_12_9_13_9, v_12_9, v_13_9).
edge(e_12_9_12_10, v_12_9, v_12_10).
edge(e_12_10_13_10, v_12_10, v_13_10).
edge(e_12_10_12_11, v_12_10, v_12_11).
edge(e_12_11_13_11, v_12_11, v_13_11).
edge(e_12_11_12_12, v_12_11, v_12_12).
edge(e_12_12_13_12, v_12_12, v_13_12).
edge(e_12_12_12_13, v_12_12, v_12_13).
edge(e_12_13_13_13, v_12_13, v_13_13).
edge(e_12_13_12_14, v_12_13, v_12_14).
edge(e_12_14_13_14, v_12_14, v_13_14).
edge(e_13_0_14_0, v_13_0, v_14_0).
edge(e_13_0_13_1, v_13_0, v_13_1).
edge(e_13_1_14_1, v_13_1, v_14_1).
edge(e_13_1_13_2, v_13_1, v_13_2).
edge(e_13_2_14_2, v_13_2, v_14_2).
edge(e_13_2_13_3, v_13_2, v_13_3).
edge(e_13_3_14_3, v_13_3, v_14_3).
edge(e_13_3_13_4, v_13_3, v_13_4).
edge(e_13_4_14_4, v_13_4, v_14_4).
edge(e_13_4_13_5, v_13_4, v_13_5).
edge(e_13_5_14_5, v_13_5, v_14_5).
edge(e_13_5_13_6, v_13_5, v_13_6).
edge(e_13_6_14_6, v_13_6, v_14_6).
edge(e_13_6_13_7, v_13_6, v_13_7).
edge(e_13_7_14_7, v_13_7, v_14_7).
edge(e_13_7_13_8, v_13_7, v_13_8).
edge(e_13_8_14_8, v_13_8, v_14_8).
edge(e_13_8_13_9, v_13_8, v_13_9).
edge(e_13_9_14_9, v_13_9, v_14_9).
edge(e_13_9_13_10, v_13_9, v_13_10).
edge(e_13_10_14_10, v_13_10, v_14_10).
edge(e_13_10_13_11, v_13_10, v_13_11).
edge(e_13_11_14_11, v_13_11, v_14_11).
edge(e_13_11_13_12, v_13_11, v_13_12).
edge(e_13_12_14_12, v_13_12, v_14_12).
edge(e_13_12_13_13, v_13_12, v_13_13).
edge(e_13_13_14_13, v_13_13, v_14_13).
edge(e_13_13_13_14, v_13_13, v_13_14).
edge(e_13_14_14_14, v_13_14, v_14_14).
edge(e_14_0_14_1, v_14_0, v_14_1).
edge(e_14_1_14_2, v_14_1, v_14_2).
edge(e_14_2_14_3, v_14_2, v_14_3).
edge(e_14_3_14_4, v_14_3, v_14_4).
edge(e_14_4_14_5, v_14_4, v_14_5).
edge(e_14_5_14_6, v_14_5, v_14_6).
edge(e_14_6_14_7, v_14_6, v_14_7).
edge(e_14_7_14_8, v_14_7, v_14_8).
edge(e_14_8_14_9, v_14_8, v_14_9).
edge(e_14_9_14_10, v_14_9, v_14_10).
edge(e_14_10_14_11, v_14_10, v_14_11).
edge(e_14_11_14_12, v_14_11, v_14_12).
edge(e_14_12_14_13, v_14_12, v_14_13).
edge(e_14_13_14_14, v_14_13, v_14_14).
connection(1, v_1_8, v_11_3).
connection(2, v_2_2, v_4_12).
connection(3, v_2_1, v_14_7).
connection(4, v_3_3, v_8_13).
connection(5, v_1_1, v_3_11).
connection(6, v_3_12, v_10_4).
connection(7, v_0_10, v_11_8).
% END
