person(1).
person(2).
person(3).
person(4).
person(5).
person(6).
person(7).
person(8).
person(9).
person(10).
person(11).
person(12).
person(13).
person(14).
person(15).
person(16).
person(17).
person(18).
person(19).
person(20).
person(21).
person(22).
person(23).
person(24).
person(25).
person(26).
person(27).
person(28).
person(29).
person(30).
thing(1).
thing(2).
thing(3).
thing(4).
thing(5).
thing(6).
thing(7).
thing(8).
thing(9).
thing(10).
thing(11).
thing(12).
thing(13).
thing(17).
thing(18).
thing(19).
thing(20).
thing(22).
thing(23).
thing(24).
thing(25).
thing(26).
thing(27).
thing(29).
thing(30).
thing(31).
thing(32).
thing(33).
thing(34).
thing(35).
thing(36).
thing(37).
thing(38).
thing(40).
thing(43).
thing(44).
thing(45).
thing(46).
thing(47).
thing(50).
thing(53).
thing(54).
thing(55).
thing(56).
thing(57).
thing(58).
thing(61).
thing(62).
thing(63).
thing(66).
thing(67).
thing(68).
thing(69).
thing(70).
thing(71).
thing(72).
thing(73).
thing(74).
thing(75).
thing(76).
thing(79).
thing(80).
thing(81).
thing(82).
thing(83).
thing(84).
thing(85).
thing(86).
thing(89).
thing(90).
thing(92).
thing(93).
thing(94).
thing(95).
thing(96).
thing(97).
thing(98).
thing(99).
thing(100).
thing(101).
thing(102).
thing(103).
thing(104).
thing(105).
thing(106).
thing(107).
thing(108).
thing(109).
thing(110).
thing(114).
thing(115).
thing(116).
thing(120).
thing(121).
thing(122).
thing(123).
thing(125).
thing(126).
thing(127).
thing(128).
thing(129).
thing(133).
thing(134).
thing(135).
thing(136).
thing(140).
thing(141).
thing(142).
thing(146).
thing(147).
thing(148).
thing(149).
thing(150).
thing(154).
thing(156).
thing(157).
thing(158).
thing(159).
thing(160).
thing(161).
thing(162).
thing(165).
thing(166).
thing(168).
thing(169).
thing(170).
thing(171).
thing(172).
thing(173).
thing(174).
thing(176).
thing(177).
thing(179).
thing(180).
thing(181).
thing(182).
thing(184).
thing(188).
thing(189).
thing(190).
thing(191).
thing(192).
thing(193).
personTOthing(1,71).
personTOthing(1,72).
personTOthing(1,73).
personTOthing(1,74).
personTOthing(1,75).
personTOthing(1,76).
personTOthing(2,101).
personTOthing(2,102).
personTOthing(2,103).
personTOthing(2,104).
personTOthing(2,105).
personTOthing(2,106).
personTOthing(2,107).
personTOthing(2,108).
personTOthing(2,109).
personTOthing(2,110).
personTOthing(3,176).
personTOthing(3,177).
personTOthing(4,40).
personTOthing(4,63).
personTOthing(4,154).
personTOthing(5,43).
personTOthing(5,44).
personTOthing(5,45).
personTOthing(5,46).
personTOthing(5,47).
personTOthing(6,22).
personTOthing(6,23).
personTOthing(6,24).
personTOthing(6,25).
personTOthing(6,26).
personTOthing(6,27).
personTOthing(7,66).
personTOthing(7,67).
personTOthing(7,68).
personTOthing(7,69).
personTOthing(7,70).
personTOthing(8,165).
personTOthing(8,166).
personTOthing(9,53).
personTOthing(9,54).
personTOthing(9,55).
personTOthing(9,56).
personTOthing(9,57).
personTOthing(9,58).
personTOthing(10,92).
personTOthing(10,93).
personTOthing(10,94).
personTOthing(10,95).
personTOthing(10,96).
personTOthing(10,97).
personTOthing(10,98).
personTOthing(10,99).
personTOthing(10,100).
personTOthing(11,61).
personTOthing(11,62).
personTOthing(11,125).
personTOthing(11,126).
personTOthing(11,127).
personTOthing(12,128).
personTOthing(12,129).
personTOthing(13,114).
personTOthing(13,115).
personTOthing(13,116).
personTOthing(14,133).
personTOthing(14,134).
personTOthing(14,135).
personTOthing(14,136).
personTOthing(15,82).
personTOthing(15,83).
personTOthing(15,84).
personTOthing(15,85).
personTOthing(15,86).
personTOthing(16,168).
personTOthing(16,169).
personTOthing(16,170).
personTOthing(17,20).
personTOthing(17,50).
personTOthing(17,162).
personTOthing(18,179).
personTOthing(18,180).
personTOthing(18,181).
personTOthing(18,182).
personTOthing(19,171).
personTOthing(19,172).
personTOthing(19,173).
personTOthing(19,174).
personTOthing(20,140).
personTOthing(20,141).
personTOthing(20,142).
personTOthing(21,1).
personTOthing(21,2).
personTOthing(21,3).
personTOthing(21,4).
personTOthing(21,5).
personTOthing(21,6).
personTOthing(21,7).
personTOthing(21,8).
personTOthing(21,9).
personTOthing(21,10).
personTOthing(22,11).
personTOthing(22,12).
personTOthing(22,13).
personTOthing(23,156).
personTOthing(23,157).
personTOthing(23,158).
personTOthing(23,159).
personTOthing(23,160).
personTOthing(23,161).
personTOthing(24,146).
personTOthing(24,147).
personTOthing(24,148).
personTOthing(24,149).
personTOthing(24,150).
personTOthing(25,89).
personTOthing(25,90).
personTOthing(25,184).
personTOthing(26,29).
personTOthing(26,30).
personTOthing(26,31).
personTOthing(26,32).
personTOthing(26,33).
personTOthing(26,34).
personTOthing(26,35).
personTOthing(26,36).
personTOthing(26,37).
personTOthing(26,38).
personTOthing(27,79).
personTOthing(27,80).
personTOthing(27,81).
personTOthing(28,17).
personTOthing(28,18).
personTOthing(28,19).
personTOthing(29,120).
personTOthing(29,121).
personTOthing(29,122).
personTOthing(29,123).
personTOthing(30,188).
personTOthing(30,189).
personTOthing(30,190).
personTOthing(30,191).
personTOthing(30,192).
personTOthing(30,193).
cabinetDomain(1).
cabinetDomain(2).
cabinetDomain(3).
cabinetDomain(4).
cabinetDomain(5).
cabinetDomain(6).
cabinetDomain(7).
cabinetDomain(8).
cabinetDomain(9).
cabinetDomain(10).
cabinetDomain(11).
cabinetDomain(12).
cabinetDomain(13).
cabinetDomain(14).
cabinetDomain(15).
cabinetDomain(16).
cabinetDomain(17).
cabinetDomain(18).
cabinetDomain(19).
cabinetDomain(20).
cabinetDomain(21).
cabinetDomain(22).
cabinetDomain(23).
cabinetDomain(24).
cabinetDomain(25).
cabinetDomain(26).
cabinetDomain(27).
cabinetDomain(28).
cabinetDomain(29).
cabinetDomain(30).
cabinetDomain(31).
cabinetDomain(32).
cabinetDomain(33).
cabinetDomain(34).
cabinetDomain(35).
cabinetDomain(36).
cabinetDomain(37).
cabinetDomain(38).
cabinetDomain(39).
cabinetDomain(40).
cabinetDomain(41).
cabinetDomain(42).
cabinetDomain(43).
cabinetDomain(44).
cabinetDomain(45).
cabinetDomain(46).
cabinetDomain(47).
cabinetDomain(48).
cabinetDomain(49).
cabinetDomain(50).
cabinetDomain(51).
cabinetDomain(52).
cabinetDomain(53).
cabinetDomain(54).
cabinetDomain(55).
cabinetDomain(56).
cabinetDomain(57).
cabinetDomain(58).
cabinetDomain(59).
cabinetDomain(60).
cabinetDomain(61).
cabinetDomain(62).
cabinetDomain(63).
cabinetDomain(64).
cabinetDomain(65).
cabinetDomain(66).
cabinetDomain(67).
cabinetDomain(68).
cabinetDomain(69).
cabinetDomain(70).
cabinetDomain(71).
cabinetDomain(72).
cabinetDomain(73).
cabinetDomain(74).
cabinetDomain(75).
cabinetDomain(76).
cabinetDomain(77).
cabinetDomain(78).
cabinetDomain(79).
cabinetDomain(80).
cabinetDomain(81).
cabinetDomain(82).
cabinetDomain(83).
cabinetDomain(84).
cabinetDomain(85).
cabinetDomain(86).
cabinetDomain(87).
cabinetDomain(88).
cabinetDomain(89).
cabinetDomain(90).
cabinetDomain(91).
cabinetDomain(92).
cabinetDomain(93).
cabinetDomain(94).
cabinetDomain(95).
cabinetDomain(96).
cabinetDomain(97).
cabinetDomain(98).
cabinetDomain(99).
cabinetDomain(100).
cabinetDomain(101).
cabinetDomain(102).
cabinetDomain(103).
cabinetDomain(104).
cabinetDomain(105).
cabinetDomain(106).
cabinetDomain(107).
cabinetDomain(108).
cabinetDomain(109).
cabinetDomain(110).
cabinetDomain(111).
cabinetDomain(112).
cabinetDomain(113).
cabinetDomain(114).
cabinetDomain(115).
cabinetDomain(116).
cabinetDomain(117).
cabinetDomain(118).
cabinetDomain(119).
cabinetDomain(120).
roomDomain(1).
roomDomain(2).
roomDomain(3).
roomDomain(4).
roomDomain(5).
roomDomain(6).
roomDomain(7).
roomDomain(8).
roomDomain(9).
roomDomain(10).
roomDomain(11).
roomDomain(12).
roomDomain(13).
roomDomain(14).
roomDomain(15).
roomDomain(16).
roomDomain(17).
roomDomain(18).
roomDomain(19).
roomDomain(20).
roomDomain(21).
roomDomain(22).
roomDomain(23).
roomDomain(24).
roomDomain(25).
roomDomain(26).
roomDomain(27).
roomDomain(28).
roomDomain(29).
roomDomain(30).
