person(1).
person(2).
person(3).
person(4).
thing(1).
thing(2).
thing(3).
thing(4).
thing(5).
thing(6).
thing(7).
thing(8).
thing(9).
thing(13).
thing(14).
thing(15).
thing(16).
thing(18).
thing(22).
thing(23).
thing(24).
thing(25).
thing(26).
thing(27).
thing(30).
personTOthing(1,18).
personTOthing(1,30).
personTOthing(2,1).
personTOthing(2,2).
personTOthing(2,3).
personTOthing(2,4).
personTOthing(2,5).
personTOthing(2,6).
personTOthing(2,7).
personTOthing(2,8).
personTOthing(2,9).
personTOthing(3,13).
personTOthing(3,14).
personTOthing(3,15).
personTOthing(3,16).
personTOthing(4,22).
personTOthing(4,23).
personTOthing(4,24).
personTOthing(4,25).
personTOthing(4,26).
personTOthing(4,27).
cabinetDomain(1).
cabinetDomain(2).
cabinetDomain(3).
cabinetDomain(4).
cabinetDomain(5).
cabinetDomain(6).
cabinetDomain(7).
cabinetDomain(8).
cabinetDomain(9).
cabinetDomain(10).
cabinetDomain(11).
cabinetDomain(12).
cabinetDomain(13).
cabinetDomain(14).
cabinetDomain(15).
cabinetDomain(16).
roomDomain(1).
roomDomain(2).
roomDomain(3).
roomDomain(4).
