person(1).
person(2).
person(3).
person(4).
person(5).
person(6).
person(7).
person(8).
person(9).
person(10).
person(11).
person(12).
person(13).
person(14).
person(15).
person(16).
person(17).
person(18).
person(19).
person(20).
person(21).
person(22).
person(23).
person(24).
person(25).
person(26).
person(27).
person(28).
person(29).
person(30).
person(31).
person(32).
person(33).
person(34).
person(35).
person(36).
person(37).
person(38).
person(39).
person(40).
person(41).
person(42).
person(43).
person(44).
person(45).
person(46).
person(47).
person(48).
person(49).
person(50).
person(51).
person(52).
person(53).
person(54).
person(55).
person(56).
person(57).
person(58).
person(59).
person(60).
person(61).
person(62).
person(63).
person(64).
person(65).
person(66).
person(67).
person(68).
person(69).
person(70).
person(71).
person(72).
person(73).
person(74).
person(75).
person(76).
person(77).
person(78).
person(79).
person(80).
person(81).
person(82).
person(83).
person(84).
person(85).
person(86).
person(87).
person(88).
person(89).
person(90).
person(91).
person(92).
person(93).
person(94).
person(95).
person(96).
person(97).
person(98).
person(99).
person(100).
person(101).
person(102).
person(103).
person(104).
person(105).
person(106).
person(107).
person(108).
person(109).
person(110).
person(111).
person(112).
person(113).
person(114).
person(115).
person(116).
person(117).
person(118).
person(119).
person(120).
person(121).
person(122).
person(123).
person(124).
person(125).
person(126).
person(127).
person(128).
person(129).
person(130).
person(131).
person(132).
person(133).
person(134).
person(135).
person(136).
person(137).
person(138).
person(139).
person(140).
person(141).
person(142).
person(143).
person(144).
person(145).
person(146).
person(147).
person(148).
person(149).
person(150).
person(151).
person(152).
person(153).
person(154).
person(155).
person(156).
person(157).
person(158).
person(159).
person(160).
person(161).
person(162).
person(163).
person(164).
person(165).
person(166).
person(167).
person(168).
person(169).
person(170).
person(171).
person(172).
person(173).
person(174).
person(175).
person(176).
person(177).
person(178).
person(179).
person(180).
person(181).
person(182).
person(183).
person(184).
person(185).
person(186).
person(187).
person(188).
person(189).
person(190).
person(191).
person(192).
person(193).
person(194).
person(195).
person(196).
person(197).
person(198).
person(199).
person(200).
person(201).
person(202).
person(203).
person(204).
person(205).
person(206).
person(207).
person(208).
person(209).
person(210).
person(211).
person(212).
person(213).
person(214).
person(215).
person(216).
person(217).
person(218).
person(219).
person(220).
person(221).
person(222).
person(223).
person(224).
person(225).
person(226).
person(227).
person(228).
person(229).
person(230).
person(231).
person(232).
person(233).
person(234).
person(235).
person(236).
person(237).
person(238).
person(239).
person(240).
person(241).
person(242).
person(243).
person(244).
person(245).
person(246).
person(247).
person(248).
person(249).
person(250).
person(251).
person(252).
person(253).
person(254).
person(255).
person(256).
person(257).
person(258).
person(259).
person(260).
person(261).
person(262).
person(263).
person(264).
person(265).
person(266).
person(267).
person(268).
person(269).
person(270).
person(271).
person(272).
person(273).
person(274).
person(275).
person(276).
person(277).
person(278).
person(279).
person(280).
person(281).
person(282).
person(283).
person(284).
person(285).
person(286).
person(287).
person(288).
person(289).
person(290).
person(291).
person(292).
person(293).
person(294).
person(295).
person(296).
person(297).
person(298).
person(299).
person(300).
person(301).
person(302).
person(303).
person(304).
person(305).
person(306).
person(307).
person(308).
person(309).
person(310).
person(311).
person(312).
person(313).
person(314).
person(315).
person(316).
person(317).
person(318).
person(319).
person(320).
person(321).
person(322).
person(323).
person(324).
person(325).
person(326).
person(327).
person(328).
person(329).
person(330).
person(331).
person(332).
person(333).
person(334).
person(335).
person(336).
person(337).
person(338).
person(339).
person(340).
person(341).
person(342).
person(343).
person(344).
person(345).
person(346).
person(347).
person(348).
person(349).
person(350).
person(351).
person(352).
person(353).
person(354).
person(355).
person(356).
person(357).
person(358).
person(359).
person(360).
person(361).
person(362).
person(363).
person(364).
person(365).
person(366).
person(367).
person(368).
person(369).
person(370).
person(371).
person(372).
person(373).
person(374).
person(375).
person(376).
person(377).
person(378).
person(379).
person(380).
person(381).
person(382).
person(383).
person(384).
person(385).
person(386).
person(387).
person(388).
person(389).
person(390).
person(391).
person(392).
person(393).
person(394).
person(395).
person(396).
person(397).
person(398).
person(399).
person(400).
thing(1).
thing(2).
thing(3).
thing(4).
thing(5).
thing(8).
thing(9).
thing(13).
thing(14).
thing(15).
thing(16).
thing(19).
thing(20).
thing(22).
thing(23).
thing(24).
thing(27).
thing(28).
thing(29).
thing(30).
thing(31).
thing(32).
thing(33).
thing(34).
thing(35).
thing(39).
thing(40).
thing(41).
thing(42).
thing(43).
thing(44).
thing(45).
thing(46).
thing(47).
thing(48).
thing(50).
thing(51).
thing(55).
thing(56).
thing(59).
thing(60).
thing(63).
thing(64).
thing(65).
thing(66).
thing(67).
thing(68).
thing(69).
thing(71).
thing(72).
thing(73).
thing(74).
thing(75).
thing(76).
thing(77).
thing(78).
thing(79).
thing(83).
thing(84).
thing(85).
thing(87).
thing(88).
thing(89).
thing(90).
thing(91).
thing(92).
thing(93).
thing(94).
thing(95).
thing(96).
thing(97).
thing(98).
thing(99).
thing(100).
thing(101).
thing(102).
thing(105).
thing(106).
thing(108).
thing(109).
thing(110).
thing(113).
thing(114).
thing(115).
thing(117).
thing(118).
thing(119).
thing(123).
thing(124).
thing(125).
thing(126).
thing(127).
thing(128).
thing(129).
thing(130).
thing(131).
thing(132).
thing(133).
thing(134).
thing(135).
thing(138).
thing(139).
thing(140).
thing(141).
thing(142).
thing(143).
thing(144).
thing(145).
thing(146).
thing(147).
thing(148).
thing(149).
thing(151).
thing(152).
thing(153).
thing(154).
thing(155).
thing(156).
thing(157).
thing(159).
thing(160).
thing(161).
thing(162).
thing(163).
thing(164).
thing(165).
thing(166).
thing(167).
thing(168).
thing(169).
thing(170).
thing(171).
thing(172).
thing(173).
thing(174).
thing(175).
thing(176).
thing(177).
thing(178).
thing(179).
thing(180).
thing(182).
thing(183).
thing(184).
thing(185).
thing(186).
thing(187).
thing(188).
thing(189).
thing(190).
thing(194).
thing(195).
thing(196).
thing(197).
thing(198).
thing(201).
thing(202).
thing(203).
thing(204).
thing(205).
thing(207).
thing(208).
thing(209).
thing(213).
thing(214).
thing(215).
thing(218).
thing(219).
thing(220).
thing(221).
thing(222).
thing(224).
thing(225).
thing(226).
thing(227).
thing(230).
thing(231).
thing(232).
thing(233).
thing(236).
thing(237).
thing(238).
thing(239).
thing(240).
thing(243).
thing(244).
thing(245).
thing(246).
thing(247).
thing(248).
thing(249).
thing(250).
thing(251).
thing(252).
thing(253).
thing(254).
thing(255).
thing(256).
thing(258).
thing(259).
thing(260).
thing(261).
thing(262).
thing(263).
thing(264).
thing(265).
thing(266).
thing(267).
thing(271).
thing(272).
thing(273).
thing(274).
thing(275).
thing(276).
thing(277).
thing(278).
thing(279).
thing(280).
thing(281).
thing(282).
thing(283).
thing(287).
thing(291).
thing(292).
thing(293).
thing(294).
thing(295).
thing(296).
thing(297).
thing(298).
thing(299).
thing(300).
thing(303).
thing(304).
thing(305).
thing(306).
thing(307).
thing(308).
thing(310).
thing(311).
thing(312).
thing(313).
thing(314).
thing(315).
thing(316).
thing(318).
thing(319).
thing(320).
thing(323).
thing(324).
thing(325).
thing(326).
thing(329).
thing(330).
thing(331).
thing(332).
thing(333).
thing(334).
thing(335).
thing(336).
thing(337).
thing(338).
thing(339).
thing(340).
thing(341).
thing(342).
thing(343).
thing(347).
thing(348).
thing(349).
thing(350).
thing(351).
thing(352).
thing(353).
thing(354).
thing(355).
thing(359).
thing(360).
thing(361).
thing(362).
thing(363).
thing(364).
thing(365).
thing(366).
thing(368).
thing(369).
thing(370).
thing(373).
thing(374).
thing(375).
thing(378).
thing(379).
thing(380).
thing(382).
thing(383).
thing(384).
thing(385).
thing(386).
thing(387).
thing(390).
thing(391).
thing(392).
thing(393).
thing(394).
thing(397).
thing(398).
thing(399).
thing(400).
thing(401).
thing(402).
thing(403).
thing(406).
thing(407).
thing(408).
thing(409).
thing(410).
thing(411).
thing(412).
thing(414).
thing(415).
thing(416).
thing(417).
thing(418).
thing(419).
thing(420).
thing(421).
thing(422).
thing(424).
thing(425).
thing(426).
thing(427).
thing(428).
thing(429).
thing(430).
thing(431).
thing(432).
thing(435).
thing(436).
thing(437).
thing(438).
thing(439).
thing(440).
thing(441).
thing(445).
thing(446).
thing(447).
thing(448).
thing(449).
thing(450).
thing(451).
thing(452).
thing(455).
thing(456).
thing(457).
thing(460).
thing(461).
thing(462).
thing(464).
thing(465).
thing(469).
thing(470).
thing(474).
thing(477).
thing(478).
thing(479).
thing(480).
thing(481).
thing(482).
thing(483).
thing(484).
thing(485).
thing(487).
thing(491).
thing(492).
thing(493).
thing(494).
thing(495).
thing(496).
thing(497).
thing(498).
thing(499).
thing(500).
thing(501).
thing(502).
thing(503).
thing(504).
thing(508).
thing(509).
thing(510).
thing(511).
thing(515).
thing(516).
thing(517).
thing(518).
thing(519).
thing(520).
thing(521).
thing(522).
thing(523).
thing(524).
thing(527).
thing(528).
thing(529).
thing(530).
thing(531).
thing(532).
thing(533).
thing(534).
thing(535).
thing(538).
thing(540).
thing(543).
thing(544).
thing(545).
thing(546).
thing(547).
thing(548).
thing(549).
thing(550).
thing(551).
thing(554).
thing(555).
thing(559).
thing(560).
thing(561).
thing(563).
thing(564).
thing(565).
thing(566).
thing(567).
thing(568).
thing(569).
thing(570).
thing(571).
thing(573).
thing(574).
thing(575).
thing(576).
thing(577).
thing(578).
thing(579).
thing(580).
thing(584).
thing(588).
thing(589).
thing(590).
thing(591).
thing(594).
thing(595).
thing(598).
thing(599).
thing(600).
thing(601).
thing(602).
thing(603).
thing(604).
thing(605).
thing(607).
thing(608).
thing(609).
thing(610).
thing(611).
thing(612).
thing(613).
thing(614).
thing(615).
thing(617).
thing(619).
thing(621).
thing(622).
thing(623).
thing(624).
thing(625).
thing(626).
thing(630).
thing(631).
thing(632).
thing(633).
thing(637).
thing(640).
thing(641).
thing(642).
thing(643).
thing(644).
thing(645).
thing(646).
thing(647).
thing(648).
thing(649).
thing(650).
thing(651).
thing(652).
thing(653).
thing(654).
thing(655).
thing(658).
thing(659).
thing(661).
thing(665).
thing(666).
thing(669).
thing(671).
thing(672).
thing(673).
thing(674).
thing(675).
thing(676).
thing(678).
thing(679).
thing(682).
thing(686).
thing(687).
thing(688).
thing(689).
thing(691).
thing(692).
thing(693).
thing(694).
thing(695).
thing(696).
thing(697).
thing(698).
thing(699).
thing(700).
thing(704).
thing(705).
thing(706).
thing(707).
thing(708).
thing(709).
thing(710).
thing(711).
thing(715).
thing(716).
thing(717).
thing(718).
thing(721).
thing(722).
thing(723).
thing(724).
thing(725).
thing(726).
thing(727).
thing(728).
thing(729).
thing(730).
thing(731).
thing(733).
thing(734).
thing(735).
thing(739).
thing(740).
thing(741).
thing(742).
thing(743).
thing(744).
thing(745).
thing(746).
thing(748).
thing(749).
thing(751).
thing(752).
thing(753).
thing(754).
thing(758).
thing(759).
thing(762).
thing(763).
thing(764).
thing(765).
thing(766).
thing(770).
thing(771).
thing(772).
thing(773).
thing(776).
thing(777).
thing(778).
thing(779).
thing(780).
thing(781).
thing(782).
thing(783).
thing(784).
thing(787).
thing(788).
thing(789).
thing(790).
thing(791).
thing(792).
thing(793).
thing(794).
thing(795).
thing(796).
thing(797).
thing(798).
thing(799).
thing(800).
thing(801).
thing(802).
thing(806).
thing(809).
thing(813).
thing(814).
thing(815).
thing(816).
thing(819).
thing(820).
thing(821).
thing(822).
thing(823).
thing(824).
thing(825).
thing(826).
thing(827).
thing(828).
thing(829).
thing(830).
thing(831).
thing(832).
thing(833).
thing(837).
thing(838).
thing(839).
thing(840).
thing(841).
thing(842).
thing(846).
thing(847).
thing(848).
thing(849).
thing(850).
thing(851).
thing(852).
thing(853).
thing(854).
thing(856).
thing(857).
thing(858).
thing(861).
thing(862).
thing(863).
thing(864).
thing(865).
thing(866).
thing(867).
thing(868).
thing(869).
thing(870).
thing(874).
thing(876).
thing(877).
thing(878).
thing(879).
thing(880).
thing(881).
thing(882).
thing(883).
thing(884).
thing(885).
thing(886).
thing(887).
thing(888).
thing(889).
thing(890).
thing(891).
thing(895).
thing(896).
thing(897).
thing(898).
thing(899).
thing(900).
thing(901).
thing(902).
thing(903).
thing(904).
thing(905).
thing(906).
thing(907).
thing(908).
thing(909).
thing(910).
thing(911).
thing(912).
thing(915).
thing(916).
thing(920).
thing(921).
thing(923).
thing(924).
thing(927).
thing(928).
thing(929).
thing(930).
thing(932).
thing(933).
thing(934).
thing(935).
thing(936).
thing(937).
thing(938).
thing(939).
thing(940).
thing(944).
thing(947).
thing(948).
thing(949).
thing(951).
thing(952).
thing(956).
thing(957).
thing(958).
thing(959).
thing(960).
thing(964).
thing(966).
thing(967).
thing(968).
thing(969).
thing(970).
thing(971).
thing(972).
thing(973).
thing(974).
thing(975).
thing(976).
thing(978).
thing(981).
thing(982).
thing(985).
thing(986).
thing(987).
thing(988).
thing(989).
thing(990).
thing(991).
thing(992).
thing(993).
thing(997).
thing(998).
thing(999).
thing(1000).
thing(1001).
thing(1002).
thing(1005).
thing(1006).
thing(1009).
thing(1010).
thing(1014).
thing(1015).
thing(1016).
thing(1017).
thing(1018).
thing(1019).
thing(1020).
thing(1021).
thing(1022).
thing(1023).
thing(1026).
thing(1027).
thing(1028).
thing(1031).
thing(1033).
thing(1034).
thing(1035).
thing(1036).
thing(1037).
thing(1038).
thing(1039).
thing(1040).
thing(1041).
thing(1045).
thing(1046).
thing(1047).
thing(1048).
thing(1049).
thing(1050).
thing(1051).
thing(1052).
thing(1053).
thing(1054).
thing(1055).
thing(1056).
thing(1059).
thing(1060).
thing(1061).
thing(1062).
thing(1063).
thing(1064).
thing(1065).
thing(1066).
thing(1068).
thing(1069).
thing(1070).
thing(1071).
thing(1072).
thing(1075).
thing(1076).
thing(1077).
thing(1078).
thing(1079).
thing(1080).
thing(1082).
thing(1084).
thing(1085).
thing(1086).
thing(1087).
thing(1088).
thing(1089).
thing(1090).
thing(1091).
thing(1094).
thing(1095).
thing(1096).
thing(1097).
thing(1098).
thing(1099).
thing(1100).
thing(1101).
thing(1102).
thing(1103).
thing(1104).
thing(1105).
thing(1106).
thing(1107).
thing(1111).
thing(1112).
thing(1115).
thing(1116).
thing(1117).
thing(1118).
thing(1119).
thing(1120).
thing(1121).
thing(1122).
thing(1123).
thing(1125).
thing(1126).
thing(1127).
thing(1128).
thing(1129).
thing(1130).
thing(1131).
thing(1132).
thing(1133).
thing(1134).
thing(1135).
thing(1136).
thing(1137).
thing(1138).
thing(1140).
thing(1141).
thing(1142).
thing(1143).
thing(1144).
thing(1145).
thing(1146).
thing(1147).
thing(1148).
thing(1149).
thing(1150).
thing(1151).
thing(1152).
thing(1153).
thing(1154).
thing(1155).
thing(1156).
thing(1158).
thing(1159).
thing(1160).
thing(1161).
thing(1162).
thing(1163).
thing(1164).
thing(1165).
thing(1167).
thing(1168).
thing(1169).
thing(1170).
thing(1171).
thing(1172).
thing(1173).
thing(1174).
thing(1178).
thing(1179).
thing(1180).
thing(1181).
thing(1182).
thing(1183).
thing(1184).
thing(1185).
thing(1186).
thing(1188).
thing(1191).
thing(1192).
thing(1196).
thing(1197).
thing(1198).
thing(1201).
thing(1204).
thing(1205).
thing(1206).
thing(1207).
thing(1208).
thing(1210).
thing(1211).
thing(1212).
thing(1213).
thing(1214).
thing(1215).
thing(1217).
thing(1218).
thing(1219).
thing(1220).
thing(1221).
thing(1222).
thing(1225).
thing(1226).
thing(1227).
thing(1228).
thing(1229).
thing(1233).
thing(1234).
thing(1236).
thing(1237).
thing(1238).
thing(1239).
thing(1240).
thing(1241).
thing(1242).
thing(1243).
thing(1244).
thing(1247).
thing(1248).
thing(1249).
thing(1250).
thing(1251).
thing(1253).
thing(1257).
thing(1258).
thing(1262).
thing(1263).
thing(1264).
thing(1265).
thing(1266).
thing(1267).
thing(1268).
thing(1270).
thing(1271).
thing(1274).
thing(1275).
thing(1276).
thing(1277).
thing(1278).
thing(1279).
thing(1280).
thing(1282).
thing(1283).
thing(1285).
thing(1286).
thing(1287).
thing(1288).
thing(1289).
thing(1290).
thing(1291).
thing(1292).
thing(1293).
thing(1296).
thing(1297).
thing(1298).
thing(1299).
thing(1300).
thing(1302).
thing(1303).
thing(1304).
thing(1305).
thing(1307).
thing(1308).
thing(1309).
thing(1310).
thing(1311).
thing(1312).
thing(1313).
thing(1314).
thing(1315).
thing(1316).
thing(1318).
thing(1319).
thing(1320).
thing(1321).
thing(1322).
thing(1325).
thing(1326).
thing(1327).
thing(1328).
thing(1329).
thing(1330).
thing(1331).
thing(1332).
thing(1333).
thing(1336).
thing(1340).
thing(1341).
thing(1342).
thing(1343).
thing(1344).
thing(1345).
thing(1346).
thing(1349).
thing(1350).
thing(1351).
thing(1352).
thing(1353).
thing(1356).
thing(1357).
thing(1359).
thing(1361).
thing(1362).
thing(1363).
thing(1364).
thing(1365).
thing(1366).
thing(1367).
thing(1368).
thing(1369).
thing(1370).
thing(1371).
thing(1372).
thing(1373).
thing(1374).
thing(1378).
thing(1379).
thing(1380).
thing(1381).
thing(1382).
thing(1383).
thing(1384).
thing(1385).
thing(1386).
thing(1387).
thing(1388).
thing(1389).
thing(1390).
thing(1391).
thing(1395).
thing(1398).
thing(1400).
thing(1401).
thing(1403).
thing(1404).
thing(1405).
thing(1406).
thing(1407).
thing(1408).
thing(1409).
thing(1410).
thing(1411).
thing(1414).
thing(1415).
thing(1416).
thing(1418).
thing(1419).
thing(1421).
thing(1422).
thing(1423).
thing(1424).
thing(1425).
thing(1426).
thing(1427).
thing(1428).
thing(1429).
thing(1430).
thing(1431).
thing(1432).
thing(1433).
thing(1434).
thing(1435).
thing(1436).
thing(1437).
thing(1438).
thing(1439).
thing(1440).
thing(1441).
thing(1442).
thing(1443).
thing(1444).
thing(1445).
thing(1447).
thing(1448).
thing(1451).
thing(1452).
thing(1453).
thing(1454).
thing(1455).
thing(1456).
thing(1457).
thing(1458).
thing(1461).
thing(1462).
thing(1463).
thing(1467).
thing(1469).
thing(1470).
thing(1471).
thing(1472).
thing(1473).
thing(1474).
thing(1475).
thing(1476).
thing(1477).
thing(1479).
thing(1480).
thing(1481).
thing(1482).
thing(1483).
thing(1484).
thing(1485).
thing(1486).
thing(1487).
thing(1488).
thing(1490).
thing(1493).
thing(1494).
thing(1495).
thing(1496).
thing(1497).
thing(1498).
thing(1499).
thing(1500).
thing(1501).
thing(1502).
thing(1503).
thing(1506).
thing(1507).
thing(1508).
thing(1509).
thing(1510).
thing(1511).
thing(1512).
thing(1513).
thing(1514).
thing(1515).
thing(1516).
thing(1517).
thing(1518).
thing(1519).
thing(1520).
thing(1523).
thing(1524).
thing(1527).
thing(1528).
thing(1530).
thing(1531).
thing(1532).
thing(1533).
thing(1534).
thing(1535).
thing(1536).
thing(1537).
thing(1538).
thing(1539).
thing(1540).
thing(1541).
thing(1542).
thing(1545).
thing(1546).
thing(1547).
thing(1548).
thing(1552).
thing(1553).
thing(1554).
thing(1555).
thing(1556).
thing(1557).
thing(1558).
thing(1559).
thing(1561).
thing(1562).
thing(1563).
thing(1564).
thing(1565).
thing(1566).
thing(1567).
thing(1568).
thing(1570).
thing(1571).
thing(1575).
thing(1576).
thing(1577).
thing(1578).
thing(1579).
thing(1580).
thing(1581).
thing(1582).
thing(1583).
thing(1584).
thing(1585).
thing(1586).
thing(1588).
thing(1589).
thing(1590).
thing(1591).
thing(1595).
thing(1596).
thing(1597).
thing(1598).
thing(1599).
thing(1600).
thing(1603).
thing(1604).
thing(1605).
thing(1606).
thing(1607).
thing(1608).
thing(1609).
thing(1610).
thing(1614).
thing(1615).
thing(1616).
thing(1617).
thing(1618).
thing(1619).
thing(1620).
thing(1621).
thing(1622).
thing(1624).
thing(1626).
thing(1627).
thing(1628).
thing(1632).
thing(1633).
thing(1634).
thing(1635).
thing(1636).
thing(1637).
thing(1638).
thing(1639).
thing(1640).
thing(1644).
thing(1645).
thing(1646).
thing(1647).
thing(1648).
thing(1649).
thing(1650).
thing(1654).
thing(1655).
thing(1656).
thing(1657).
thing(1658).
thing(1659).
thing(1660).
thing(1661).
thing(1662).
thing(1666).
thing(1667).
thing(1668).
thing(1669).
thing(1670).
thing(1671).
thing(1672).
thing(1673).
thing(1674).
thing(1675).
thing(1676).
thing(1677).
thing(1678).
thing(1679).
thing(1680).
thing(1681).
thing(1682).
thing(1683).
thing(1684).
thing(1687).
thing(1690).
thing(1691).
thing(1692).
thing(1693).
thing(1694).
thing(1695).
thing(1696).
thing(1697).
thing(1701).
thing(1702).
thing(1703).
thing(1704).
thing(1705).
thing(1706).
thing(1708).
thing(1709).
thing(1710).
thing(1711).
thing(1712).
thing(1713).
thing(1714).
thing(1715).
thing(1716).
thing(1719).
thing(1720).
thing(1721).
thing(1722).
thing(1724).
thing(1725).
thing(1726).
thing(1730).
thing(1731).
thing(1732).
thing(1733).
thing(1734).
thing(1735).
thing(1736).
thing(1737).
thing(1738).
thing(1741).
thing(1742).
thing(1743).
thing(1746).
thing(1747).
thing(1748).
thing(1749).
thing(1750).
thing(1751).
thing(1752).
thing(1753).
thing(1754).
thing(1755).
thing(1756).
thing(1757).
thing(1758).
thing(1761).
thing(1762).
thing(1763).
thing(1766).
thing(1767).
thing(1768).
thing(1769).
thing(1770).
thing(1771).
thing(1772).
thing(1773).
thing(1776).
thing(1777).
thing(1778).
thing(1780).
thing(1782).
thing(1783).
thing(1784).
thing(1785).
thing(1786).
thing(1787).
thing(1788).
thing(1789).
thing(1792).
thing(1793).
thing(1797).
thing(1798).
thing(1799).
thing(1800).
thing(1801).
thing(1802).
thing(1803).
thing(1804).
thing(1806).
thing(1807).
thing(1808).
thing(1809).
thing(1810).
thing(1814).
thing(1818).
thing(1819).
thing(1820).
thing(1821).
thing(1822).
thing(1824).
thing(1825).
thing(1826).
thing(1827).
thing(1828).
thing(1829).
thing(1830).
thing(1831).
thing(1832).
thing(1836).
thing(1837).
thing(1838).
thing(1839).
thing(1840).
thing(1841).
thing(1842).
thing(1843).
thing(1844).
thing(1845).
thing(1846).
thing(1847).
thing(1848).
thing(1849).
thing(1850).
thing(1851).
thing(1852).
thing(1853).
thing(1854).
thing(1855).
thing(1856).
thing(1859).
thing(1860).
thing(1861).
thing(1862).
thing(1863).
thing(1864).
thing(1868).
thing(1869).
thing(1870).
thing(1873).
thing(1874).
thing(1875).
thing(1876).
thing(1877).
thing(1878).
thing(1879).
thing(1883).
thing(1884).
thing(1887).
thing(1891).
thing(1892).
thing(1893).
thing(1894).
thing(1895).
thing(1896).
thing(1897).
thing(1901).
thing(1902).
thing(1903).
thing(1904).
thing(1905).
thing(1906).
thing(1907).
thing(1908).
thing(1909).
thing(1910).
thing(1913).
thing(1914).
thing(1917).
thing(1918).
thing(1919).
thing(1920).
thing(1921).
thing(1925).
thing(1926).
thing(1927).
thing(1928).
thing(1932).
thing(1933).
thing(1934).
thing(1935).
thing(1936).
thing(1937).
thing(1938).
thing(1939).
thing(1940).
thing(1943).
thing(1944).
thing(1945).
thing(1946).
thing(1947).
thing(1948).
thing(1949).
thing(1950).
thing(1952).
thing(1953).
thing(1954).
thing(1955).
thing(1956).
thing(1957).
thing(1958).
thing(1959).
thing(1960).
thing(1961).
thing(1962).
thing(1963).
thing(1964).
thing(1965).
thing(1966).
thing(1967).
thing(1971).
thing(1972).
thing(1973).
thing(1975).
thing(1979).
thing(1981).
thing(1982).
thing(1983).
thing(1984).
thing(1986).
thing(1987).
thing(1988).
thing(1989).
thing(1990).
thing(1991).
thing(1992).
thing(1993).
thing(1994).
thing(1995).
thing(1999).
thing(2000).
thing(2001).
thing(2002).
thing(2003).
thing(2004).
thing(2005).
thing(2006).
thing(2008).
thing(2009).
thing(2010).
thing(2011).
thing(2012).
thing(2013).
thing(2014).
thing(2015).
thing(2016).
thing(2017).
thing(2018).
thing(2021).
thing(2024).
thing(2025).
thing(2026).
thing(2029).
thing(2030).
thing(2031).
thing(2032).
thing(2033).
thing(2034).
thing(2035).
thing(2036).
thing(2037).
thing(2038).
thing(2042).
thing(2043).
thing(2044).
thing(2045).
thing(2046).
thing(2048).
thing(2049).
thing(2050).
thing(2051).
thing(2054).
thing(2056).
thing(2057).
thing(2058).
thing(2059).
thing(2060).
thing(2061).
thing(2062).
thing(2066).
thing(2067).
thing(2068).
thing(2070).
thing(2072).
thing(2073).
thing(2074).
thing(2078).
thing(2079).
thing(2080).
thing(2081).
thing(2082).
thing(2083).
thing(2087).
thing(2088).
thing(2089).
thing(2090).
thing(2091).
thing(2092).
thing(2095).
thing(2096).
thing(2097).
thing(2101).
thing(2102).
thing(2103).
thing(2104).
thing(2106).
thing(2107).
thing(2108).
thing(2109).
thing(2110).
thing(2111).
thing(2112).
thing(2113).
thing(2114).
thing(2115).
thing(2119).
thing(2120).
thing(2121).
thing(2122).
thing(2123).
thing(2126).
thing(2127).
thing(2128).
thing(2129).
thing(2130).
thing(2131).
thing(2132).
thing(2133).
thing(2134).
thing(2135).
thing(2136).
thing(2137).
thing(2138).
thing(2139).
thing(2140).
thing(2141).
thing(2142).
thing(2143).
thing(2144).
thing(2145).
thing(2147).
thing(2148).
thing(2149).
thing(2150).
thing(2151).
thing(2153).
thing(2154).
thing(2155).
thing(2156).
thing(2157).
thing(2158).
thing(2160).
thing(2161).
thing(2162).
thing(2163).
thing(2164).
thing(2167).
thing(2168).
thing(2170).
thing(2171).
thing(2172).
thing(2173).
thing(2174).
thing(2175).
thing(2176).
thing(2177).
thing(2178).
thing(2179).
thing(2180).
thing(2181).
thing(2182).
thing(2183).
thing(2185).
thing(2186).
thing(2187).
thing(2188).
thing(2190).
thing(2191).
thing(2195).
thing(2197).
thing(2198).
thing(2199).
thing(2200).
thing(2201).
thing(2202).
thing(2203).
thing(2204).
thing(2205).
thing(2206).
thing(2207).
thing(2208).
thing(2209).
thing(2210).
thing(2211).
thing(2212).
thing(2214).
thing(2215).
thing(2216).
thing(2217).
thing(2218).
thing(2219).
thing(2220).
thing(2221).
thing(2222).
thing(2223).
thing(2227).
thing(2228).
thing(2229).
thing(2232).
thing(2233).
thing(2235).
thing(2238).
thing(2239).
thing(2240).
thing(2241).
thing(2242).
thing(2243).
thing(2244).
thing(2245).
thing(2246).
thing(2247).
thing(2248).
thing(2249).
thing(2250).
thing(2253).
thing(2254).
thing(2255).
thing(2256).
thing(2257).
thing(2258).
thing(2259).
thing(2260).
thing(2261).
thing(2262).
thing(2263).
thing(2264).
thing(2265).
thing(2266).
thing(2267).
thing(2269).
thing(2270).
thing(2271).
thing(2272).
thing(2273).
thing(2274).
thing(2277).
thing(2278).
thing(2279).
thing(2280).
thing(2281).
thing(2282).
thing(2283).
thing(2284).
thing(2285).
thing(2287).
thing(2288).
thing(2289).
thing(2290).
thing(2291).
thing(2292).
thing(2293).
thing(2294).
thing(2295).
thing(2296).
thing(2300).
thing(2301).
thing(2302).
thing(2303).
thing(2304).
thing(2305).
thing(2306).
thing(2307).
thing(2308).
thing(2309).
thing(2310).
thing(2311).
thing(2314).
thing(2316).
thing(2317).
thing(2318).
thing(2319).
thing(2320).
thing(2321).
thing(2322).
thing(2323).
thing(2324).
thing(2325).
thing(2327).
thing(2330).
thing(2331).
thing(2332).
thing(2333).
thing(2334).
thing(2335).
thing(2336).
thing(2337).
thing(2338).
thing(2339).
thing(2340).
thing(2341).
thing(2342).
thing(2343).
thing(2344).
thing(2345).
thing(2346).
thing(2347).
thing(2348).
thing(2350).
thing(2351).
thing(2352).
thing(2356).
thing(2357).
thing(2358).
thing(2362).
thing(2363).
thing(2364).
thing(2365).
thing(2366).
thing(2367).
thing(2368).
thing(2369).
thing(2370).
thing(2371).
thing(2374).
thing(2375).
thing(2376).
thing(2377).
thing(2378).
thing(2379).
thing(2380).
thing(2381).
thing(2382).
thing(2385).
thing(2387).
thing(2388).
thing(2389).
thing(2391).
thing(2392).
thing(2393).
thing(2394).
thing(2395).
thing(2396).
thing(2399).
thing(2400).
thing(2401).
thing(2405).
thing(2406).
thing(2409).
thing(2410).
thing(2411).
thing(2412).
thing(2415).
thing(2416).
thing(2417).
thing(2418).
thing(2419).
thing(2420).
thing(2421).
thing(2422).
thing(2423).
thing(2424).
thing(2427).
thing(2428).
thing(2429).
thing(2430).
thing(2431).
thing(2432).
thing(2433).
thing(2435).
thing(2436).
thing(2437).
thing(2438).
thing(2439).
thing(2440).
thing(2441).
thing(2443).
thing(2446).
thing(2447).
thing(2451).
thing(2452).
thing(2453).
thing(2454).
thing(2456).
thing(2457).
thing(2458).
thing(2459).
thing(2460).
thing(2461).
thing(2462).
thing(2463).
thing(2464).
thing(2466).
thing(2467).
thing(2468).
thing(2469).
thing(2470).
thing(2472).
thing(2473).
thing(2474).
thing(2477).
thing(2481).
thing(2482).
thing(2483).
thing(2484).
thing(2485).
thing(2486).
thing(2487).
thing(2488).
thing(2489).
thing(2490).
thing(2492).
thing(2493).
thing(2494).
thing(2498).
thing(2499).
thing(2500).
thing(2501).
thing(2502).
thing(2503).
thing(2504).
thing(2505).
thing(2506).
thing(2510).
thing(2511).
thing(2512).
thing(2513).
thing(2514).
thing(2515).
thing(2516).
thing(2517).
thing(2518).
thing(2520).
thing(2521).
thing(2523).
thing(2524).
thing(2525).
thing(2526).
thing(2527).
thing(2528).
thing(2529).
thing(2530).
thing(2531).
thing(2532).
thing(2534).
thing(2537).
thing(2538).
thing(2539).
thing(2540).
thing(2541).
thing(2542).
thing(2543).
thing(2547).
thing(2548).
thing(2549).
thing(2550).
thing(2551).
thing(2552).
thing(2553).
thing(2554).
thing(2555).
thing(2556).
thing(2557).
thing(2560).
thing(2561).
thing(2563).
thing(2564).
thing(2565).
thing(2566).
thing(2567).
thing(2568).
thing(2569).
thing(2570).
thing(2571).
thing(2572).
thing(2573).
thing(2574).
thing(2575).
thing(2576).
thing(2577).
thing(2578).
thing(2579).
thing(2582).
thing(2583).
thing(2586).
thing(2587).
thing(2588).
thing(2589).
thing(2593).
thing(2594).
thing(2595).
thing(2596).
thing(2600).
thing(2601).
thing(2604).
thing(2605).
thing(2606).
thing(2607).
thing(2608).
thing(2609).
thing(2610).
thing(2611).
thing(2612).
thing(2614).
thing(2615).
thing(2616).
thing(2617).
thing(2618).
thing(2622).
thing(2623).
thing(2626).
thing(2627).
thing(2628).
thing(2629).
thing(2630).
thing(2634).
thing(2635).
thing(2636).
thing(2640).
thing(2641).
thing(2642).
thing(2643).
thing(2644).
thing(2645).
thing(2646).
thing(2649).
thing(2650).
thing(2651).
thing(2652).
thing(2653).
thing(2654).
thing(2658).
thing(2659).
thing(2660).
thing(2661).
thing(2662).
thing(2663).
thing(2664).
thing(2665).
thing(2666).
thing(2667).
thing(2671).
thing(2672).
thing(2673).
thing(2675).
thing(2676).
thing(2678).
thing(2679).
thing(2680).
thing(2681).
thing(2682).
thing(2683).
thing(2684).
thing(2685).
thing(2686).
thing(2687).
thing(2688).
thing(2689).
thing(2690).
thing(2691).
thing(2692).
thing(2693).
thing(2694).
thing(2695).
thing(2696).
thing(2700).
thing(2701).
thing(2705).
thing(2706).
thing(2707).
thing(2708).
thing(2709).
thing(2710).
thing(2711).
thing(2714).
thing(2715).
thing(2716).
thing(2717).
thing(2718).
thing(2719).
thing(2720).
thing(2721).
thing(2722).
thing(2723).
thing(2724).
thing(2725).
thing(2728).
thing(2729).
thing(2730).
thing(2731).
thing(2735).
thing(2736).
thing(2737).
thing(2738).
thing(2742).
thing(2743).
thing(2744).
thing(2748).
thing(2749).
thing(2753).
thing(2754).
thing(2755).
thing(2756).
thing(2757).
thing(2758).
thing(2759).
thing(2760).
thing(2762).
thing(2766).
thing(2767).
thing(2768).
thing(2769).
thing(2770).
thing(2771).
thing(2772).
thing(2773).
thing(2774).
thing(2775).
thing(2776).
thing(2778).
thing(2779).
thing(2780).
thing(2781).
thing(2782).
thing(2783).
thing(2784).
thing(2786).
thing(2787).
thing(2788).
thing(2789).
thing(2790).
thing(2793).
thing(2794).
thing(2795).
thing(2796).
thing(2797).
thing(2801).
thing(2802).
thing(2803).
thing(2804).
thing(2805).
thing(2806).
thing(2807).
thing(2808).
thing(2809).
thing(2812).
thing(2813).
thing(2814).
thing(2815).
thing(2816).
thing(2817).
thing(2819).
thing(2820).
thing(2823).
thing(2824).
thing(2825).
thing(2826).
thing(2827).
thing(2828).
thing(2829).
thing(2830).
thing(2831).
thing(2832).
thing(2833).
thing(2834).
thing(2835).
thing(2836).
thing(2837).
thing(2838).
thing(2842).
thing(2843).
thing(2844).
thing(2845).
thing(2846).
thing(2847).
thing(2848).
thing(2849).
thing(2852).
thing(2853).
thing(2854).
thing(2855).
thing(2856).
thing(2857).
thing(2858).
thing(2859).
thing(2860).
thing(2861).
thing(2865).
thing(2869).
thing(2870).
thing(2871).
thing(2872).
thing(2873).
thing(2874).
thing(2875).
thing(2876).
thing(2877).
thing(2878).
thing(2879).
thing(2880).
thing(2881).
thing(2882).
thing(2883).
thing(2884).
thing(2885).
thing(2888).
thing(2889).
thing(2893).
thing(2894).
thing(2895).
thing(2896).
thing(2897).
thing(2899).
thing(2900).
thing(2901).
thing(2902).
thing(2903).
thing(2904).
thing(2905).
thing(2908).
thing(2909).
thing(2910).
thing(2911).
thing(2912).
thing(2913).
thing(2914).
thing(2915).
thing(2916).
thing(2917).
thing(2920).
thing(2923).
thing(2924).
thing(2925).
thing(2926).
thing(2928).
thing(2929).
thing(2930).
thing(2931).
thing(2932).
thing(2933).
thing(2934).
thing(2935).
thing(2936).
thing(2940).
thing(2941).
thing(2944).
thing(2945).
thing(2946).
thing(2949).
thing(2950).
thing(2951).
thing(2952).
thing(2953).
thing(2954).
thing(2955).
thing(2956).
thing(2957).
thing(2958).
thing(2959).
thing(2960).
thing(2962).
thing(2963).
thing(2964).
thing(2965).
thing(2968).
thing(2969).
thing(2970).
thing(2971).
thing(2972).
thing(2973).
thing(2976).
thing(2977).
thing(2978).
thing(2979).
thing(2980).
thing(2981).
thing(2982).
thing(2983).
thing(2987).
thing(2989).
thing(2990).
thing(2991).
thing(2992).
thing(2993).
thing(2994).
thing(2995).
thing(2996).
thing(2997).
thing(2998).
thing(2999).
thing(3000).
thing(3001).
thing(3002).
thing(3003).
thing(3004).
thing(3005).
thing(3009).
thing(3010).
thing(3011).
thing(3012).
thing(3013).
thing(3014).
thing(3015).
thing(3016).
thing(3017).
thing(3018).
thing(3019).
thing(3020).
thing(3021).
thing(3022).
thing(3023).
thing(3024).
thing(3026).
thing(3027).
thing(3028).
thing(3032).
thing(3033).
thing(3034).
thing(3037).
thing(3039).
thing(3040).
thing(3041).
thing(3042).
thing(3046).
thing(3047).
thing(3048).
thing(3049).
thing(3050).
thing(3051).
thing(3052).
thing(3053).
thing(3054).
thing(3055).
thing(3056).
thing(3060).
thing(3064).
thing(3065).
thing(3068).
thing(3069).
thing(3070).
thing(3071).
thing(3072).
thing(3073).
thing(3075).
thing(3076).
thing(3077).
thing(3078).
thing(3079).
thing(3080).
thing(3081).
thing(3082).
thing(3083).
thing(3084).
thing(3085).
thing(3086).
thing(3089).
thing(3091).
thing(3092).
thing(3093).
thing(3094).
thing(3095).
thing(3096).
thing(3097).
thing(3098).
thing(3099).
thing(3100).
thing(3103).
thing(3105).
thing(3107).
thing(3108).
thing(3109).
thing(3110).
thing(3111).
thing(3112).
thing(3113).
thing(3114).
thing(3115).
thing(3116).
thing(3117).
thing(3118).
thing(3119).
thing(3122).
thing(3123).
thing(3124).
thing(3127).
thing(3128).
thing(3129).
thing(3130).
thing(3131).
thing(3132).
thing(3133).
thing(3134).
thing(3135).
thing(3136).
thing(3137).
thing(3140).
thing(3141).
thing(3145).
thing(3147).
thing(3148).
thing(3152).
thing(3153).
thing(3154).
thing(3155).
thing(3157).
thing(3161).
thing(3162).
thing(3163).
thing(3164).
thing(3165).
thing(3167).
thing(3168).
thing(3170).
thing(3171).
thing(3175).
thing(3176).
thing(3177).
thing(3178).
thing(3179).
thing(3181).
thing(3182).
thing(3183).
thing(3184).
thing(3185).
thing(3186).
thing(3187).
thing(3190).
thing(3191).
thing(3192).
thing(3193).
thing(3194).
thing(3195).
thing(3198).
thing(3201).
thing(3202).
thing(3203).
thing(3204).
thing(3205).
thing(3206).
thing(3207).
thing(3210).
thing(3213).
thing(3216).
thing(3217).
thing(3218).
thing(3219).
thing(3220).
thing(3221).
thing(3222).
thing(3223).
thing(3227).
thing(3228).
thing(3230).
thing(3231).
thing(3232).
thing(3234).
thing(3235).
thing(3236).
thing(3237).
thing(3238).
thing(3239).
thing(3242).
thing(3243).
thing(3244).
thing(3245).
thing(3246).
thing(3247).
thing(3251).
thing(3252).
thing(3253).
thing(3254).
thing(3255).
thing(3256).
thing(3257).
thing(3258).
thing(3259).
thing(3262).
thing(3263).
thing(3264).
thing(3265).
thing(3266).
thing(3267).
thing(3268).
thing(3269).
thing(3270).
thing(3271).
thing(3272).
thing(3273).
thing(3274).
thing(3277).
thing(3278).
thing(3282).
thing(3283).
thing(3284).
thing(3285).
personTOthing(1,515).
personTOthing(1,516).
personTOthing(1,517).
personTOthing(1,518).
personTOthing(1,519).
personTOthing(1,520).
personTOthing(1,521).
personTOthing(1,522).
personTOthing(1,523).
personTOthing(1,524).
personTOthing(2,1430).
personTOthing(2,1431).
personTOthing(2,1432).
personTOthing(3,621).
personTOthing(3,622).
personTOthing(3,623).
personTOthing(3,624).
personTOthing(3,625).
personTOthing(3,626).
personTOthing(4,1436).
personTOthing(4,1437).
personTOthing(4,1438).
personTOthing(4,1439).
personTOthing(4,1440).
personTOthing(4,1441).
personTOthing(4,1442).
personTOthing(4,1443).
personTOthing(4,1444).
personTOthing(4,1445).
personTOthing(5,647).
personTOthing(5,648).
personTOthing(5,649).
personTOthing(5,650).
personTOthing(5,651).
personTOthing(5,652).
personTOthing(5,653).
personTOthing(5,654).
personTOthing(5,655).
personTOthing(6,1204).
personTOthing(6,1205).
personTOthing(6,1206).
personTOthing(6,1207).
personTOthing(6,1356).
personTOthing(6,1357).
personTOthing(6,1979).
personTOthing(7,2754).
personTOthing(7,2755).
personTOthing(7,2756).
personTOthing(7,2757).
personTOthing(7,2758).
personTOthing(7,2759).
personTOthing(7,2760).
personTOthing(8,2316).
personTOthing(8,2317).
personTOthing(8,2318).
personTOthing(8,2319).
personTOthing(8,2320).
personTOthing(8,2321).
personTOthing(8,2322).
personTOthing(8,2323).
personTOthing(8,2324).
personTOthing(8,2325).
personTOthing(9,1595).
personTOthing(9,1596).
personTOthing(9,1597).
personTOthing(9,1598).
personTOthing(9,1599).
personTOthing(9,1600).
personTOthing(10,2913).
personTOthing(10,2914).
personTOthing(10,2915).
personTOthing(10,2916).
personTOthing(10,2917).
personTOthing(11,543).
personTOthing(11,544).
personTOthing(11,545).
personTOthing(11,546).
personTOthing(11,547).
personTOthing(11,548).
personTOthing(11,549).
personTOthing(11,550).
personTOthing(11,551).
personTOthing(12,3078).
personTOthing(12,3079).
personTOthing(12,3080).
personTOthing(12,3081).
personTOthing(12,3082).
personTOthing(12,3083).
personTOthing(12,3084).
personTOthing(12,3085).
personTOthing(12,3086).
personTOthing(13,1094).
personTOthing(13,1095).
personTOthing(13,1096).
personTOthing(13,1097).
personTOthing(13,1098).
personTOthing(13,1099).
personTOthing(13,1100).
personTOthing(13,1101).
personTOthing(13,1476).
personTOthing(13,1477).
personTOthing(14,2265).
personTOthing(14,2266).
personTOthing(14,2267).
personTOthing(15,2893).
personTOthing(15,2894).
personTOthing(15,2895).
personTOthing(15,2896).
personTOthing(15,2897).
personTOthing(16,231).
personTOthing(16,232).
personTOthing(16,233).
personTOthing(16,861).
personTOthing(16,862).
personTOthing(16,863).
personTOthing(17,2686).
personTOthing(17,2687).
personTOthing(17,2688).
personTOthing(17,2689).
personTOthing(17,2690).
personTOthing(18,13).
personTOthing(18,14).
personTOthing(18,15).
personTOthing(18,16).
personTOthing(19,1247).
personTOthing(19,1248).
personTOthing(19,1249).
personTOthing(19,1250).
personTOthing(19,1251).
personTOthing(20,2456).
personTOthing(20,2457).
personTOthing(20,2458).
personTOthing(20,2459).
personTOthing(20,2460).
personTOthing(20,2461).
personTOthing(20,2462).
personTOthing(20,2463).
personTOthing(20,2464).
personTOthing(21,2095).
personTOthing(21,2096).
personTOthing(21,2097).
personTOthing(22,617).
personTOthing(22,753).
personTOthing(22,754).
personTOthing(22,2778).
personTOthing(22,2779).
personTOthing(22,2780).
personTOthing(22,2781).
personTOthing(22,2782).
personTOthing(22,2783).
personTOthing(22,2784).
personTOthing(23,213).
personTOthing(23,214).
personTOthing(23,215).
personTOthing(23,435).
personTOthing(23,436).
personTOthing(23,437).
personTOthing(23,438).
personTOthing(23,439).
personTOthing(23,440).
personTOthing(23,441).
personTOthing(24,2185).
personTOthing(24,2186).
personTOthing(24,2187).
personTOthing(24,2188).
personTOthing(25,3009).
personTOthing(25,3010).
personTOthing(25,3011).
personTOthing(25,3012).
personTOthing(25,3013).
personTOthing(25,3014).
personTOthing(25,3015).
personTOthing(25,3016).
personTOthing(25,3017).
personTOthing(26,1257).
personTOthing(26,1258).
personTOthing(27,1075).
personTOthing(27,1076).
personTOthing(27,1077).
personTOthing(27,1078).
personTOthing(27,1079).
personTOthing(27,1080).
personTOthing(28,3277).
personTOthing(28,3278).
personTOthing(29,880).
personTOthing(29,2819).
personTOthing(29,2820).
personTOthing(29,3210).
personTOthing(30,2742).
personTOthing(30,2743).
personTOthing(30,2744).
personTOthing(31,3242).
personTOthing(31,3243).
personTOthing(31,3244).
personTOthing(31,3245).
personTOthing(31,3246).
personTOthing(32,2626).
personTOthing(32,2627).
personTOthing(32,2628).
personTOthing(32,2629).
personTOthing(32,2630).
personTOthing(33,594).
personTOthing(33,595).
personTOthing(33,1218).
personTOthing(33,1219).
personTOthing(33,1220).
personTOthing(34,920).
personTOthing(34,1883).
personTOthing(34,1884).
personTOthing(35,457).
personTOthing(35,619).
personTOthing(35,1336).
personTOthing(36,1506).
personTOthing(36,1507).
personTOthing(36,1508).
personTOthing(36,1509).
personTOthing(36,1510).
personTOthing(36,1511).
personTOthing(36,1512).
personTOthing(37,2127).
personTOthing(37,2128).
personTOthing(37,2129).
personTOthing(38,932).
personTOthing(38,933).
personTOthing(38,934).
personTOthing(38,935).
personTOthing(38,936).
personTOthing(38,937).
personTOthing(38,938).
personTOthing(38,939).
personTOthing(38,940).
personTOthing(39,1366).
personTOthing(39,1367).
personTOthing(39,1368).
personTOthing(39,1369).
personTOthing(39,1370).
personTOthing(39,1371).
personTOthing(39,1372).
personTOthing(39,1373).
personTOthing(39,1374).
personTOthing(40,1548).
personTOthing(40,3247).
personTOthing(41,2244).
personTOthing(41,2245).
personTOthing(41,2246).
personTOthing(41,2247).
personTOthing(41,2248).
personTOthing(41,2249).
personTOthing(41,2250).
personTOthing(42,956).
personTOthing(42,957).
personTOthing(42,958).
personTOthing(42,959).
personTOthing(42,960).
personTOthing(42,1855).
personTOthing(42,1856).
personTOthing(43,2253).
personTOthing(43,2254).
personTOthing(43,2255).
personTOthing(43,2256).
personTOthing(44,2812).
personTOthing(44,2813).
personTOthing(44,2814).
personTOthing(44,2815).
personTOthing(44,2816).
personTOthing(44,2817).
personTOthing(45,2766).
personTOthing(45,2767).
personTOthing(45,2768).
personTOthing(46,19).
personTOthing(46,20).
personTOthing(46,1414).
personTOthing(46,1415).
personTOthing(46,1416).
personTOthing(46,2314).
personTOthing(47,787).
personTOthing(47,788).
personTOthing(47,789).
personTOthing(47,790).
personTOthing(47,791).
personTOthing(47,792).
personTOthing(47,793).
personTOthing(47,794).
personTOthing(48,715).
personTOthing(48,716).
personTOthing(48,717).
personTOthing(48,718).
personTOthing(49,2130).
personTOthing(49,2131).
personTOthing(49,2132).
personTOthing(49,2133).
personTOthing(49,2134).
personTOthing(49,2135).
personTOthing(49,2136).
personTOthing(49,2137).
personTOthing(49,2138).
personTOthing(49,2139).
personTOthing(50,682).
personTOthing(50,874).
personTOthing(51,1296).
personTOthing(51,1297).
personTOthing(51,1298).
personTOthing(51,1299).
personTOthing(51,1300).
personTOthing(52,966).
personTOthing(52,967).
personTOthing(52,968).
personTOthing(52,969).
personTOthing(52,970).
personTOthing(52,971).
personTOthing(52,972).
personTOthing(52,973).
personTOthing(52,974).
personTOthing(53,1400).
personTOthing(53,1401).
personTOthing(53,3140).
personTOthing(53,3141).
personTOthing(53,3198).
personTOthing(54,2391).
personTOthing(54,2392).
personTOthing(54,2393).
personTOthing(54,2394).
personTOthing(54,2395).
personTOthing(54,2396).
personTOthing(55,978).
personTOthing(55,2385).
personTOthing(56,460).
personTOthing(56,461).
personTOthing(56,462).
personTOthing(57,2614).
personTOthing(57,2615).
personTOthing(57,2616).
personTOthing(57,2617).
personTOthing(57,2618).
personTOthing(58,378).
personTOthing(58,379).
personTOthing(58,380).
personTOthing(58,422).
personTOthing(59,691).
personTOthing(59,692).
personTOthing(59,693).
personTOthing(59,694).
personTOthing(59,695).
personTOthing(59,696).
personTOthing(59,697).
personTOthing(59,698).
personTOthing(59,699).
personTOthing(59,700).
personTOthing(60,2678).
personTOthing(60,2679).
personTOthing(60,2680).
personTOthing(60,2681).
personTOthing(60,2682).
personTOthing(60,2683).
personTOthing(60,2684).
personTOthing(60,2685).
personTOthing(61,1891).
personTOthing(61,1892).
personTOthing(61,1893).
personTOthing(61,1894).
personTOthing(61,1895).
personTOthing(61,1896).
personTOthing(61,1897).
personTOthing(62,686).
personTOthing(62,687).
personTOthing(62,688).
personTOthing(62,689).
personTOthing(63,665).
personTOthing(63,666).
personTOthing(63,1196).
personTOthing(63,1197).
personTOthing(63,1198).
personTOthing(63,1270).
personTOthing(63,1271).
personTOthing(64,1986).
personTOthing(64,1987).
personTOthing(64,1988).
personTOthing(64,1989).
personTOthing(65,1792).
personTOthing(65,1793).
personTOthing(66,1675).
personTOthing(66,1676).
personTOthing(66,1677).
personTOthing(66,1678).
personTOthing(66,1679).
personTOthing(66,1680).
personTOthing(66,1681).
personTOthing(66,1682).
personTOthing(66,1683).
personTOthing(66,1684).
personTOthing(67,189).
personTOthing(67,190).
personTOthing(68,2387).
personTOthing(68,2388).
personTOthing(68,2389).
personTOthing(69,172).
personTOthing(69,173).
personTOthing(69,174).
personTOthing(69,175).
personTOthing(69,176).
personTOthing(69,177).
personTOthing(69,178).
personTOthing(69,179).
personTOthing(69,180).
personTOthing(70,2852).
personTOthing(70,2853).
personTOthing(70,2854).
personTOthing(71,1059).
personTOthing(71,1060).
personTOthing(71,1061).
personTOthing(71,1062).
personTOthing(71,1063).
personTOthing(71,1064).
personTOthing(71,1065).
personTOthing(71,1066).
personTOthing(72,491).
personTOthing(72,492).
personTOthing(72,493).
personTOthing(72,494).
personTOthing(72,495).
personTOthing(72,496).
personTOthing(72,497).
personTOthing(72,498).
personTOthing(72,499).
personTOthing(73,559).
personTOthing(73,560).
personTOthing(73,561).
personTOthing(74,1741).
personTOthing(74,1742).
personTOthing(74,1743).
personTOthing(74,1859).
personTOthing(74,1860).
personTOthing(74,1861).
personTOthing(74,2443).
personTOthing(75,406).
personTOthing(75,407).
personTOthing(75,408).
personTOthing(75,409).
personTOthing(75,410).
personTOthing(75,411).
personTOthing(75,412).
personTOthing(76,1274).
personTOthing(76,1275).
personTOthing(76,1276).
personTOthing(76,1277).
personTOthing(76,1278).
personTOthing(76,1279).
personTOthing(76,1280).
personTOthing(77,2908).
personTOthing(77,2909).
personTOthing(77,2910).
personTOthing(77,2911).
personTOthing(77,2912).
personTOthing(78,474).
personTOthing(78,1908).
personTOthing(78,1909).
personTOthing(78,1910).
personTOthing(78,3147).
personTOthing(78,3148).
personTOthing(79,2641).
personTOthing(79,2642).
personTOthing(79,2643).
personTOthing(79,2644).
personTOthing(79,2645).
personTOthing(79,2646).
personTOthing(80,3068).
personTOthing(80,3069).
personTOthing(80,3070).
personTOthing(80,3071).
personTOthing(81,243).
personTOthing(81,244).
personTOthing(81,1302).
personTOthing(81,1303).
personTOthing(81,1304).
personTOthing(81,1305).
personTOthing(81,3157).
personTOthing(82,1158).
personTOthing(82,1159).
personTOthing(82,1160).
personTOthing(82,1161).
personTOthing(82,1162).
personTOthing(82,1163).
personTOthing(82,1164).
personTOthing(82,1165).
personTOthing(83,1140).
personTOthing(83,1141).
personTOthing(83,1142).
personTOthing(83,1143).
personTOthing(83,1144).
personTOthing(83,1145).
personTOthing(83,1146).
personTOthing(83,1147).
personTOthing(83,1148).
personTOthing(84,1981).
personTOthing(84,1982).
personTOthing(84,1983).
personTOthing(84,1984).
personTOthing(85,83).
personTOthing(85,1315).
personTOthing(85,1316).
personTOthing(85,2640).
personTOthing(86,751).
personTOthing(86,752).
personTOthing(87,1378).
personTOthing(87,1379).
personTOthing(87,1380).
personTOthing(87,1381).
personTOthing(87,1382).
personTOthing(88,2548).
personTOthing(88,2549).
personTOthing(88,2550).
personTOthing(88,2551).
personTOthing(88,2552).
personTOthing(88,2553).
personTOthing(88,2554).
personTOthing(88,2555).
personTOthing(88,2556).
personTOthing(88,2557).
personTOthing(89,2978).
personTOthing(89,2979).
personTOthing(89,2980).
personTOthing(89,2981).
personTOthing(89,2982).
personTOthing(89,2983).
personTOthing(90,3262).
personTOthing(90,3263).
personTOthing(90,3264).
personTOthing(90,3265).
personTOthing(90,3266).
personTOthing(90,3267).
personTOthing(90,3268).
personTOthing(90,3269).
personTOthing(90,3270).
personTOthing(90,3271).
personTOthing(91,3201).
personTOthing(91,3202).
personTOthing(91,3203).
personTOthing(91,3204).
personTOthing(91,3205).
personTOthing(91,3206).
personTOthing(91,3207).
personTOthing(92,1349).
personTOthing(92,1350).
personTOthing(92,1351).
personTOthing(92,1352).
personTOthing(92,1353).
personTOthing(93,445).
personTOthing(93,446).
personTOthing(93,447).
personTOthing(93,448).
personTOthing(93,449).
personTOthing(93,450).
personTOthing(93,451).
personTOthing(93,452).
personTOthing(94,1047).
personTOthing(94,1048).
personTOthing(94,1049).
personTOthing(94,1050).
personTOthing(94,1051).
personTOthing(94,1052).
personTOthing(94,1053).
personTOthing(95,39).
personTOthing(95,40).
personTOthing(95,41).
personTOthing(95,42).
personTOthing(95,43).
personTOthing(95,44).
personTOthing(95,45).
personTOthing(95,46).
personTOthing(95,47).
personTOthing(95,48).
personTOthing(96,733).
personTOthing(96,734).
personTOthing(96,735).
personTOthing(97,117).
personTOthing(97,118).
personTOthing(97,119).
personTOthing(98,1724).
personTOthing(98,1725).
personTOthing(98,1726).
personTOthing(99,2888).
personTOthing(99,2889).
personTOthing(100,2524).
personTOthing(100,2525).
personTOthing(100,2526).
personTOthing(100,2527).
personTOthing(100,2528).
personTOthing(100,2529).
personTOthing(100,2530).
personTOthing(100,2531).
personTOthing(100,2532).
personTOthing(101,3075).
personTOthing(101,3076).
personTOthing(101,3077).
personTOthing(102,1824).
personTOthing(102,1825).
personTOthing(102,1826).
personTOthing(102,1827).
personTOthing(102,1828).
personTOthing(102,1829).
personTOthing(102,1830).
personTOthing(102,1831).
personTOthing(102,1832).
personTOthing(103,258).
personTOthing(103,259).
personTOthing(103,260).
personTOthing(103,261).
personTOthing(103,262).
personTOthing(103,263).
personTOthing(103,264).
personTOthing(103,265).
personTOthing(103,266).
personTOthing(103,267).
personTOthing(104,2435).
personTOthing(104,2436).
personTOthing(104,2437).
personTOthing(104,2438).
personTOthing(104,2439).
personTOthing(104,2440).
personTOthing(104,2441).
personTOthing(105,108).
personTOthing(105,109).
personTOthing(105,110).
personTOthing(106,1644).
personTOthing(106,1645).
personTOthing(106,1646).
personTOthing(106,1647).
personTOthing(106,1648).
personTOthing(106,1649).
personTOthing(106,1650).
personTOthing(107,2140).
personTOthing(107,2141).
personTOthing(107,2142).
personTOthing(107,2143).
personTOthing(107,2144).
personTOthing(107,2145).
personTOthing(108,1009).
personTOthing(108,1010).
personTOthing(109,2691).
personTOthing(109,2692).
personTOthing(109,2693).
personTOthing(109,2694).
personTOthing(109,2695).
personTOthing(109,2696).
personTOthing(110,3091).
personTOthing(110,3092).
personTOthing(110,3093).
personTOthing(110,3094).
personTOthing(110,3095).
personTOthing(110,3096).
personTOthing(110,3097).
personTOthing(110,3098).
personTOthing(110,3099).
personTOthing(110,3100).
personTOthing(111,584).
personTOthing(111,2178).
personTOthing(111,2179).
personTOthing(111,2180).
personTOthing(111,2181).
personTOthing(111,2182).
personTOthing(111,2183).
personTOthing(112,2300).
personTOthing(112,2301).
personTOthing(112,2302).
personTOthing(112,2303).
personTOthing(112,2304).
personTOthing(113,2197).
personTOthing(113,2198).
personTOthing(113,2199).
personTOthing(113,2200).
personTOthing(113,2201).
personTOthing(113,2202).
personTOthing(113,2203).
personTOthing(113,2204).
personTOthing(113,2205).
personTOthing(114,2214).
personTOthing(114,2215).
personTOthing(114,2216).
personTOthing(114,2217).
personTOthing(114,2218).
personTOthing(114,2219).
personTOthing(114,2220).
personTOthing(115,1398).
personTOthing(115,2547).
personTOthing(115,2987).
personTOthing(116,1708).
personTOthing(116,1709).
personTOthing(116,1710).
personTOthing(116,1711).
personTOthing(116,1712).
personTOthing(116,1713).
personTOthing(116,1714).
personTOthing(116,1715).
personTOthing(116,1716).
personTOthing(117,2101).
personTOthing(117,2102).
personTOthing(117,2103).
personTOthing(117,2104).
personTOthing(118,2079).
personTOthing(118,2080).
personTOthing(118,2081).
personTOthing(118,2082).
personTOthing(118,2083).
personTOthing(119,1111).
personTOthing(119,1112).
personTOthing(119,2477).
personTOthing(119,3161).
personTOthing(119,3162).
personTOthing(119,3163).
personTOthing(119,3164).
personTOthing(119,3165).
personTOthing(120,2024).
personTOthing(120,2025).
personTOthing(120,2026).
personTOthing(121,599).
personTOthing(121,600).
personTOthing(121,601).
personTOthing(121,602).
personTOthing(121,603).
personTOthing(121,604).
personTOthing(121,605).
personTOthing(122,2968).
personTOthing(122,2969).
personTOthing(122,2970).
personTOthing(122,2971).
personTOthing(122,2972).
personTOthing(122,2973).
personTOthing(123,2350).
personTOthing(123,2351).
personTOthing(123,2352).
personTOthing(124,762).
personTOthing(124,763).
personTOthing(124,764).
personTOthing(124,765).
personTOthing(124,766).
personTOthing(125,2056).
personTOthing(125,2057).
personTOthing(125,2058).
personTOthing(125,2059).
personTOthing(125,2060).
personTOthing(125,2061).
personTOthing(125,2062).
personTOthing(126,390).
personTOthing(126,391).
personTOthing(126,392).
personTOthing(126,393).
personTOthing(126,394).
personTOthing(127,384).
personTOthing(127,385).
personTOthing(127,386).
personTOthing(127,387).
personTOthing(128,1513).
personTOthing(128,1514).
personTOthing(128,1515).
personTOthing(128,1516).
personTOthing(128,1517).
personTOthing(128,1518).
personTOthing(128,1519).
personTOthing(128,1520).
personTOthing(129,2769).
personTOthing(129,2770).
personTOthing(129,2771).
personTOthing(129,2772).
personTOthing(129,2773).
personTOthing(129,2774).
personTOthing(129,2775).
personTOthing(129,2776).
personTOthing(130,1447).
personTOthing(130,1448).
personTOthing(131,671).
personTOthing(131,672).
personTOthing(131,673).
personTOthing(131,674).
personTOthing(131,675).
personTOthing(131,676).
personTOthing(132,2048).
personTOthing(132,2049).
personTOthing(132,2050).
personTOthing(132,2051).
personTOthing(133,3111).
personTOthing(133,3112).
personTOthing(133,3113).
personTOthing(133,3114).
personTOthing(133,3115).
personTOthing(133,3116).
personTOthing(133,3117).
personTOthing(133,3118).
personTOthing(133,3119).
personTOthing(134,3251).
personTOthing(134,3252).
personTOthing(134,3253).
personTOthing(134,3254).
personTOthing(134,3255).
personTOthing(134,3256).
personTOthing(134,3257).
personTOthing(134,3258).
personTOthing(134,3259).
personTOthing(135,607).
personTOthing(135,608).
personTOthing(135,609).
personTOthing(135,610).
personTOthing(135,611).
personTOthing(135,612).
personTOthing(135,613).
personTOthing(135,614).
personTOthing(135,615).
personTOthing(136,2830).
personTOthing(136,2831).
personTOthing(136,2832).
personTOthing(136,2833).
personTOthing(136,2834).
personTOthing(136,2835).
personTOthing(136,2836).
personTOthing(136,2837).
personTOthing(136,2838).
personTOthing(137,2206).
personTOthing(137,2207).
personTOthing(137,2208).
personTOthing(137,2209).
personTOthing(137,2210).
personTOthing(137,2211).
personTOthing(137,2212).
personTOthing(138,2147).
personTOthing(138,2148).
personTOthing(138,2149).
personTOthing(138,2150).
personTOthing(138,2151).
personTOthing(139,1479).
personTOthing(139,1480).
personTOthing(139,1481).
personTOthing(139,1482).
personTOthing(139,1483).
personTOthing(139,1484).
personTOthing(139,1485).
personTOthing(139,1486).
personTOthing(139,1487).
personTOthing(139,1488).
personTOthing(140,2339).
personTOthing(140,2340).
personTOthing(140,2341).
personTOthing(140,2342).
personTOthing(140,2343).
personTOthing(140,2344).
personTOthing(140,2345).
personTOthing(140,2346).
personTOthing(140,2347).
personTOthing(140,2348).
personTOthing(141,2658).
personTOthing(141,2659).
personTOthing(141,2660).
personTOthing(141,2661).
personTOthing(141,2662).
personTOthing(141,2663).
personTOthing(141,2664).
personTOthing(141,2665).
personTOthing(141,2666).
personTOthing(141,2667).
personTOthing(142,588).
personTOthing(142,589).
personTOthing(142,590).
personTOthing(142,591).
personTOthing(142,1949).
personTOthing(142,1950).
personTOthing(143,776).
personTOthing(143,777).
personTOthing(143,778).
personTOthing(143,779).
personTOthing(143,780).
personTOthing(143,781).
personTOthing(143,782).
personTOthing(143,783).
personTOthing(143,784).
personTOthing(144,1135).
personTOthing(144,1136).
personTOthing(144,1137).
personTOthing(144,1138).
personTOthing(145,1033).
personTOthing(145,1034).
personTOthing(145,1035).
personTOthing(145,1036).
personTOthing(145,1037).
personTOthing(145,1038).
personTOthing(145,1039).
personTOthing(145,1040).
personTOthing(145,1041).
personTOthing(146,2876).
personTOthing(146,2877).
personTOthing(146,2878).
personTOthing(146,2879).
personTOthing(146,2880).
personTOthing(146,2881).
personTOthing(146,2882).
personTOthing(146,2883).
personTOthing(146,2884).
personTOthing(146,2885).
personTOthing(147,1451).
personTOthing(147,1452).
personTOthing(147,1453).
personTOthing(147,1454).
personTOthing(147,1455).
personTOthing(147,1456).
personTOthing(147,1457).
personTOthing(147,1458).
personTOthing(148,1210).
personTOthing(148,1211).
personTOthing(148,1212).
personTOthing(148,1213).
personTOthing(148,1214).
personTOthing(148,1215).
personTOthing(148,1221).
personTOthing(148,2356).
personTOthing(148,2357).
personTOthing(148,2358).
personTOthing(149,1932).
personTOthing(149,1933).
personTOthing(149,1934).
personTOthing(149,1935).
personTOthing(149,1936).
personTOthing(149,1937).
personTOthing(149,1938).
personTOthing(149,1939).
personTOthing(149,1940).
personTOthing(150,2362).
personTOthing(150,2363).
personTOthing(150,2364).
personTOthing(150,2365).
personTOthing(150,2366).
personTOthing(150,2367).
personTOthing(150,2368).
personTOthing(150,2369).
personTOthing(150,2370).
personTOthing(150,2371).
personTOthing(151,997).
personTOthing(151,998).
personTOthing(151,999).
personTOthing(151,1000).
personTOthing(151,1001).
personTOthing(151,1002).
personTOthing(151,1045).
personTOthing(151,1046).
personTOthing(151,2675).
personTOthing(151,2676).
personTOthing(152,188).
personTOthing(152,2600).
personTOthing(152,2601).
personTOthing(152,3181).
personTOthing(152,3182).
personTOthing(152,3183).
personTOthing(153,347).
personTOthing(153,348).
personTOthing(153,349).
personTOthing(153,350).
personTOthing(153,351).
personTOthing(153,352).
personTOthing(153,353).
personTOthing(153,354).
personTOthing(153,355).
personTOthing(154,2277).
personTOthing(154,2278).
personTOthing(154,2279).
personTOthing(154,2280).
personTOthing(154,2281).
personTOthing(154,2282).
personTOthing(154,2283).
personTOthing(154,2284).
personTOthing(154,2285).
personTOthing(155,2869).
personTOthing(155,2870).
personTOthing(155,2871).
personTOthing(155,2872).
personTOthing(155,2873).
personTOthing(155,2874).
personTOthing(155,2875).
personTOthing(155,3026).
personTOthing(155,3027).
personTOthing(155,3028).
personTOthing(156,563).
personTOthing(156,564).
personTOthing(156,565).
personTOthing(156,566).
personTOthing(156,567).
personTOthing(156,568).
personTOthing(156,569).
personTOthing(156,570).
personTOthing(156,571).
personTOthing(157,2573).
personTOthing(157,2574).
personTOthing(157,2575).
personTOthing(157,2576).
personTOthing(158,1115).
personTOthing(158,1116).
personTOthing(158,1117).
personTOthing(158,1118).
personTOthing(158,1119).
personTOthing(158,3103).
personTOthing(159,1225).
personTOthing(159,1226).
personTOthing(159,1227).
personTOthing(159,1228).
personTOthing(159,1229).
personTOthing(160,1461).
personTOthing(160,1462).
personTOthing(160,1463).
personTOthing(161,975).
personTOthing(161,976).
personTOthing(162,923).
personTOthing(162,924).
personTOthing(163,947).
personTOthing(163,948).
personTOthing(163,949).
personTOthing(164,2472).
personTOthing(164,2473).
personTOthing(164,2474).
personTOthing(165,2415).
personTOthing(165,2416).
personTOthing(165,2417).
personTOthing(165,2418).
personTOthing(165,2419).
personTOthing(165,2420).
personTOthing(165,2421).
personTOthing(165,2422).
personTOthing(165,2423).
personTOthing(166,1887).
personTOthing(166,2940).
personTOthing(166,2941).
personTOthing(166,3227).
personTOthing(166,3228).
personTOthing(167,1818).
personTOthing(167,1819).
personTOthing(167,1820).
personTOthing(167,1821).
personTOthing(167,1822).
personTOthing(168,105).
personTOthing(168,106).
personTOthing(169,669).
personTOthing(169,2070).
personTOthing(170,1149).
personTOthing(170,1150).
personTOthing(170,1151).
personTOthing(170,1152).
personTOthing(170,1153).
personTOthing(170,1154).
personTOthing(170,1155).
personTOthing(170,1156).
personTOthing(171,207).
personTOthing(171,208).
personTOthing(171,209).
personTOthing(171,637).
personTOthing(172,2221).
personTOthing(172,2222).
personTOthing(172,2223).
personTOthing(173,964).
personTOthing(173,1493).
personTOthing(173,3089).
personTOthing(174,1626).
personTOthing(174,1627).
personTOthing(174,1628).
personTOthing(174,2232).
personTOthing(174,2233).
personTOthing(174,3107).
personTOthing(174,3108).
personTOthing(174,3109).
personTOthing(175,749).
personTOthing(175,1797).
personTOthing(175,1798).
personTOthing(175,1799).
personTOthing(175,1800).
personTOthing(175,1801).
personTOthing(175,1802).
personTOthing(175,1803).
personTOthing(175,1804).
personTOthing(175,2034).
personTOthing(176,3170).
personTOthing(176,3171).
personTOthing(177,813).
personTOthing(177,814).
personTOthing(177,815).
personTOthing(177,816).
personTOthing(178,255).
personTOthing(178,256).
personTOthing(178,1418).
personTOthing(178,1419).
personTOthing(178,3167).
personTOthing(178,3168).
personTOthing(179,1028).
personTOthing(179,1359).
personTOthing(179,2021).
personTOthing(180,368).
personTOthing(180,369).
personTOthing(180,370).
personTOthing(181,2728).
personTOthing(181,2729).
personTOthing(181,2730).
personTOthing(181,2731).
personTOthing(182,1654).
personTOthing(182,1655).
personTOthing(182,1656).
personTOthing(182,1657).
personTOthing(182,1658).
personTOthing(182,1659).
personTOthing(182,1660).
personTOthing(182,1661).
personTOthing(182,1662).
personTOthing(183,2498).
personTOthing(183,2499).
personTOthing(183,2500).
personTOthing(183,2501).
personTOthing(183,2502).
personTOthing(183,2503).
personTOthing(183,2504).
personTOthing(183,2505).
personTOthing(183,2506).
personTOthing(184,2481).
personTOthing(184,2482).
personTOthing(184,2483).
personTOthing(184,2484).
personTOthing(184,2485).
personTOthing(184,2486).
personTOthing(184,2487).
personTOthing(184,2488).
personTOthing(184,2489).
personTOthing(184,2490).
personTOthing(185,22).
personTOthing(185,23).
personTOthing(185,24).
personTOthing(186,1).
personTOthing(186,2).
personTOthing(186,3).
personTOthing(186,4).
personTOthing(186,5).
personTOthing(187,1561).
personTOthing(187,1562).
personTOthing(187,1563).
personTOthing(187,1564).
personTOthing(187,1565).
personTOthing(187,1566).
personTOthing(187,1567).
personTOthing(187,1568).
personTOthing(188,240).
personTOthing(188,2190).
personTOthing(189,927).
personTOthing(189,928).
personTOthing(189,929).
personTOthing(189,930).
personTOthing(189,2451).
personTOthing(189,2452).
personTOthing(189,2453).
personTOthing(189,2454).
personTOthing(189,2560).
personTOthing(189,2561).
personTOthing(190,1178).
personTOthing(190,1179).
personTOthing(190,1180).
personTOthing(190,1181).
personTOthing(190,1182).
personTOthing(190,1183).
personTOthing(190,1184).
personTOthing(190,1185).
personTOthing(190,1186).
personTOthing(191,748).
personTOthing(191,2492).
personTOthing(191,2493).
personTOthing(191,2494).
personTOthing(191,3145).
personTOthing(192,2996).
personTOthing(192,2997).
personTOthing(192,2998).
personTOthing(192,2999).
personTOthing(192,3000).
personTOthing(192,3001).
personTOthing(192,3002).
personTOthing(192,3003).
personTOthing(192,3004).
personTOthing(192,3005).
personTOthing(193,1603).
personTOthing(193,1604).
personTOthing(193,1605).
personTOthing(193,1606).
personTOthing(193,1607).
personTOthing(193,1608).
personTOthing(193,1609).
personTOthing(193,1610).
personTOthing(194,1952).
personTOthing(194,1953).
personTOthing(194,1954).
personTOthing(194,1955).
personTOthing(194,1956).
personTOthing(194,1957).
personTOthing(194,1958).
personTOthing(195,1253).
personTOthing(195,1806).
personTOthing(195,1807).
personTOthing(195,1808).
personTOthing(195,1809).
personTOthing(195,1810).
personTOthing(196,2989).
personTOthing(196,2990).
personTOthing(196,2991).
personTOthing(196,2992).
personTOthing(196,2993).
personTOthing(196,2994).
personTOthing(196,2995).
personTOthing(197,2634).
personTOthing(197,2635).
personTOthing(197,2636).
personTOthing(198,795).
personTOthing(198,796).
personTOthing(198,797).
personTOthing(198,798).
personTOthing(198,799).
personTOthing(198,800).
personTOthing(198,801).
personTOthing(198,802).
personTOthing(199,1236).
personTOthing(199,1237).
personTOthing(199,1238).
personTOthing(199,1239).
personTOthing(199,1240).
personTOthing(199,1241).
personTOthing(199,1242).
personTOthing(199,1243).
personTOthing(199,1244).
personTOthing(200,1538).
personTOthing(200,1539).
personTOthing(200,1540).
personTOthing(200,1541).
personTOthing(200,1542).
personTOthing(201,1406).
personTOthing(201,1407).
personTOthing(201,1408).
personTOthing(201,1409).
personTOthing(201,1410).
personTOthing(201,1411).
personTOthing(202,128).
personTOthing(202,129).
personTOthing(202,130).
personTOthing(202,131).
personTOthing(203,2604).
personTOthing(203,2605).
personTOthing(203,2606).
personTOthing(203,2607).
personTOthing(203,2608).
personTOthing(203,2609).
personTOthing(203,2610).
personTOthing(203,2611).
personTOthing(203,2612).
personTOthing(204,1751).
personTOthing(204,1752).
personTOthing(204,1753).
personTOthing(204,1754).
personTOthing(204,1755).
personTOthing(204,1756).
personTOthing(204,1757).
personTOthing(204,1758).
personTOthing(205,2428).
personTOthing(205,2429).
personTOthing(205,2430).
personTOthing(205,2431).
personTOthing(205,2432).
personTOthing(205,2433).
personTOthing(206,1552).
personTOthing(206,1553).
personTOthing(206,1554).
personTOthing(206,1555).
personTOthing(206,1556).
personTOthing(206,1557).
personTOthing(206,1558).
personTOthing(206,1559).
personTOthing(207,2705).
personTOthing(207,2706).
personTOthing(207,2707).
personTOthing(207,2708).
personTOthing(207,2709).
personTOthing(207,2710).
personTOthing(207,2711).
personTOthing(208,2305).
personTOthing(208,2306).
personTOthing(208,2307).
personTOthing(208,2308).
personTOthing(208,2309).
personTOthing(208,2310).
personTOthing(208,2311).
personTOthing(208,2920).
personTOthing(209,2066).
personTOthing(209,2067).
personTOthing(209,2068).
personTOthing(209,2405).
personTOthing(209,2406).
personTOthing(209,2577).
personTOthing(209,2578).
personTOthing(209,2579).
personTOthing(210,383).
personTOthing(210,3037).
personTOthing(211,630).
personTOthing(211,631).
personTOthing(211,632).
personTOthing(211,633).
personTOthing(211,806).
personTOthing(211,1913).
personTOthing(211,1914).
personTOthing(212,310).
personTOthing(212,311).
personTOthing(212,312).
personTOthing(212,313).
personTOthing(212,314).
personTOthing(212,315).
personTOthing(212,316).
personTOthing(213,1690).
personTOthing(213,1691).
personTOthing(213,1692).
personTOthing(213,1693).
personTOthing(213,1694).
personTOthing(213,1695).
personTOthing(213,1696).
personTOthing(213,1697).
personTOthing(214,1545).
personTOthing(214,1546).
personTOthing(214,1547).
personTOthing(215,477).
personTOthing(215,478).
personTOthing(215,479).
personTOthing(215,480).
personTOthing(215,481).
personTOthing(215,482).
personTOthing(215,483).
personTOthing(215,484).
personTOthing(215,485).
personTOthing(216,3050).
personTOthing(216,3051).
personTOthing(216,3052).
personTOthing(216,3053).
personTOthing(216,3054).
personTOthing(216,3055).
personTOthing(216,3056).
personTOthing(217,487).
personTOthing(217,1201).
personTOthing(218,1014).
personTOthing(218,1015).
personTOthing(218,1016).
personTOthing(218,1017).
personTOthing(218,1018).
personTOthing(218,1019).
personTOthing(218,1020).
personTOthing(218,1021).
personTOthing(218,1022).
personTOthing(218,1023).
personTOthing(219,2072).
personTOthing(219,2073).
personTOthing(219,2074).
personTOthing(220,1746).
personTOthing(220,2235).
personTOthing(220,2424).
personTOthing(221,27).
personTOthing(221,28).
personTOthing(221,29).
personTOthing(221,30).
personTOthing(221,31).
personTOthing(221,32).
personTOthing(221,33).
personTOthing(221,34).
personTOthing(221,35).
personTOthing(222,359).
personTOthing(222,360).
personTOthing(222,361).
personTOthing(222,362).
personTOthing(222,363).
personTOthing(222,364).
personTOthing(222,365).
personTOthing(222,366).
personTOthing(223,1494).
personTOthing(223,2195).
personTOthing(223,2520).
personTOthing(223,2521).
personTOthing(224,1123).
personTOthing(224,1222).
personTOthing(224,2523).
personTOthing(225,2962).
personTOthing(225,2963).
personTOthing(225,2964).
personTOthing(225,2965).
personTOthing(226,1384).
personTOthing(226,1385).
personTOthing(226,1386).
personTOthing(226,1387).
personTOthing(226,1388).
personTOthing(226,1389).
personTOthing(226,1390).
personTOthing(226,1391).
personTOthing(227,1262).
personTOthing(227,1263).
personTOthing(227,1264).
personTOthing(227,1265).
personTOthing(227,1266).
personTOthing(227,1267).
personTOthing(227,1268).
personTOthing(228,230).
personTOthing(228,1719).
personTOthing(228,1720).
personTOthing(228,1721).
personTOthing(228,1722).
personTOthing(228,1776).
personTOthing(228,1777).
personTOthing(228,1778).
personTOthing(229,1031).
personTOthing(229,1971).
personTOthing(229,1972).
personTOthing(229,1973).
personTOthing(230,455).
personTOthing(230,456).
personTOthing(231,2923).
personTOthing(231,2924).
personTOthing(231,2925).
personTOthing(231,2926).
personTOthing(232,1120).
personTOthing(232,1121).
personTOthing(232,1122).
personTOthing(233,59).
personTOthing(233,60).
personTOthing(234,1959).
personTOthing(234,1960).
personTOthing(234,1961).
personTOthing(234,1962).
personTOthing(234,1963).
personTOthing(234,1964).
personTOthing(234,1965).
personTOthing(234,1966).
personTOthing(234,1967).
personTOthing(235,2801).
personTOthing(235,2802).
personTOthing(235,2803).
personTOthing(235,2804).
personTOthing(235,2805).
personTOthing(235,2806).
personTOthing(235,2807).
personTOthing(235,2808).
personTOthing(235,2809).
personTOthing(236,846).
personTOthing(236,847).
personTOthing(236,848).
personTOthing(236,849).
personTOthing(236,850).
personTOthing(236,851).
personTOthing(236,852).
personTOthing(237,837).
personTOthing(237,838).
personTOthing(237,839).
personTOthing(237,840).
personTOthing(237,841).
personTOthing(237,842).
personTOthing(238,287).
personTOthing(238,2119).
personTOthing(238,2120).
personTOthing(238,2121).
personTOthing(238,2122).
personTOthing(238,2123).
personTOthing(238,2735).
personTOthing(238,2736).
personTOthing(238,2737).
personTOthing(238,2738).
personTOthing(239,469).
personTOthing(239,470).
personTOthing(240,1570).
personTOthing(240,1571).
personTOthing(240,2227).
personTOthing(240,2228).
personTOthing(240,2229).
personTOthing(241,1925).
personTOthing(241,1926).
personTOthing(241,1927).
personTOthing(241,1928).
personTOthing(242,770).
personTOthing(242,771).
personTOthing(242,772).
personTOthing(242,773).
personTOthing(243,1747).
personTOthing(243,1748).
personTOthing(243,1749).
personTOthing(243,1750).
personTOthing(244,661).
personTOthing(244,1490).
personTOthing(244,1780).
personTOthing(245,71).
personTOthing(245,72).
personTOthing(245,73).
personTOthing(245,74).
personTOthing(245,75).
personTOthing(245,76).
personTOthing(245,77).
personTOthing(245,78).
personTOthing(245,79).
personTOthing(246,382).
personTOthing(246,985).
personTOthing(246,1026).
personTOthing(246,1027).
personTOthing(247,2170).
personTOthing(247,2171).
personTOthing(247,2172).
personTOthing(247,2173).
personTOthing(247,2174).
personTOthing(247,2175).
personTOthing(247,2176).
personTOthing(247,2177).
personTOthing(247,2191).
personTOthing(248,876).
personTOthing(248,877).
personTOthing(248,878).
personTOthing(248,879).
personTOthing(249,658).
personTOthing(249,659).
personTOthing(249,921).
personTOthing(249,1054).
personTOthing(249,1055).
personTOthing(249,1056).
personTOthing(250,538).
personTOthing(250,1814).
personTOthing(250,3032).
personTOthing(250,3033).
personTOthing(250,3034).
personTOthing(251,1307).
personTOthing(251,1308).
personTOthing(251,1309).
personTOthing(251,1310).
personTOthing(251,1311).
personTOthing(251,1312).
personTOthing(251,1313).
personTOthing(251,1314).
personTOthing(252,731).
personTOthing(252,1191).
personTOthing(252,1192).
personTOthing(252,1901).
personTOthing(252,1902).
personTOthing(252,1903).
personTOthing(252,1904).
personTOthing(252,1905).
personTOthing(252,1906).
personTOthing(252,1907).
personTOthing(253,2153).
personTOthing(253,2154).
personTOthing(253,2155).
personTOthing(253,2156).
personTOthing(253,2157).
personTOthing(253,2158).
personTOthing(254,1701).
personTOthing(254,1702).
personTOthing(254,1703).
personTOthing(254,1704).
personTOthing(254,1705).
personTOthing(254,1706).
personTOthing(255,1761).
personTOthing(255,1762).
personTOthing(255,1763).
personTOthing(256,2399).
personTOthing(256,2400).
personTOthing(256,2401).
personTOthing(256,3272).
personTOthing(256,3273).
personTOthing(256,3274).
personTOthing(257,1530).
personTOthing(257,1531).
personTOthing(257,1532).
personTOthing(257,1533).
personTOthing(257,1534).
personTOthing(257,1535).
personTOthing(257,1536).
personTOthing(257,1537).
personTOthing(258,182).
personTOthing(258,183).
personTOthing(258,184).
personTOthing(258,185).
personTOthing(258,186).
personTOthing(258,187).
personTOthing(259,2330).
personTOthing(259,2331).
personTOthing(259,2332).
personTOthing(259,2333).
personTOthing(259,2334).
personTOthing(259,2335).
personTOthing(259,2336).
personTOthing(259,2337).
personTOthing(259,2338).
personTOthing(260,1527).
personTOthing(260,1528).
personTOthing(261,1862).
personTOthing(261,1863).
personTOthing(261,1864).
personTOthing(262,2446).
personTOthing(262,2447).
personTOthing(262,3134).
personTOthing(262,3135).
personTOthing(262,3136).
personTOthing(262,3137).
personTOthing(262,3221).
personTOthing(262,3222).
personTOthing(262,3223).
personTOthing(263,323).
personTOthing(263,324).
personTOthing(263,325).
personTOthing(263,326).
personTOthing(263,1233).
personTOthing(263,1234).
personTOthing(263,2327).
personTOthing(264,3190).
personTOthing(264,3191).
personTOthing(264,3192).
personTOthing(264,3193).
personTOthing(264,3194).
personTOthing(264,3195).
personTOthing(265,194).
personTOthing(265,195).
personTOthing(265,196).
personTOthing(265,197).
personTOthing(265,198).
personTOthing(265,224).
personTOthing(265,225).
personTOthing(265,2167).
personTOthing(265,2168).
personTOthing(266,721).
personTOthing(266,722).
personTOthing(266,723).
personTOthing(266,724).
personTOthing(266,725).
personTOthing(266,726).
personTOthing(266,727).
personTOthing(266,728).
personTOthing(266,729).
personTOthing(266,730).
personTOthing(267,2793).
personTOthing(267,2794).
personTOthing(267,2795).
personTOthing(267,2796).
personTOthing(267,2797).
personTOthing(268,2855).
personTOthing(268,2856).
personTOthing(268,2857).
personTOthing(268,2858).
personTOthing(268,2859).
personTOthing(268,2860).
personTOthing(268,2861).
personTOthing(269,905).
personTOthing(269,906).
personTOthing(269,907).
personTOthing(269,908).
personTOthing(269,909).
personTOthing(269,910).
personTOthing(269,911).
personTOthing(270,2537).
personTOthing(270,2538).
personTOthing(270,2539).
personTOthing(270,2540).
personTOthing(270,2541).
personTOthing(270,2542).
personTOthing(270,2543).
personTOthing(271,2510).
personTOthing(271,2511).
personTOthing(271,2512).
personTOthing(271,2513).
personTOthing(271,2514).
personTOthing(271,2515).
personTOthing(271,2516).
personTOthing(271,2517).
personTOthing(271,2518).
personTOthing(272,578).
personTOthing(272,579).
personTOthing(272,580).
personTOthing(272,1405).
personTOthing(273,399).
personTOthing(273,400).
personTOthing(273,401).
personTOthing(273,402).
personTOthing(273,403).
personTOthing(274,704).
personTOthing(274,705).
personTOthing(274,706).
personTOthing(274,707).
personTOthing(274,708).
personTOthing(274,709).
personTOthing(274,710).
personTOthing(274,711).
personTOthing(275,2238).
personTOthing(275,2239).
personTOthing(275,2240).
personTOthing(275,2241).
personTOthing(275,2242).
personTOthing(275,2243).
personTOthing(276,291).
personTOthing(276,292).
personTOthing(276,293).
personTOthing(276,294).
personTOthing(276,295).
personTOthing(276,296).
personTOthing(276,297).
personTOthing(276,298).
personTOthing(276,299).
personTOthing(276,300).
personTOthing(277,678).
personTOthing(277,679).
personTOthing(278,2269).
personTOthing(278,2270).
personTOthing(278,2271).
personTOthing(278,2272).
personTOthing(278,2273).
personTOthing(278,2274).
personTOthing(279,1687).
personTOthing(279,1975).
personTOthing(279,2011).
personTOthing(279,2012).
personTOthing(279,2013).
personTOthing(279,2014).
personTOthing(279,2015).
personTOthing(279,2016).
personTOthing(279,2017).
personTOthing(279,2018).
personTOthing(280,1084).
personTOthing(280,1085).
personTOthing(280,1086).
personTOthing(280,1087).
personTOthing(280,1088).
personTOthing(280,1089).
personTOthing(280,1090).
personTOthing(280,1091).
personTOthing(281,2160).
personTOthing(281,2161).
personTOthing(281,2162).
personTOthing(281,2163).
personTOthing(281,2164).
personTOthing(282,2029).
personTOthing(282,2030).
personTOthing(282,2031).
personTOthing(282,2032).
personTOthing(282,2033).
personTOthing(283,2008).
personTOthing(283,2009).
personTOthing(283,2010).
personTOthing(284,397).
personTOthing(284,398).
personTOthing(285,339).
personTOthing(285,340).
personTOthing(285,341).
personTOthing(285,342).
personTOthing(285,343).
personTOthing(285,1068).
personTOthing(285,1069).
personTOthing(285,1070).
personTOthing(285,1071).
personTOthing(285,1072).
personTOthing(286,3046).
personTOthing(286,3047).
personTOthing(286,3048).
personTOthing(286,3049).
personTOthing(287,2899).
personTOthing(287,2900).
personTOthing(287,2901).
personTOthing(287,2902).
personTOthing(287,2903).
personTOthing(287,2904).
personTOthing(287,2905).
personTOthing(288,1990).
personTOthing(288,1991).
personTOthing(288,1992).
personTOthing(288,1993).
personTOthing(288,1994).
personTOthing(288,1995).
personTOthing(289,151).
personTOthing(289,152).
personTOthing(289,153).
personTOthing(289,154).
personTOthing(289,155).
personTOthing(289,156).
personTOthing(289,157).
personTOthing(290,739).
personTOthing(290,740).
personTOthing(290,741).
personTOthing(290,742).
personTOthing(290,743).
personTOthing(290,744).
personTOthing(290,745).
personTOthing(290,746).
personTOthing(291,3072).
personTOthing(291,3073).
personTOthing(292,2260).
personTOthing(292,2261).
personTOthing(292,2262).
personTOthing(292,2263).
personTOthing(292,2264).
personTOthing(293,2257).
personTOthing(293,2258).
personTOthing(293,2259).
personTOthing(294,2374).
personTOthing(294,2375).
personTOthing(294,2376).
personTOthing(294,2377).
personTOthing(294,2378).
personTOthing(294,2379).
personTOthing(294,2380).
personTOthing(294,2381).
personTOthing(294,2382).
personTOthing(295,50).
personTOthing(295,51).
personTOthing(296,986).
personTOthing(296,987).
personTOthing(296,988).
personTOthing(296,989).
personTOthing(296,990).
personTOthing(296,991).
personTOthing(296,992).
personTOthing(296,993).
personTOthing(297,464).
personTOthing(297,465).
personTOthing(298,1167).
personTOthing(298,1168).
personTOthing(298,1169).
personTOthing(298,1170).
personTOthing(298,1171).
personTOthing(298,1172).
personTOthing(298,1173).
personTOthing(298,1174).
personTOthing(299,1666).
personTOthing(299,1667).
personTOthing(299,1668).
personTOthing(299,1669).
personTOthing(299,1670).
personTOthing(299,1671).
personTOthing(299,1672).
personTOthing(299,1673).
personTOthing(299,1674).
personTOthing(300,2714).
personTOthing(300,2715).
personTOthing(300,2716).
personTOthing(300,2717).
personTOthing(300,2718).
personTOthing(300,2719).
personTOthing(300,2720).
personTOthing(300,2721).
personTOthing(300,2722).
personTOthing(300,2723).
personTOthing(301,1325).
personTOthing(301,1326).
personTOthing(301,1327).
personTOthing(301,1328).
personTOthing(301,1329).
personTOthing(301,1330).
personTOthing(301,1331).
personTOthing(301,1332).
personTOthing(301,1333).
personTOthing(302,3282).
personTOthing(302,3283).
personTOthing(302,3284).
personTOthing(302,3285).
personTOthing(303,414).
personTOthing(303,415).
personTOthing(303,416).
personTOthing(303,417).
personTOthing(303,418).
personTOthing(303,419).
personTOthing(303,420).
personTOthing(303,421).
personTOthing(304,113).
personTOthing(304,114).
personTOthing(304,115).
personTOthing(305,895).
personTOthing(305,896).
personTOthing(305,897).
personTOthing(305,898).
personTOthing(305,899).
personTOthing(305,900).
personTOthing(305,901).
personTOthing(305,902).
personTOthing(305,903).
personTOthing(305,904).
personTOthing(306,424).
personTOthing(306,425).
personTOthing(306,426).
personTOthing(306,427).
personTOthing(306,428).
personTOthing(306,429).
personTOthing(306,430).
personTOthing(306,431).
personTOthing(306,432).
personTOthing(307,1495).
personTOthing(307,1496).
personTOthing(307,1497).
personTOthing(307,1498).
personTOthing(307,1499).
personTOthing(307,1500).
personTOthing(307,1501).
personTOthing(307,1502).
personTOthing(307,1503).
personTOthing(308,864).
personTOthing(308,865).
personTOthing(308,866).
personTOthing(308,867).
personTOthing(308,868).
personTOthing(308,869).
personTOthing(308,870).
personTOthing(308,1217).
personTOthing(309,245).
personTOthing(309,246).
personTOthing(309,247).
personTOthing(309,248).
personTOthing(309,249).
personTOthing(309,250).
personTOthing(309,251).
personTOthing(309,252).
personTOthing(309,253).
personTOthing(309,254).
personTOthing(310,2748).
personTOthing(310,2749).
personTOthing(311,915).
personTOthing(311,916).
personTOthing(312,2786).
personTOthing(312,2787).
personTOthing(312,2788).
personTOthing(312,2789).
personTOthing(312,2790).
personTOthing(313,1845).
personTOthing(313,1846).
personTOthing(313,1847).
personTOthing(313,1848).
personTOthing(313,1849).
personTOthing(313,1850).
personTOthing(313,1851).
personTOthing(313,1852).
personTOthing(313,1853).
personTOthing(313,1854).
personTOthing(314,138).
personTOthing(314,139).
personTOthing(314,140).
personTOthing(314,141).
personTOthing(314,142).
personTOthing(315,95).
personTOthing(315,96).
personTOthing(315,97).
personTOthing(315,98).
personTOthing(315,99).
personTOthing(315,100).
personTOthing(315,101).
personTOthing(315,102).
personTOthing(316,84).
personTOthing(316,85).
personTOthing(316,1624).
personTOthing(316,3060).
personTOthing(317,809).
personTOthing(317,1873).
personTOthing(317,2534).
personTOthing(318,2949).
personTOthing(318,2950).
personTOthing(318,2951).
personTOthing(318,2952).
personTOthing(318,2953).
personTOthing(318,2954).
personTOthing(318,2955).
personTOthing(318,2956).
personTOthing(318,2957).
personTOthing(318,2958).
personTOthing(319,1005).
personTOthing(319,1006).
personTOthing(319,1383).
personTOthing(320,1588).
personTOthing(320,1589).
personTOthing(320,1590).
personTOthing(320,1591).
personTOthing(321,3122).
personTOthing(321,3123).
personTOthing(321,3124).
personTOthing(322,303).
personTOthing(322,304).
personTOthing(322,305).
personTOthing(322,306).
personTOthing(322,307).
personTOthing(322,308).
personTOthing(323,554).
personTOthing(323,555).
personTOthing(324,981).
personTOthing(324,982).
personTOthing(325,1614).
personTOthing(325,1615).
personTOthing(325,1616).
personTOthing(325,1617).
personTOthing(325,1618).
personTOthing(325,1619).
personTOthing(325,1620).
personTOthing(325,1621).
personTOthing(325,1622).
personTOthing(326,236).
personTOthing(326,237).
personTOthing(326,238).
personTOthing(326,239).
personTOthing(326,1082).
personTOthing(326,1282).
personTOthing(326,1283).
personTOthing(327,2563).
personTOthing(327,2564).
personTOthing(327,2565).
personTOthing(327,2566).
personTOthing(327,2567).
personTOthing(327,2568).
personTOthing(327,2569).
personTOthing(327,2570).
personTOthing(327,2571).
personTOthing(327,2572).
personTOthing(328,1836).
personTOthing(328,1837).
personTOthing(328,1838).
personTOthing(328,1839).
personTOthing(328,1840).
personTOthing(328,1841).
personTOthing(328,1842).
personTOthing(328,1843).
personTOthing(328,1844).
personTOthing(329,2582).
personTOthing(329,2583).
personTOthing(330,882).
personTOthing(330,883).
personTOthing(330,884).
personTOthing(330,885).
personTOthing(330,886).
personTOthing(330,887).
personTOthing(330,888).
personTOthing(330,889).
personTOthing(330,890).
personTOthing(330,891).
personTOthing(331,280).
personTOthing(331,281).
personTOthing(331,282).
personTOthing(331,283).
personTOthing(331,1403).
personTOthing(331,1404).
personTOthing(331,2593).
personTOthing(331,2594).
personTOthing(331,2595).
personTOthing(331,2596).
personTOthing(332,1421).
personTOthing(332,1422).
personTOthing(332,1423).
personTOthing(332,1424).
personTOthing(332,1425).
personTOthing(332,1426).
personTOthing(332,1427).
personTOthing(332,1428).
personTOthing(332,1429).
personTOthing(333,1318).
personTOthing(333,1319).
personTOthing(333,1320).
personTOthing(333,1321).
personTOthing(333,1322).
personTOthing(334,3184).
personTOthing(334,3185).
personTOthing(334,3186).
personTOthing(334,3187).
personTOthing(335,2466).
personTOthing(335,2467).
personTOthing(335,2468).
personTOthing(335,2469).
personTOthing(335,2470).
personTOthing(336,226).
personTOthing(336,227).
personTOthing(337,2823).
personTOthing(337,2824).
personTOthing(337,2825).
personTOthing(337,2826).
personTOthing(337,2827).
personTOthing(337,2828).
personTOthing(337,2829).
personTOthing(338,2044).
personTOthing(338,2045).
personTOthing(338,2046).
personTOthing(339,508).
personTOthing(339,509).
personTOthing(339,510).
personTOthing(339,511).
personTOthing(339,1917).
personTOthing(339,1918).
personTOthing(339,1919).
personTOthing(339,1920).
personTOthing(339,1921).
personTOthing(340,598).
personTOthing(340,856).
personTOthing(340,857).
personTOthing(340,858).
personTOthing(340,3216).
personTOthing(340,3217).
personTOthing(340,3218).
personTOthing(340,3219).
personTOthing(340,3220).
personTOthing(341,951).
personTOthing(341,952).
personTOthing(341,1361).
personTOthing(341,1362).
personTOthing(341,1363).
personTOthing(341,1364).
personTOthing(341,1365).
personTOthing(341,2944).
personTOthing(341,2945).
personTOthing(341,2946).
personTOthing(342,3234).
personTOthing(342,3235).
personTOthing(342,3236).
personTOthing(342,3237).
personTOthing(342,3238).
personTOthing(342,3239).
personTOthing(343,1585).
personTOthing(343,1586).
personTOthing(343,2126).
personTOthing(344,2928).
personTOthing(344,2929).
personTOthing(344,2930).
personTOthing(344,2931).
personTOthing(344,2932).
personTOthing(344,2933).
personTOthing(344,2934).
personTOthing(344,2935).
personTOthing(344,2936).
personTOthing(345,132).
personTOthing(345,133).
personTOthing(345,134).
personTOthing(345,135).
personTOthing(346,2976).
personTOthing(346,2977).
personTOthing(347,1782).
personTOthing(347,1783).
personTOthing(347,1784).
personTOthing(347,1785).
personTOthing(347,1786).
personTOthing(347,1787).
personTOthing(347,1788).
personTOthing(347,1789).
personTOthing(348,527).
personTOthing(348,528).
personTOthing(348,529).
personTOthing(348,530).
personTOthing(348,531).
personTOthing(348,532).
personTOthing(348,533).
personTOthing(348,534).
personTOthing(348,535).
personTOthing(349,123).
personTOthing(349,124).
personTOthing(349,125).
personTOthing(349,126).
personTOthing(349,127).
personTOthing(350,2087).
personTOthing(350,2088).
personTOthing(350,2089).
personTOthing(350,2090).
personTOthing(350,2091).
personTOthing(350,2092).
personTOthing(351,1208).
personTOthing(351,1874).
personTOthing(351,1875).
personTOthing(351,1876).
personTOthing(351,1877).
personTOthing(351,1878).
personTOthing(351,1879).
personTOthing(351,3105).
personTOthing(352,2671).
personTOthing(352,2672).
personTOthing(352,2673).
personTOthing(353,168).
personTOthing(353,169).
personTOthing(353,170).
personTOthing(353,171).
personTOthing(354,1523).
personTOthing(354,1524).
personTOthing(355,1999).
personTOthing(355,2000).
personTOthing(355,2001).
personTOthing(355,2002).
personTOthing(355,2003).
personTOthing(355,2004).
personTOthing(355,2005).
personTOthing(355,2006).
personTOthing(356,853).
personTOthing(356,854).
personTOthing(356,1188).
personTOthing(357,1766).
personTOthing(357,1767).
personTOthing(357,1768).
personTOthing(357,1769).
personTOthing(357,1770).
personTOthing(357,1771).
personTOthing(357,1772).
personTOthing(357,1773).
personTOthing(358,3039).
personTOthing(358,3040).
personTOthing(358,3041).
personTOthing(358,3042).
personTOthing(359,881).
personTOthing(359,2753).
personTOthing(359,3110).
personTOthing(360,201).
personTOthing(360,202).
personTOthing(360,203).
personTOthing(360,204).
personTOthing(360,205).
personTOthing(360,912).
personTOthing(360,2427).
personTOthing(361,819).
personTOthing(361,820).
personTOthing(361,821).
personTOthing(361,822).
personTOthing(361,823).
personTOthing(361,824).
personTOthing(361,825).
personTOthing(361,826).
personTOthing(361,827).
personTOthing(362,3127).
personTOthing(362,3128).
personTOthing(362,3129).
personTOthing(362,3130).
personTOthing(362,3131).
personTOthing(362,3132).
personTOthing(362,3133).
personTOthing(363,87).
personTOthing(363,88).
personTOthing(363,89).
personTOthing(363,90).
personTOthing(363,91).
personTOthing(363,92).
personTOthing(363,93).
personTOthing(363,94).
personTOthing(363,1395).
personTOthing(363,3018).
personTOthing(364,500).
personTOthing(364,501).
personTOthing(364,502).
personTOthing(364,503).
personTOthing(364,504).
personTOthing(364,2865).
personTOthing(365,338).
personTOthing(365,2700).
personTOthing(365,2701).
personTOthing(366,1433).
personTOthing(366,1434).
personTOthing(366,1435).
personTOthing(367,373).
personTOthing(367,374).
personTOthing(367,375).
personTOthing(367,1467).
personTOthing(368,159).
personTOthing(368,160).
personTOthing(368,161).
personTOthing(368,162).
personTOthing(368,163).
personTOthing(368,164).
personTOthing(368,165).
personTOthing(368,166).
personTOthing(368,167).
personTOthing(369,63).
personTOthing(369,64).
personTOthing(369,65).
personTOthing(369,66).
personTOthing(369,67).
personTOthing(369,68).
personTOthing(369,69).
personTOthing(370,2409).
personTOthing(370,2410).
personTOthing(370,2411).
personTOthing(370,2412).
personTOthing(371,540).
personTOthing(371,3019).
personTOthing(371,3020).
personTOthing(371,3021).
personTOthing(371,3022).
personTOthing(371,3023).
personTOthing(371,3024).
personTOthing(372,828).
personTOthing(372,829).
personTOthing(372,830).
personTOthing(372,831).
personTOthing(372,832).
personTOthing(372,833).
personTOthing(372,2042).
personTOthing(372,2043).
personTOthing(373,2586).
personTOthing(373,2587).
personTOthing(373,2588).
personTOthing(373,2589).
personTOthing(374,3175).
personTOthing(374,3176).
personTOthing(374,3177).
personTOthing(374,3178).
personTOthing(374,3179).
personTOthing(375,1730).
personTOthing(375,1731).
personTOthing(375,1732).
personTOthing(375,1733).
personTOthing(375,1734).
personTOthing(375,1735).
personTOthing(375,1736).
personTOthing(375,1737).
personTOthing(375,1738).
personTOthing(376,1285).
personTOthing(376,1286).
personTOthing(376,1287).
personTOthing(376,1288).
personTOthing(376,1289).
personTOthing(376,1290).
personTOthing(376,1291).
personTOthing(376,1292).
personTOthing(376,1293).
personTOthing(377,143).
personTOthing(377,144).
personTOthing(377,145).
personTOthing(377,146).
personTOthing(377,147).
personTOthing(377,148).
personTOthing(377,149).
personTOthing(378,2622).
personTOthing(378,2623).
personTOthing(379,944).
personTOthing(379,1943).
personTOthing(380,1868).
personTOthing(380,1869).
personTOthing(380,1870).
personTOthing(381,2035).
personTOthing(381,2036).
personTOthing(381,2037).
personTOthing(381,2038).
personTOthing(381,2054).
personTOthing(382,1575).
personTOthing(382,1576).
personTOthing(382,1577).
personTOthing(382,1578).
personTOthing(382,1579).
personTOthing(382,1580).
personTOthing(382,1581).
personTOthing(382,1582).
personTOthing(382,1583).
personTOthing(382,1584).
personTOthing(383,1340).
personTOthing(383,1341).
personTOthing(383,1342).
personTOthing(383,1343).
personTOthing(383,1344).
personTOthing(383,1345).
personTOthing(383,1346).
personTOthing(384,640).
personTOthing(384,641).
personTOthing(384,642).
personTOthing(384,643).
personTOthing(384,644).
personTOthing(384,645).
personTOthing(384,646).
personTOthing(385,1125).
personTOthing(385,1126).
personTOthing(385,1127).
personTOthing(385,1128).
personTOthing(385,1129).
personTOthing(385,1130).
personTOthing(385,1131).
personTOthing(385,1132).
personTOthing(385,1133).
personTOthing(385,1134).
personTOthing(386,573).
personTOthing(386,574).
personTOthing(386,575).
personTOthing(386,576).
personTOthing(386,577).
personTOthing(386,3152).
personTOthing(386,3153).
personTOthing(386,3154).
personTOthing(386,3155).
personTOthing(387,2724).
personTOthing(387,2725).
personTOthing(387,3213).
personTOthing(387,3230).
personTOthing(387,3231).
personTOthing(387,3232).
personTOthing(388,1944).
personTOthing(388,1945).
personTOthing(388,1946).
personTOthing(388,1947).
personTOthing(388,1948).
personTOthing(389,8).
personTOthing(389,9).
personTOthing(389,2078).
personTOthing(389,2959).
personTOthing(389,2960).
personTOthing(390,2287).
personTOthing(390,2288).
personTOthing(390,2289).
personTOthing(390,2290).
personTOthing(390,2291).
personTOthing(390,2292).
personTOthing(390,2293).
personTOthing(390,2294).
personTOthing(390,2295).
personTOthing(390,2296).
personTOthing(391,271).
personTOthing(391,272).
personTOthing(391,273).
personTOthing(391,274).
personTOthing(391,275).
personTOthing(391,276).
personTOthing(391,277).
personTOthing(391,278).
personTOthing(391,279).
personTOthing(392,55).
personTOthing(392,56).
personTOthing(392,1469).
personTOthing(392,1470).
personTOthing(392,1471).
personTOthing(392,1472).
personTOthing(392,1473).
personTOthing(392,1474).
personTOthing(392,1475).
personTOthing(393,329).
personTOthing(393,330).
personTOthing(393,331).
personTOthing(393,332).
personTOthing(393,333).
personTOthing(393,334).
personTOthing(393,335).
personTOthing(393,336).
personTOthing(393,337).
personTOthing(394,3064).
personTOthing(394,3065).
personTOthing(395,1632).
personTOthing(395,1633).
personTOthing(395,1634).
personTOthing(395,1635).
personTOthing(395,1636).
personTOthing(395,1637).
personTOthing(395,1638).
personTOthing(395,1639).
personTOthing(395,1640).
personTOthing(396,2106).
personTOthing(396,2107).
personTOthing(396,2108).
personTOthing(396,2109).
personTOthing(396,2110).
personTOthing(396,2111).
personTOthing(396,2112).
personTOthing(396,2113).
personTOthing(396,2114).
personTOthing(396,2115).
personTOthing(397,218).
personTOthing(397,219).
personTOthing(397,220).
personTOthing(397,221).
personTOthing(397,222).
personTOthing(397,318).
personTOthing(397,319).
personTOthing(397,320).
personTOthing(397,758).
personTOthing(397,759).
personTOthing(398,1102).
personTOthing(398,1103).
personTOthing(398,1104).
personTOthing(398,1105).
personTOthing(398,1106).
personTOthing(398,1107).
personTOthing(399,2649).
personTOthing(399,2650).
personTOthing(399,2651).
personTOthing(399,2652).
personTOthing(399,2653).
personTOthing(399,2654).
personTOthing(399,2762).
personTOthing(400,2842).
personTOthing(400,2843).
personTOthing(400,2844).
personTOthing(400,2845).
personTOthing(400,2846).
personTOthing(400,2847).
personTOthing(400,2848).
personTOthing(400,2849).
cabinetDomain(1).
cabinetDomain(2).
cabinetDomain(3).
cabinetDomain(4).
cabinetDomain(5).
cabinetDomain(6).
cabinetDomain(7).
cabinetDomain(8).
cabinetDomain(9).
cabinetDomain(10).
cabinetDomain(11).
cabinetDomain(12).
cabinetDomain(13).
cabinetDomain(14).
cabinetDomain(15).
cabinetDomain(16).
cabinetDomain(17).
cabinetDomain(18).
cabinetDomain(19).
cabinetDomain(20).
cabinetDomain(21).
cabinetDomain(22).
cabinetDomain(23).
cabinetDomain(24).
cabinetDomain(25).
cabinetDomain(26).
cabinetDomain(27).
cabinetDomain(28).
cabinetDomain(29).
cabinetDomain(30).
cabinetDomain(31).
cabinetDomain(32).
cabinetDomain(33).
cabinetDomain(34).
cabinetDomain(35).
cabinetDomain(36).
cabinetDomain(37).
cabinetDomain(38).
cabinetDomain(39).
cabinetDomain(40).
cabinetDomain(41).
cabinetDomain(42).
cabinetDomain(43).
cabinetDomain(44).
cabinetDomain(45).
cabinetDomain(46).
cabinetDomain(47).
cabinetDomain(48).
cabinetDomain(49).
cabinetDomain(50).
cabinetDomain(51).
cabinetDomain(52).
cabinetDomain(53).
cabinetDomain(54).
cabinetDomain(55).
cabinetDomain(56).
cabinetDomain(57).
cabinetDomain(58).
cabinetDomain(59).
cabinetDomain(60).
cabinetDomain(61).
cabinetDomain(62).
cabinetDomain(63).
cabinetDomain(64).
cabinetDomain(65).
cabinetDomain(66).
cabinetDomain(67).
cabinetDomain(68).
cabinetDomain(69).
cabinetDomain(70).
cabinetDomain(71).
cabinetDomain(72).
cabinetDomain(73).
cabinetDomain(74).
cabinetDomain(75).
cabinetDomain(76).
cabinetDomain(77).
cabinetDomain(78).
cabinetDomain(79).
cabinetDomain(80).
cabinetDomain(81).
cabinetDomain(82).
cabinetDomain(83).
cabinetDomain(84).
cabinetDomain(85).
cabinetDomain(86).
cabinetDomain(87).
cabinetDomain(88).
cabinetDomain(89).
cabinetDomain(90).
cabinetDomain(91).
cabinetDomain(92).
cabinetDomain(93).
cabinetDomain(94).
cabinetDomain(95).
cabinetDomain(96).
cabinetDomain(97).
cabinetDomain(98).
cabinetDomain(99).
cabinetDomain(100).
cabinetDomain(101).
cabinetDomain(102).
cabinetDomain(103).
cabinetDomain(104).
cabinetDomain(105).
cabinetDomain(106).
cabinetDomain(107).
cabinetDomain(108).
cabinetDomain(109).
cabinetDomain(110).
cabinetDomain(111).
cabinetDomain(112).
cabinetDomain(113).
cabinetDomain(114).
cabinetDomain(115).
cabinetDomain(116).
cabinetDomain(117).
cabinetDomain(118).
cabinetDomain(119).
cabinetDomain(120).
cabinetDomain(121).
cabinetDomain(122).
cabinetDomain(123).
cabinetDomain(124).
cabinetDomain(125).
cabinetDomain(126).
cabinetDomain(127).
cabinetDomain(128).
cabinetDomain(129).
cabinetDomain(130).
cabinetDomain(131).
cabinetDomain(132).
cabinetDomain(133).
cabinetDomain(134).
cabinetDomain(135).
cabinetDomain(136).
cabinetDomain(137).
cabinetDomain(138).
cabinetDomain(139).
cabinetDomain(140).
cabinetDomain(141).
cabinetDomain(142).
cabinetDomain(143).
cabinetDomain(144).
cabinetDomain(145).
cabinetDomain(146).
cabinetDomain(147).
cabinetDomain(148).
cabinetDomain(149).
cabinetDomain(150).
cabinetDomain(151).
cabinetDomain(152).
cabinetDomain(153).
cabinetDomain(154).
cabinetDomain(155).
cabinetDomain(156).
cabinetDomain(157).
cabinetDomain(158).
cabinetDomain(159).
cabinetDomain(160).
cabinetDomain(161).
cabinetDomain(162).
cabinetDomain(163).
cabinetDomain(164).
cabinetDomain(165).
cabinetDomain(166).
cabinetDomain(167).
cabinetDomain(168).
cabinetDomain(169).
cabinetDomain(170).
cabinetDomain(171).
cabinetDomain(172).
cabinetDomain(173).
cabinetDomain(174).
cabinetDomain(175).
cabinetDomain(176).
cabinetDomain(177).
cabinetDomain(178).
cabinetDomain(179).
cabinetDomain(180).
cabinetDomain(181).
cabinetDomain(182).
cabinetDomain(183).
cabinetDomain(184).
cabinetDomain(185).
cabinetDomain(186).
cabinetDomain(187).
cabinetDomain(188).
cabinetDomain(189).
cabinetDomain(190).
cabinetDomain(191).
cabinetDomain(192).
cabinetDomain(193).
cabinetDomain(194).
cabinetDomain(195).
cabinetDomain(196).
cabinetDomain(197).
cabinetDomain(198).
cabinetDomain(199).
cabinetDomain(200).
cabinetDomain(201).
cabinetDomain(202).
cabinetDomain(203).
cabinetDomain(204).
cabinetDomain(205).
cabinetDomain(206).
cabinetDomain(207).
cabinetDomain(208).
cabinetDomain(209).
cabinetDomain(210).
cabinetDomain(211).
cabinetDomain(212).
cabinetDomain(213).
cabinetDomain(214).
cabinetDomain(215).
cabinetDomain(216).
cabinetDomain(217).
cabinetDomain(218).
cabinetDomain(219).
cabinetDomain(220).
cabinetDomain(221).
cabinetDomain(222).
cabinetDomain(223).
cabinetDomain(224).
cabinetDomain(225).
cabinetDomain(226).
cabinetDomain(227).
cabinetDomain(228).
cabinetDomain(229).
cabinetDomain(230).
cabinetDomain(231).
cabinetDomain(232).
cabinetDomain(233).
cabinetDomain(234).
cabinetDomain(235).
cabinetDomain(236).
cabinetDomain(237).
cabinetDomain(238).
cabinetDomain(239).
cabinetDomain(240).
cabinetDomain(241).
cabinetDomain(242).
cabinetDomain(243).
cabinetDomain(244).
cabinetDomain(245).
cabinetDomain(246).
cabinetDomain(247).
cabinetDomain(248).
cabinetDomain(249).
cabinetDomain(250).
cabinetDomain(251).
cabinetDomain(252).
cabinetDomain(253).
cabinetDomain(254).
cabinetDomain(255).
cabinetDomain(256).
cabinetDomain(257).
cabinetDomain(258).
cabinetDomain(259).
cabinetDomain(260).
cabinetDomain(261).
cabinetDomain(262).
cabinetDomain(263).
cabinetDomain(264).
cabinetDomain(265).
cabinetDomain(266).
cabinetDomain(267).
cabinetDomain(268).
cabinetDomain(269).
cabinetDomain(270).
cabinetDomain(271).
cabinetDomain(272).
cabinetDomain(273).
cabinetDomain(274).
cabinetDomain(275).
cabinetDomain(276).
cabinetDomain(277).
cabinetDomain(278).
cabinetDomain(279).
cabinetDomain(280).
cabinetDomain(281).
cabinetDomain(282).
cabinetDomain(283).
cabinetDomain(284).
cabinetDomain(285).
cabinetDomain(286).
cabinetDomain(287).
cabinetDomain(288).
cabinetDomain(289).
cabinetDomain(290).
cabinetDomain(291).
cabinetDomain(292).
cabinetDomain(293).
cabinetDomain(294).
cabinetDomain(295).
cabinetDomain(296).
cabinetDomain(297).
cabinetDomain(298).
cabinetDomain(299).
cabinetDomain(300).
cabinetDomain(301).
cabinetDomain(302).
cabinetDomain(303).
cabinetDomain(304).
cabinetDomain(305).
cabinetDomain(306).
cabinetDomain(307).
cabinetDomain(308).
cabinetDomain(309).
cabinetDomain(310).
cabinetDomain(311).
cabinetDomain(312).
cabinetDomain(313).
cabinetDomain(314).
cabinetDomain(315).
cabinetDomain(316).
cabinetDomain(317).
cabinetDomain(318).
cabinetDomain(319).
cabinetDomain(320).
cabinetDomain(321).
cabinetDomain(322).
cabinetDomain(323).
cabinetDomain(324).
cabinetDomain(325).
cabinetDomain(326).
cabinetDomain(327).
cabinetDomain(328).
cabinetDomain(329).
cabinetDomain(330).
cabinetDomain(331).
cabinetDomain(332).
cabinetDomain(333).
cabinetDomain(334).
cabinetDomain(335).
cabinetDomain(336).
cabinetDomain(337).
cabinetDomain(338).
cabinetDomain(339).
cabinetDomain(340).
cabinetDomain(341).
cabinetDomain(342).
cabinetDomain(343).
cabinetDomain(344).
cabinetDomain(345).
cabinetDomain(346).
cabinetDomain(347).
cabinetDomain(348).
cabinetDomain(349).
cabinetDomain(350).
cabinetDomain(351).
cabinetDomain(352).
cabinetDomain(353).
cabinetDomain(354).
cabinetDomain(355).
cabinetDomain(356).
cabinetDomain(357).
cabinetDomain(358).
cabinetDomain(359).
cabinetDomain(360).
cabinetDomain(361).
cabinetDomain(362).
cabinetDomain(363).
cabinetDomain(364).
cabinetDomain(365).
cabinetDomain(366).
cabinetDomain(367).
cabinetDomain(368).
cabinetDomain(369).
cabinetDomain(370).
cabinetDomain(371).
cabinetDomain(372).
cabinetDomain(373).
cabinetDomain(374).
cabinetDomain(375).
cabinetDomain(376).
cabinetDomain(377).
cabinetDomain(378).
cabinetDomain(379).
cabinetDomain(380).
cabinetDomain(381).
cabinetDomain(382).
cabinetDomain(383).
cabinetDomain(384).
cabinetDomain(385).
cabinetDomain(386).
cabinetDomain(387).
cabinetDomain(388).
cabinetDomain(389).
cabinetDomain(390).
cabinetDomain(391).
cabinetDomain(392).
cabinetDomain(393).
cabinetDomain(394).
cabinetDomain(395).
cabinetDomain(396).
cabinetDomain(397).
cabinetDomain(398).
cabinetDomain(399).
cabinetDomain(400).
cabinetDomain(401).
cabinetDomain(402).
cabinetDomain(403).
cabinetDomain(404).
cabinetDomain(405).
cabinetDomain(406).
cabinetDomain(407).
cabinetDomain(408).
cabinetDomain(409).
cabinetDomain(410).
cabinetDomain(411).
cabinetDomain(412).
cabinetDomain(413).
cabinetDomain(414).
cabinetDomain(415).
cabinetDomain(416).
cabinetDomain(417).
cabinetDomain(418).
cabinetDomain(419).
cabinetDomain(420).
cabinetDomain(421).
cabinetDomain(422).
cabinetDomain(423).
cabinetDomain(424).
cabinetDomain(425).
cabinetDomain(426).
cabinetDomain(427).
cabinetDomain(428).
cabinetDomain(429).
cabinetDomain(430).
cabinetDomain(431).
cabinetDomain(432).
cabinetDomain(433).
cabinetDomain(434).
cabinetDomain(435).
cabinetDomain(436).
cabinetDomain(437).
cabinetDomain(438).
cabinetDomain(439).
cabinetDomain(440).
cabinetDomain(441).
cabinetDomain(442).
cabinetDomain(443).
cabinetDomain(444).
cabinetDomain(445).
cabinetDomain(446).
cabinetDomain(447).
cabinetDomain(448).
cabinetDomain(449).
cabinetDomain(450).
cabinetDomain(451).
cabinetDomain(452).
cabinetDomain(453).
cabinetDomain(454).
cabinetDomain(455).
cabinetDomain(456).
cabinetDomain(457).
cabinetDomain(458).
cabinetDomain(459).
cabinetDomain(460).
cabinetDomain(461).
cabinetDomain(462).
cabinetDomain(463).
cabinetDomain(464).
cabinetDomain(465).
cabinetDomain(466).
cabinetDomain(467).
cabinetDomain(468).
cabinetDomain(469).
cabinetDomain(470).
cabinetDomain(471).
cabinetDomain(472).
cabinetDomain(473).
cabinetDomain(474).
cabinetDomain(475).
cabinetDomain(476).
cabinetDomain(477).
cabinetDomain(478).
cabinetDomain(479).
cabinetDomain(480).
cabinetDomain(481).
cabinetDomain(482).
cabinetDomain(483).
cabinetDomain(484).
cabinetDomain(485).
cabinetDomain(486).
cabinetDomain(487).
cabinetDomain(488).
cabinetDomain(489).
cabinetDomain(490).
cabinetDomain(491).
cabinetDomain(492).
cabinetDomain(493).
cabinetDomain(494).
cabinetDomain(495).
cabinetDomain(496).
cabinetDomain(497).
cabinetDomain(498).
cabinetDomain(499).
cabinetDomain(500).
cabinetDomain(501).
cabinetDomain(502).
cabinetDomain(503).
cabinetDomain(504).
cabinetDomain(505).
cabinetDomain(506).
cabinetDomain(507).
cabinetDomain(508).
cabinetDomain(509).
cabinetDomain(510).
cabinetDomain(511).
cabinetDomain(512).
cabinetDomain(513).
cabinetDomain(514).
cabinetDomain(515).
cabinetDomain(516).
cabinetDomain(517).
cabinetDomain(518).
cabinetDomain(519).
cabinetDomain(520).
cabinetDomain(521).
cabinetDomain(522).
cabinetDomain(523).
cabinetDomain(524).
cabinetDomain(525).
cabinetDomain(526).
cabinetDomain(527).
cabinetDomain(528).
cabinetDomain(529).
cabinetDomain(530).
cabinetDomain(531).
cabinetDomain(532).
cabinetDomain(533).
cabinetDomain(534).
cabinetDomain(535).
cabinetDomain(536).
cabinetDomain(537).
cabinetDomain(538).
cabinetDomain(539).
cabinetDomain(540).
cabinetDomain(541).
cabinetDomain(542).
cabinetDomain(543).
cabinetDomain(544).
cabinetDomain(545).
cabinetDomain(546).
cabinetDomain(547).
cabinetDomain(548).
cabinetDomain(549).
cabinetDomain(550).
cabinetDomain(551).
cabinetDomain(552).
cabinetDomain(553).
cabinetDomain(554).
cabinetDomain(555).
cabinetDomain(556).
cabinetDomain(557).
cabinetDomain(558).
cabinetDomain(559).
cabinetDomain(560).
cabinetDomain(561).
cabinetDomain(562).
cabinetDomain(563).
cabinetDomain(564).
cabinetDomain(565).
cabinetDomain(566).
cabinetDomain(567).
cabinetDomain(568).
cabinetDomain(569).
cabinetDomain(570).
cabinetDomain(571).
cabinetDomain(572).
cabinetDomain(573).
cabinetDomain(574).
cabinetDomain(575).
cabinetDomain(576).
cabinetDomain(577).
cabinetDomain(578).
cabinetDomain(579).
cabinetDomain(580).
cabinetDomain(581).
cabinetDomain(582).
cabinetDomain(583).
cabinetDomain(584).
cabinetDomain(585).
cabinetDomain(586).
cabinetDomain(587).
cabinetDomain(588).
cabinetDomain(589).
cabinetDomain(590).
cabinetDomain(591).
cabinetDomain(592).
cabinetDomain(593).
cabinetDomain(594).
cabinetDomain(595).
cabinetDomain(596).
cabinetDomain(597).
cabinetDomain(598).
cabinetDomain(599).
cabinetDomain(600).
cabinetDomain(601).
cabinetDomain(602).
cabinetDomain(603).
cabinetDomain(604).
cabinetDomain(605).
cabinetDomain(606).
cabinetDomain(607).
cabinetDomain(608).
cabinetDomain(609).
cabinetDomain(610).
cabinetDomain(611).
cabinetDomain(612).
cabinetDomain(613).
cabinetDomain(614).
cabinetDomain(615).
cabinetDomain(616).
cabinetDomain(617).
cabinetDomain(618).
cabinetDomain(619).
cabinetDomain(620).
cabinetDomain(621).
cabinetDomain(622).
cabinetDomain(623).
cabinetDomain(624).
cabinetDomain(625).
cabinetDomain(626).
cabinetDomain(627).
cabinetDomain(628).
cabinetDomain(629).
cabinetDomain(630).
cabinetDomain(631).
cabinetDomain(632).
cabinetDomain(633).
cabinetDomain(634).
cabinetDomain(635).
cabinetDomain(636).
cabinetDomain(637).
cabinetDomain(638).
cabinetDomain(639).
cabinetDomain(640).
cabinetDomain(641).
cabinetDomain(642).
cabinetDomain(643).
cabinetDomain(644).
cabinetDomain(645).
cabinetDomain(646).
cabinetDomain(647).
cabinetDomain(648).
cabinetDomain(649).
cabinetDomain(650).
cabinetDomain(651).
cabinetDomain(652).
cabinetDomain(653).
cabinetDomain(654).
cabinetDomain(655).
cabinetDomain(656).
cabinetDomain(657).
cabinetDomain(658).
cabinetDomain(659).
cabinetDomain(660).
cabinetDomain(661).
cabinetDomain(662).
cabinetDomain(663).
cabinetDomain(664).
cabinetDomain(665).
cabinetDomain(666).
cabinetDomain(667).
cabinetDomain(668).
cabinetDomain(669).
cabinetDomain(670).
cabinetDomain(671).
cabinetDomain(672).
cabinetDomain(673).
cabinetDomain(674).
cabinetDomain(675).
cabinetDomain(676).
cabinetDomain(677).
cabinetDomain(678).
cabinetDomain(679).
cabinetDomain(680).
cabinetDomain(681).
cabinetDomain(682).
cabinetDomain(683).
cabinetDomain(684).
cabinetDomain(685).
cabinetDomain(686).
cabinetDomain(687).
cabinetDomain(688).
cabinetDomain(689).
cabinetDomain(690).
cabinetDomain(691).
cabinetDomain(692).
cabinetDomain(693).
cabinetDomain(694).
cabinetDomain(695).
cabinetDomain(696).
cabinetDomain(697).
cabinetDomain(698).
cabinetDomain(699).
cabinetDomain(700).
cabinetDomain(701).
cabinetDomain(702).
cabinetDomain(703).
cabinetDomain(704).
cabinetDomain(705).
cabinetDomain(706).
cabinetDomain(707).
cabinetDomain(708).
cabinetDomain(709).
cabinetDomain(710).
cabinetDomain(711).
cabinetDomain(712).
cabinetDomain(713).
cabinetDomain(714).
cabinetDomain(715).
cabinetDomain(716).
cabinetDomain(717).
cabinetDomain(718).
cabinetDomain(719).
cabinetDomain(720).
cabinetDomain(721).
cabinetDomain(722).
cabinetDomain(723).
cabinetDomain(724).
cabinetDomain(725).
cabinetDomain(726).
cabinetDomain(727).
cabinetDomain(728).
cabinetDomain(729).
cabinetDomain(730).
cabinetDomain(731).
cabinetDomain(732).
cabinetDomain(733).
cabinetDomain(734).
cabinetDomain(735).
cabinetDomain(736).
cabinetDomain(737).
cabinetDomain(738).
cabinetDomain(739).
cabinetDomain(740).
cabinetDomain(741).
cabinetDomain(742).
cabinetDomain(743).
cabinetDomain(744).
cabinetDomain(745).
cabinetDomain(746).
cabinetDomain(747).
cabinetDomain(748).
cabinetDomain(749).
cabinetDomain(750).
cabinetDomain(751).
cabinetDomain(752).
cabinetDomain(753).
cabinetDomain(754).
cabinetDomain(755).
cabinetDomain(756).
cabinetDomain(757).
cabinetDomain(758).
cabinetDomain(759).
cabinetDomain(760).
cabinetDomain(761).
cabinetDomain(762).
cabinetDomain(763).
cabinetDomain(764).
cabinetDomain(765).
cabinetDomain(766).
cabinetDomain(767).
cabinetDomain(768).
cabinetDomain(769).
cabinetDomain(770).
cabinetDomain(771).
cabinetDomain(772).
cabinetDomain(773).
cabinetDomain(774).
cabinetDomain(775).
cabinetDomain(776).
cabinetDomain(777).
cabinetDomain(778).
cabinetDomain(779).
cabinetDomain(780).
cabinetDomain(781).
cabinetDomain(782).
cabinetDomain(783).
cabinetDomain(784).
cabinetDomain(785).
cabinetDomain(786).
cabinetDomain(787).
cabinetDomain(788).
cabinetDomain(789).
cabinetDomain(790).
cabinetDomain(791).
cabinetDomain(792).
cabinetDomain(793).
cabinetDomain(794).
cabinetDomain(795).
cabinetDomain(796).
cabinetDomain(797).
cabinetDomain(798).
cabinetDomain(799).
cabinetDomain(800).
cabinetDomain(801).
cabinetDomain(802).
cabinetDomain(803).
cabinetDomain(804).
cabinetDomain(805).
cabinetDomain(806).
cabinetDomain(807).
cabinetDomain(808).
cabinetDomain(809).
cabinetDomain(810).
cabinetDomain(811).
cabinetDomain(812).
cabinetDomain(813).
cabinetDomain(814).
cabinetDomain(815).
cabinetDomain(816).
cabinetDomain(817).
cabinetDomain(818).
cabinetDomain(819).
cabinetDomain(820).
cabinetDomain(821).
cabinetDomain(822).
cabinetDomain(823).
cabinetDomain(824).
cabinetDomain(825).
cabinetDomain(826).
cabinetDomain(827).
cabinetDomain(828).
cabinetDomain(829).
cabinetDomain(830).
cabinetDomain(831).
cabinetDomain(832).
cabinetDomain(833).
cabinetDomain(834).
cabinetDomain(835).
cabinetDomain(836).
cabinetDomain(837).
cabinetDomain(838).
cabinetDomain(839).
cabinetDomain(840).
cabinetDomain(841).
cabinetDomain(842).
cabinetDomain(843).
cabinetDomain(844).
cabinetDomain(845).
cabinetDomain(846).
cabinetDomain(847).
cabinetDomain(848).
cabinetDomain(849).
cabinetDomain(850).
cabinetDomain(851).
cabinetDomain(852).
cabinetDomain(853).
cabinetDomain(854).
cabinetDomain(855).
cabinetDomain(856).
cabinetDomain(857).
cabinetDomain(858).
cabinetDomain(859).
cabinetDomain(860).
cabinetDomain(861).
cabinetDomain(862).
cabinetDomain(863).
cabinetDomain(864).
cabinetDomain(865).
cabinetDomain(866).
cabinetDomain(867).
cabinetDomain(868).
cabinetDomain(869).
cabinetDomain(870).
cabinetDomain(871).
cabinetDomain(872).
cabinetDomain(873).
cabinetDomain(874).
cabinetDomain(875).
cabinetDomain(876).
cabinetDomain(877).
cabinetDomain(878).
cabinetDomain(879).
cabinetDomain(880).
cabinetDomain(881).
cabinetDomain(882).
cabinetDomain(883).
cabinetDomain(884).
cabinetDomain(885).
cabinetDomain(886).
cabinetDomain(887).
cabinetDomain(888).
cabinetDomain(889).
cabinetDomain(890).
cabinetDomain(891).
cabinetDomain(892).
cabinetDomain(893).
cabinetDomain(894).
cabinetDomain(895).
cabinetDomain(896).
cabinetDomain(897).
cabinetDomain(898).
cabinetDomain(899).
cabinetDomain(900).
cabinetDomain(901).
cabinetDomain(902).
cabinetDomain(903).
cabinetDomain(904).
cabinetDomain(905).
cabinetDomain(906).
cabinetDomain(907).
cabinetDomain(908).
cabinetDomain(909).
cabinetDomain(910).
cabinetDomain(911).
cabinetDomain(912).
cabinetDomain(913).
cabinetDomain(914).
cabinetDomain(915).
cabinetDomain(916).
cabinetDomain(917).
cabinetDomain(918).
cabinetDomain(919).
cabinetDomain(920).
cabinetDomain(921).
cabinetDomain(922).
cabinetDomain(923).
cabinetDomain(924).
cabinetDomain(925).
cabinetDomain(926).
cabinetDomain(927).
cabinetDomain(928).
cabinetDomain(929).
cabinetDomain(930).
cabinetDomain(931).
cabinetDomain(932).
cabinetDomain(933).
cabinetDomain(934).
cabinetDomain(935).
cabinetDomain(936).
cabinetDomain(937).
cabinetDomain(938).
cabinetDomain(939).
cabinetDomain(940).
cabinetDomain(941).
cabinetDomain(942).
cabinetDomain(943).
cabinetDomain(944).
cabinetDomain(945).
cabinetDomain(946).
cabinetDomain(947).
cabinetDomain(948).
cabinetDomain(949).
cabinetDomain(950).
cabinetDomain(951).
cabinetDomain(952).
cabinetDomain(953).
cabinetDomain(954).
cabinetDomain(955).
cabinetDomain(956).
cabinetDomain(957).
cabinetDomain(958).
cabinetDomain(959).
cabinetDomain(960).
cabinetDomain(961).
cabinetDomain(962).
cabinetDomain(963).
cabinetDomain(964).
cabinetDomain(965).
cabinetDomain(966).
cabinetDomain(967).
cabinetDomain(968).
cabinetDomain(969).
cabinetDomain(970).
cabinetDomain(971).
cabinetDomain(972).
cabinetDomain(973).
cabinetDomain(974).
cabinetDomain(975).
cabinetDomain(976).
cabinetDomain(977).
cabinetDomain(978).
cabinetDomain(979).
cabinetDomain(980).
cabinetDomain(981).
cabinetDomain(982).
cabinetDomain(983).
cabinetDomain(984).
cabinetDomain(985).
cabinetDomain(986).
cabinetDomain(987).
cabinetDomain(988).
cabinetDomain(989).
cabinetDomain(990).
cabinetDomain(991).
cabinetDomain(992).
cabinetDomain(993).
cabinetDomain(994).
cabinetDomain(995).
cabinetDomain(996).
cabinetDomain(997).
cabinetDomain(998).
cabinetDomain(999).
cabinetDomain(1000).
cabinetDomain(1001).
cabinetDomain(1002).
cabinetDomain(1003).
cabinetDomain(1004).
cabinetDomain(1005).
cabinetDomain(1006).
cabinetDomain(1007).
cabinetDomain(1008).
cabinetDomain(1009).
cabinetDomain(1010).
cabinetDomain(1011).
cabinetDomain(1012).
cabinetDomain(1013).
cabinetDomain(1014).
cabinetDomain(1015).
cabinetDomain(1016).
cabinetDomain(1017).
cabinetDomain(1018).
cabinetDomain(1019).
cabinetDomain(1020).
cabinetDomain(1021).
cabinetDomain(1022).
cabinetDomain(1023).
cabinetDomain(1024).
cabinetDomain(1025).
cabinetDomain(1026).
cabinetDomain(1027).
cabinetDomain(1028).
cabinetDomain(1029).
cabinetDomain(1030).
cabinetDomain(1031).
cabinetDomain(1032).
cabinetDomain(1033).
cabinetDomain(1034).
cabinetDomain(1035).
cabinetDomain(1036).
cabinetDomain(1037).
cabinetDomain(1038).
cabinetDomain(1039).
cabinetDomain(1040).
cabinetDomain(1041).
cabinetDomain(1042).
cabinetDomain(1043).
cabinetDomain(1044).
cabinetDomain(1045).
cabinetDomain(1046).
cabinetDomain(1047).
cabinetDomain(1048).
cabinetDomain(1049).
cabinetDomain(1050).
cabinetDomain(1051).
cabinetDomain(1052).
cabinetDomain(1053).
cabinetDomain(1054).
cabinetDomain(1055).
cabinetDomain(1056).
cabinetDomain(1057).
cabinetDomain(1058).
cabinetDomain(1059).
cabinetDomain(1060).
cabinetDomain(1061).
cabinetDomain(1062).
cabinetDomain(1063).
cabinetDomain(1064).
cabinetDomain(1065).
cabinetDomain(1066).
cabinetDomain(1067).
cabinetDomain(1068).
cabinetDomain(1069).
cabinetDomain(1070).
cabinetDomain(1071).
cabinetDomain(1072).
cabinetDomain(1073).
cabinetDomain(1074).
cabinetDomain(1075).
cabinetDomain(1076).
cabinetDomain(1077).
cabinetDomain(1078).
cabinetDomain(1079).
cabinetDomain(1080).
cabinetDomain(1081).
cabinetDomain(1082).
cabinetDomain(1083).
cabinetDomain(1084).
cabinetDomain(1085).
cabinetDomain(1086).
cabinetDomain(1087).
cabinetDomain(1088).
cabinetDomain(1089).
cabinetDomain(1090).
cabinetDomain(1091).
cabinetDomain(1092).
cabinetDomain(1093).
cabinetDomain(1094).
cabinetDomain(1095).
cabinetDomain(1096).
cabinetDomain(1097).
cabinetDomain(1098).
cabinetDomain(1099).
cabinetDomain(1100).
cabinetDomain(1101).
cabinetDomain(1102).
cabinetDomain(1103).
cabinetDomain(1104).
cabinetDomain(1105).
cabinetDomain(1106).
cabinetDomain(1107).
cabinetDomain(1108).
cabinetDomain(1109).
cabinetDomain(1110).
cabinetDomain(1111).
cabinetDomain(1112).
cabinetDomain(1113).
cabinetDomain(1114).
cabinetDomain(1115).
cabinetDomain(1116).
cabinetDomain(1117).
cabinetDomain(1118).
cabinetDomain(1119).
cabinetDomain(1120).
cabinetDomain(1121).
cabinetDomain(1122).
cabinetDomain(1123).
cabinetDomain(1124).
cabinetDomain(1125).
cabinetDomain(1126).
cabinetDomain(1127).
cabinetDomain(1128).
cabinetDomain(1129).
cabinetDomain(1130).
cabinetDomain(1131).
cabinetDomain(1132).
cabinetDomain(1133).
cabinetDomain(1134).
cabinetDomain(1135).
cabinetDomain(1136).
cabinetDomain(1137).
cabinetDomain(1138).
cabinetDomain(1139).
cabinetDomain(1140).
cabinetDomain(1141).
cabinetDomain(1142).
cabinetDomain(1143).
cabinetDomain(1144).
cabinetDomain(1145).
cabinetDomain(1146).
cabinetDomain(1147).
cabinetDomain(1148).
cabinetDomain(1149).
cabinetDomain(1150).
cabinetDomain(1151).
cabinetDomain(1152).
cabinetDomain(1153).
cabinetDomain(1154).
cabinetDomain(1155).
cabinetDomain(1156).
cabinetDomain(1157).
cabinetDomain(1158).
cabinetDomain(1159).
cabinetDomain(1160).
cabinetDomain(1161).
cabinetDomain(1162).
cabinetDomain(1163).
cabinetDomain(1164).
cabinetDomain(1165).
cabinetDomain(1166).
cabinetDomain(1167).
cabinetDomain(1168).
cabinetDomain(1169).
cabinetDomain(1170).
cabinetDomain(1171).
cabinetDomain(1172).
cabinetDomain(1173).
cabinetDomain(1174).
cabinetDomain(1175).
cabinetDomain(1176).
cabinetDomain(1177).
cabinetDomain(1178).
cabinetDomain(1179).
cabinetDomain(1180).
cabinetDomain(1181).
cabinetDomain(1182).
cabinetDomain(1183).
cabinetDomain(1184).
cabinetDomain(1185).
cabinetDomain(1186).
cabinetDomain(1187).
cabinetDomain(1188).
cabinetDomain(1189).
cabinetDomain(1190).
cabinetDomain(1191).
cabinetDomain(1192).
cabinetDomain(1193).
cabinetDomain(1194).
cabinetDomain(1195).
cabinetDomain(1196).
cabinetDomain(1197).
cabinetDomain(1198).
cabinetDomain(1199).
cabinetDomain(1200).
cabinetDomain(1201).
cabinetDomain(1202).
cabinetDomain(1203).
cabinetDomain(1204).
cabinetDomain(1205).
cabinetDomain(1206).
cabinetDomain(1207).
cabinetDomain(1208).
cabinetDomain(1209).
cabinetDomain(1210).
cabinetDomain(1211).
cabinetDomain(1212).
cabinetDomain(1213).
cabinetDomain(1214).
cabinetDomain(1215).
cabinetDomain(1216).
cabinetDomain(1217).
cabinetDomain(1218).
cabinetDomain(1219).
cabinetDomain(1220).
cabinetDomain(1221).
cabinetDomain(1222).
cabinetDomain(1223).
cabinetDomain(1224).
cabinetDomain(1225).
cabinetDomain(1226).
cabinetDomain(1227).
cabinetDomain(1228).
cabinetDomain(1229).
cabinetDomain(1230).
cabinetDomain(1231).
cabinetDomain(1232).
cabinetDomain(1233).
cabinetDomain(1234).
cabinetDomain(1235).
cabinetDomain(1236).
cabinetDomain(1237).
cabinetDomain(1238).
cabinetDomain(1239).
cabinetDomain(1240).
cabinetDomain(1241).
cabinetDomain(1242).
cabinetDomain(1243).
cabinetDomain(1244).
cabinetDomain(1245).
cabinetDomain(1246).
cabinetDomain(1247).
cabinetDomain(1248).
cabinetDomain(1249).
cabinetDomain(1250).
cabinetDomain(1251).
cabinetDomain(1252).
cabinetDomain(1253).
cabinetDomain(1254).
cabinetDomain(1255).
cabinetDomain(1256).
cabinetDomain(1257).
cabinetDomain(1258).
cabinetDomain(1259).
cabinetDomain(1260).
cabinetDomain(1261).
cabinetDomain(1262).
cabinetDomain(1263).
cabinetDomain(1264).
cabinetDomain(1265).
cabinetDomain(1266).
cabinetDomain(1267).
cabinetDomain(1268).
cabinetDomain(1269).
cabinetDomain(1270).
cabinetDomain(1271).
cabinetDomain(1272).
cabinetDomain(1273).
cabinetDomain(1274).
cabinetDomain(1275).
cabinetDomain(1276).
cabinetDomain(1277).
cabinetDomain(1278).
cabinetDomain(1279).
cabinetDomain(1280).
cabinetDomain(1281).
cabinetDomain(1282).
cabinetDomain(1283).
cabinetDomain(1284).
cabinetDomain(1285).
cabinetDomain(1286).
cabinetDomain(1287).
cabinetDomain(1288).
cabinetDomain(1289).
cabinetDomain(1290).
cabinetDomain(1291).
cabinetDomain(1292).
cabinetDomain(1293).
cabinetDomain(1294).
cabinetDomain(1295).
cabinetDomain(1296).
cabinetDomain(1297).
cabinetDomain(1298).
cabinetDomain(1299).
cabinetDomain(1300).
cabinetDomain(1301).
cabinetDomain(1302).
cabinetDomain(1303).
cabinetDomain(1304).
cabinetDomain(1305).
cabinetDomain(1306).
cabinetDomain(1307).
cabinetDomain(1308).
cabinetDomain(1309).
cabinetDomain(1310).
cabinetDomain(1311).
cabinetDomain(1312).
cabinetDomain(1313).
cabinetDomain(1314).
cabinetDomain(1315).
cabinetDomain(1316).
cabinetDomain(1317).
cabinetDomain(1318).
cabinetDomain(1319).
cabinetDomain(1320).
cabinetDomain(1321).
cabinetDomain(1322).
cabinetDomain(1323).
cabinetDomain(1324).
cabinetDomain(1325).
cabinetDomain(1326).
cabinetDomain(1327).
cabinetDomain(1328).
cabinetDomain(1329).
cabinetDomain(1330).
cabinetDomain(1331).
cabinetDomain(1332).
cabinetDomain(1333).
cabinetDomain(1334).
cabinetDomain(1335).
cabinetDomain(1336).
cabinetDomain(1337).
cabinetDomain(1338).
cabinetDomain(1339).
cabinetDomain(1340).
cabinetDomain(1341).
cabinetDomain(1342).
cabinetDomain(1343).
cabinetDomain(1344).
cabinetDomain(1345).
cabinetDomain(1346).
cabinetDomain(1347).
cabinetDomain(1348).
cabinetDomain(1349).
cabinetDomain(1350).
cabinetDomain(1351).
cabinetDomain(1352).
cabinetDomain(1353).
cabinetDomain(1354).
cabinetDomain(1355).
cabinetDomain(1356).
cabinetDomain(1357).
cabinetDomain(1358).
cabinetDomain(1359).
cabinetDomain(1360).
cabinetDomain(1361).
cabinetDomain(1362).
cabinetDomain(1363).
cabinetDomain(1364).
cabinetDomain(1365).
cabinetDomain(1366).
cabinetDomain(1367).
cabinetDomain(1368).
cabinetDomain(1369).
cabinetDomain(1370).
cabinetDomain(1371).
cabinetDomain(1372).
cabinetDomain(1373).
cabinetDomain(1374).
cabinetDomain(1375).
cabinetDomain(1376).
cabinetDomain(1377).
cabinetDomain(1378).
cabinetDomain(1379).
cabinetDomain(1380).
cabinetDomain(1381).
cabinetDomain(1382).
cabinetDomain(1383).
cabinetDomain(1384).
cabinetDomain(1385).
cabinetDomain(1386).
cabinetDomain(1387).
cabinetDomain(1388).
cabinetDomain(1389).
cabinetDomain(1390).
cabinetDomain(1391).
cabinetDomain(1392).
cabinetDomain(1393).
cabinetDomain(1394).
cabinetDomain(1395).
cabinetDomain(1396).
cabinetDomain(1397).
cabinetDomain(1398).
cabinetDomain(1399).
cabinetDomain(1400).
cabinetDomain(1401).
cabinetDomain(1402).
cabinetDomain(1403).
cabinetDomain(1404).
cabinetDomain(1405).
cabinetDomain(1406).
cabinetDomain(1407).
cabinetDomain(1408).
cabinetDomain(1409).
cabinetDomain(1410).
cabinetDomain(1411).
cabinetDomain(1412).
cabinetDomain(1413).
cabinetDomain(1414).
cabinetDomain(1415).
cabinetDomain(1416).
cabinetDomain(1417).
cabinetDomain(1418).
cabinetDomain(1419).
cabinetDomain(1420).
cabinetDomain(1421).
cabinetDomain(1422).
cabinetDomain(1423).
cabinetDomain(1424).
cabinetDomain(1425).
cabinetDomain(1426).
cabinetDomain(1427).
cabinetDomain(1428).
cabinetDomain(1429).
cabinetDomain(1430).
cabinetDomain(1431).
cabinetDomain(1432).
cabinetDomain(1433).
cabinetDomain(1434).
cabinetDomain(1435).
cabinetDomain(1436).
cabinetDomain(1437).
cabinetDomain(1438).
cabinetDomain(1439).
cabinetDomain(1440).
cabinetDomain(1441).
cabinetDomain(1442).
cabinetDomain(1443).
cabinetDomain(1444).
cabinetDomain(1445).
cabinetDomain(1446).
cabinetDomain(1447).
cabinetDomain(1448).
cabinetDomain(1449).
cabinetDomain(1450).
cabinetDomain(1451).
cabinetDomain(1452).
cabinetDomain(1453).
cabinetDomain(1454).
cabinetDomain(1455).
cabinetDomain(1456).
cabinetDomain(1457).
cabinetDomain(1458).
cabinetDomain(1459).
cabinetDomain(1460).
cabinetDomain(1461).
cabinetDomain(1462).
cabinetDomain(1463).
cabinetDomain(1464).
cabinetDomain(1465).
cabinetDomain(1466).
cabinetDomain(1467).
cabinetDomain(1468).
cabinetDomain(1469).
cabinetDomain(1470).
cabinetDomain(1471).
cabinetDomain(1472).
cabinetDomain(1473).
cabinetDomain(1474).
cabinetDomain(1475).
cabinetDomain(1476).
cabinetDomain(1477).
cabinetDomain(1478).
cabinetDomain(1479).
cabinetDomain(1480).
cabinetDomain(1481).
cabinetDomain(1482).
cabinetDomain(1483).
cabinetDomain(1484).
cabinetDomain(1485).
cabinetDomain(1486).
cabinetDomain(1487).
cabinetDomain(1488).
cabinetDomain(1489).
cabinetDomain(1490).
cabinetDomain(1491).
cabinetDomain(1492).
cabinetDomain(1493).
cabinetDomain(1494).
cabinetDomain(1495).
cabinetDomain(1496).
cabinetDomain(1497).
cabinetDomain(1498).
cabinetDomain(1499).
cabinetDomain(1500).
cabinetDomain(1501).
cabinetDomain(1502).
cabinetDomain(1503).
cabinetDomain(1504).
cabinetDomain(1505).
cabinetDomain(1506).
cabinetDomain(1507).
cabinetDomain(1508).
cabinetDomain(1509).
cabinetDomain(1510).
cabinetDomain(1511).
cabinetDomain(1512).
cabinetDomain(1513).
cabinetDomain(1514).
cabinetDomain(1515).
cabinetDomain(1516).
cabinetDomain(1517).
cabinetDomain(1518).
cabinetDomain(1519).
cabinetDomain(1520).
cabinetDomain(1521).
cabinetDomain(1522).
cabinetDomain(1523).
cabinetDomain(1524).
cabinetDomain(1525).
cabinetDomain(1526).
cabinetDomain(1527).
cabinetDomain(1528).
cabinetDomain(1529).
cabinetDomain(1530).
cabinetDomain(1531).
cabinetDomain(1532).
cabinetDomain(1533).
cabinetDomain(1534).
cabinetDomain(1535).
cabinetDomain(1536).
cabinetDomain(1537).
cabinetDomain(1538).
cabinetDomain(1539).
cabinetDomain(1540).
cabinetDomain(1541).
cabinetDomain(1542).
cabinetDomain(1543).
cabinetDomain(1544).
cabinetDomain(1545).
cabinetDomain(1546).
cabinetDomain(1547).
cabinetDomain(1548).
cabinetDomain(1549).
cabinetDomain(1550).
cabinetDomain(1551).
cabinetDomain(1552).
cabinetDomain(1553).
cabinetDomain(1554).
cabinetDomain(1555).
cabinetDomain(1556).
cabinetDomain(1557).
cabinetDomain(1558).
cabinetDomain(1559).
cabinetDomain(1560).
cabinetDomain(1561).
cabinetDomain(1562).
cabinetDomain(1563).
cabinetDomain(1564).
cabinetDomain(1565).
cabinetDomain(1566).
cabinetDomain(1567).
cabinetDomain(1568).
cabinetDomain(1569).
cabinetDomain(1570).
cabinetDomain(1571).
cabinetDomain(1572).
cabinetDomain(1573).
cabinetDomain(1574).
cabinetDomain(1575).
cabinetDomain(1576).
cabinetDomain(1577).
cabinetDomain(1578).
cabinetDomain(1579).
cabinetDomain(1580).
cabinetDomain(1581).
cabinetDomain(1582).
cabinetDomain(1583).
cabinetDomain(1584).
cabinetDomain(1585).
cabinetDomain(1586).
cabinetDomain(1587).
cabinetDomain(1588).
cabinetDomain(1589).
cabinetDomain(1590).
cabinetDomain(1591).
cabinetDomain(1592).
cabinetDomain(1593).
cabinetDomain(1594).
cabinetDomain(1595).
cabinetDomain(1596).
cabinetDomain(1597).
cabinetDomain(1598).
cabinetDomain(1599).
cabinetDomain(1600).
roomDomain(1).
roomDomain(2).
roomDomain(3).
roomDomain(4).
roomDomain(5).
roomDomain(6).
roomDomain(7).
roomDomain(8).
roomDomain(9).
roomDomain(10).
roomDomain(11).
roomDomain(12).
roomDomain(13).
roomDomain(14).
roomDomain(15).
roomDomain(16).
roomDomain(17).
roomDomain(18).
roomDomain(19).
roomDomain(20).
roomDomain(21).
roomDomain(22).
roomDomain(23).
roomDomain(24).
roomDomain(25).
roomDomain(26).
roomDomain(27).
roomDomain(28).
roomDomain(29).
roomDomain(30).
roomDomain(31).
roomDomain(32).
roomDomain(33).
roomDomain(34).
roomDomain(35).
roomDomain(36).
roomDomain(37).
roomDomain(38).
roomDomain(39).
roomDomain(40).
roomDomain(41).
roomDomain(42).
roomDomain(43).
roomDomain(44).
roomDomain(45).
roomDomain(46).
roomDomain(47).
roomDomain(48).
roomDomain(49).
roomDomain(50).
roomDomain(51).
roomDomain(52).
roomDomain(53).
roomDomain(54).
roomDomain(55).
roomDomain(56).
roomDomain(57).
roomDomain(58).
roomDomain(59).
roomDomain(60).
roomDomain(61).
roomDomain(62).
roomDomain(63).
roomDomain(64).
roomDomain(65).
roomDomain(66).
roomDomain(67).
roomDomain(68).
roomDomain(69).
roomDomain(70).
roomDomain(71).
roomDomain(72).
roomDomain(73).
roomDomain(74).
roomDomain(75).
roomDomain(76).
roomDomain(77).
roomDomain(78).
roomDomain(79).
roomDomain(80).
roomDomain(81).
roomDomain(82).
roomDomain(83).
roomDomain(84).
roomDomain(85).
roomDomain(86).
roomDomain(87).
roomDomain(88).
roomDomain(89).
roomDomain(90).
roomDomain(91).
roomDomain(92).
roomDomain(93).
roomDomain(94).
roomDomain(95).
roomDomain(96).
roomDomain(97).
roomDomain(98).
roomDomain(99).
roomDomain(100).
roomDomain(101).
roomDomain(102).
roomDomain(103).
roomDomain(104).
roomDomain(105).
roomDomain(106).
roomDomain(107).
roomDomain(108).
roomDomain(109).
roomDomain(110).
roomDomain(111).
roomDomain(112).
roomDomain(113).
roomDomain(114).
roomDomain(115).
roomDomain(116).
roomDomain(117).
roomDomain(118).
roomDomain(119).
roomDomain(120).
roomDomain(121).
roomDomain(122).
roomDomain(123).
roomDomain(124).
roomDomain(125).
roomDomain(126).
roomDomain(127).
roomDomain(128).
roomDomain(129).
roomDomain(130).
roomDomain(131).
roomDomain(132).
roomDomain(133).
roomDomain(134).
roomDomain(135).
roomDomain(136).
roomDomain(137).
roomDomain(138).
roomDomain(139).
roomDomain(140).
roomDomain(141).
roomDomain(142).
roomDomain(143).
roomDomain(144).
roomDomain(145).
roomDomain(146).
roomDomain(147).
roomDomain(148).
roomDomain(149).
roomDomain(150).
roomDomain(151).
roomDomain(152).
roomDomain(153).
roomDomain(154).
roomDomain(155).
roomDomain(156).
roomDomain(157).
roomDomain(158).
roomDomain(159).
roomDomain(160).
roomDomain(161).
roomDomain(162).
roomDomain(163).
roomDomain(164).
roomDomain(165).
roomDomain(166).
roomDomain(167).
roomDomain(168).
roomDomain(169).
roomDomain(170).
roomDomain(171).
roomDomain(172).
roomDomain(173).
roomDomain(174).
roomDomain(175).
roomDomain(176).
roomDomain(177).
roomDomain(178).
roomDomain(179).
roomDomain(180).
roomDomain(181).
roomDomain(182).
roomDomain(183).
roomDomain(184).
roomDomain(185).
roomDomain(186).
roomDomain(187).
roomDomain(188).
roomDomain(189).
roomDomain(190).
roomDomain(191).
roomDomain(192).
roomDomain(193).
roomDomain(194).
roomDomain(195).
roomDomain(196).
roomDomain(197).
roomDomain(198).
roomDomain(199).
roomDomain(200).
roomDomain(201).
roomDomain(202).
roomDomain(203).
roomDomain(204).
roomDomain(205).
roomDomain(206).
roomDomain(207).
roomDomain(208).
roomDomain(209).
roomDomain(210).
roomDomain(211).
roomDomain(212).
roomDomain(213).
roomDomain(214).
roomDomain(215).
roomDomain(216).
roomDomain(217).
roomDomain(218).
roomDomain(219).
roomDomain(220).
roomDomain(221).
roomDomain(222).
roomDomain(223).
roomDomain(224).
roomDomain(225).
roomDomain(226).
roomDomain(227).
roomDomain(228).
roomDomain(229).
roomDomain(230).
roomDomain(231).
roomDomain(232).
roomDomain(233).
roomDomain(234).
roomDomain(235).
roomDomain(236).
roomDomain(237).
roomDomain(238).
roomDomain(239).
roomDomain(240).
roomDomain(241).
roomDomain(242).
roomDomain(243).
roomDomain(244).
roomDomain(245).
roomDomain(246).
roomDomain(247).
roomDomain(248).
roomDomain(249).
roomDomain(250).
roomDomain(251).
roomDomain(252).
roomDomain(253).
roomDomain(254).
roomDomain(255).
roomDomain(256).
roomDomain(257).
roomDomain(258).
roomDomain(259).
roomDomain(260).
roomDomain(261).
roomDomain(262).
roomDomain(263).
roomDomain(264).
roomDomain(265).
roomDomain(266).
roomDomain(267).
roomDomain(268).
roomDomain(269).
roomDomain(270).
roomDomain(271).
roomDomain(272).
roomDomain(273).
roomDomain(274).
roomDomain(275).
roomDomain(276).
roomDomain(277).
roomDomain(278).
roomDomain(279).
roomDomain(280).
roomDomain(281).
roomDomain(282).
roomDomain(283).
roomDomain(284).
roomDomain(285).
roomDomain(286).
roomDomain(287).
roomDomain(288).
roomDomain(289).
roomDomain(290).
roomDomain(291).
roomDomain(292).
roomDomain(293).
roomDomain(294).
roomDomain(295).
roomDomain(296).
roomDomain(297).
roomDomain(298).
roomDomain(299).
roomDomain(300).
roomDomain(301).
roomDomain(302).
roomDomain(303).
roomDomain(304).
roomDomain(305).
roomDomain(306).
roomDomain(307).
roomDomain(308).
roomDomain(309).
roomDomain(310).
roomDomain(311).
roomDomain(312).
roomDomain(313).
roomDomain(314).
roomDomain(315).
roomDomain(316).
roomDomain(317).
roomDomain(318).
roomDomain(319).
roomDomain(320).
roomDomain(321).
roomDomain(322).
roomDomain(323).
roomDomain(324).
roomDomain(325).
roomDomain(326).
roomDomain(327).
roomDomain(328).
roomDomain(329).
roomDomain(330).
roomDomain(331).
roomDomain(332).
roomDomain(333).
roomDomain(334).
roomDomain(335).
roomDomain(336).
roomDomain(337).
roomDomain(338).
roomDomain(339).
roomDomain(340).
roomDomain(341).
roomDomain(342).
roomDomain(343).
roomDomain(344).
roomDomain(345).
roomDomain(346).
roomDomain(347).
roomDomain(348).
roomDomain(349).
roomDomain(350).
roomDomain(351).
roomDomain(352).
roomDomain(353).
roomDomain(354).
roomDomain(355).
roomDomain(356).
roomDomain(357).
roomDomain(358).
roomDomain(359).
roomDomain(360).
roomDomain(361).
roomDomain(362).
roomDomain(363).
roomDomain(364).
roomDomain(365).
roomDomain(366).
roomDomain(367).
roomDomain(368).
roomDomain(369).
roomDomain(370).
roomDomain(371).
roomDomain(372).
roomDomain(373).
roomDomain(374).
roomDomain(375).
roomDomain(376).
roomDomain(377).
roomDomain(378).
roomDomain(379).
roomDomain(380).
roomDomain(381).
roomDomain(382).
roomDomain(383).
roomDomain(384).
roomDomain(385).
roomDomain(386).
roomDomain(387).
roomDomain(388).
roomDomain(389).
roomDomain(390).
roomDomain(391).
roomDomain(392).
roomDomain(393).
roomDomain(394).
roomDomain(395).
roomDomain(396).
roomDomain(397).
roomDomain(398).
roomDomain(399).
roomDomain(400).
