person(1).
person(2).
person(3).
person(4).
person(5).
thing(1).
thing(4).
thing(5).
thing(6).
thing(7).
thing(8).
thing(9).
thing(10).
thing(12).
thing(16).
thing(17).
thing(19).
thing(20).
thing(21).
thing(22).
thing(23).
thing(24).
thing(28).
thing(29).
thing(30).
thing(31).
thing(32).
thing(33).
thing(34).
thing(35).
thing(36).
personTOthing(1,19).
personTOthing(1,20).
personTOthing(1,21).
personTOthing(1,22).
personTOthing(1,23).
personTOthing(1,24).
personTOthing(2,5).
personTOthing(2,6).
personTOthing(2,7).
personTOthing(2,8).
personTOthing(2,9).
personTOthing(2,10).
personTOthing(3,28).
personTOthing(3,29).
personTOthing(3,30).
personTOthing(3,31).
personTOthing(3,32).
personTOthing(3,33).
personTOthing(3,34).
personTOthing(3,35).
personTOthing(3,36).
personTOthing(4,1).
personTOthing(4,4).
personTOthing(4,12).
personTOthing(5,16).
personTOthing(5,17).
cabinetDomain(1).
cabinetDomain(2).
cabinetDomain(3).
cabinetDomain(4).
cabinetDomain(5).
cabinetDomain(6).
cabinetDomain(7).
cabinetDomain(8).
cabinetDomain(9).
cabinetDomain(10).
cabinetDomain(11).
cabinetDomain(12).
cabinetDomain(13).
cabinetDomain(14).
cabinetDomain(15).
cabinetDomain(16).
cabinetDomain(17).
cabinetDomain(18).
cabinetDomain(19).
cabinetDomain(20).
roomDomain(1).
roomDomain(2).
roomDomain(3).
roomDomain(4).
roomDomain(5).
