person(1).
person(2).
person(3).
person(4).
person(5).
person(6).
person(7).
person(8).
person(9).
person(10).
person(11).
person(12).
person(13).
person(14).
person(15).
person(16).
person(17).
person(18).
person(19).
person(20).
person(21).
person(22).
person(23).
person(24).
person(25).
person(26).
person(27).
person(28).
person(29).
person(30).
person(31).
person(32).
person(33).
person(34).
person(35).
person(36).
person(37).
person(38).
person(39).
person(40).
person(41).
person(42).
person(43).
person(44).
person(45).
person(46).
person(47).
person(48).
person(49).
person(50).
person(51).
person(52).
person(53).
person(54).
person(55).
person(56).
person(57).
person(58).
person(59).
person(60).
person(61).
person(62).
person(63).
person(64).
person(65).
person(66).
person(67).
person(68).
person(69).
person(70).
person(71).
person(72).
person(73).
person(74).
person(75).
person(76).
person(77).
person(78).
person(79).
person(80).
person(81).
person(82).
person(83).
person(84).
person(85).
person(86).
person(87).
person(88).
person(89).
person(90).
person(91).
person(92).
person(93).
person(94).
person(95).
person(96).
person(97).
person(98).
person(99).
person(100).
person(101).
person(102).
person(103).
person(104).
person(105).
person(106).
person(107).
person(108).
person(109).
person(110).
person(111).
person(112).
person(113).
person(114).
person(115).
person(116).
person(117).
person(118).
person(119).
person(120).
person(121).
person(122).
person(123).
person(124).
person(125).
person(126).
person(127).
person(128).
person(129).
person(130).
person(131).
person(132).
person(133).
person(134).
person(135).
person(136).
person(137).
person(138).
person(139).
person(140).
person(141).
person(142).
person(143).
person(144).
person(145).
person(146).
person(147).
person(148).
person(149).
person(150).
person(151).
person(152).
person(153).
person(154).
person(155).
person(156).
person(157).
person(158).
person(159).
person(160).
person(161).
person(162).
person(163).
person(164).
person(165).
person(166).
person(167).
person(168).
person(169).
person(170).
person(171).
person(172).
person(173).
person(174).
person(175).
person(176).
person(177).
person(178).
person(179).
person(180).
person(181).
person(182).
person(183).
person(184).
person(185).
person(186).
person(187).
person(188).
person(189).
person(190).
person(191).
person(192).
person(193).
person(194).
person(195).
person(196).
person(197).
person(198).
person(199).
person(200).
thing(1).
thing(2).
thing(5).
thing(6).
thing(7).
thing(8).
thing(9).
thing(10).
thing(11).
thing(12).
thing(15).
thing(18).
thing(19).
thing(20).
thing(21).
thing(22).
thing(23).
thing(24).
thing(25).
thing(26).
thing(27).
thing(30).
thing(33).
thing(36).
thing(37).
thing(38).
thing(39).
thing(40).
thing(41).
thing(42).
thing(46).
thing(49).
thing(50).
thing(51).
thing(52).
thing(54).
thing(55).
thing(56).
thing(57).
thing(58).
thing(59).
thing(60).
thing(61).
thing(62).
thing(63).
thing(64).
thing(65).
thing(66).
thing(67).
thing(68).
thing(69).
thing(71).
thing(72).
thing(73).
thing(74).
thing(75).
thing(76).
thing(77).
thing(78).
thing(82).
thing(83).
thing(84).
thing(86).
thing(87).
thing(88).
thing(89).
thing(93).
thing(94).
thing(98).
thing(99).
thing(100).
thing(101).
thing(102).
thing(103).
thing(104).
thing(105).
thing(106).
thing(107).
thing(109).
thing(110).
thing(111).
thing(112).
thing(113).
thing(114).
thing(118).
thing(119).
thing(120).
thing(121).
thing(123).
thing(124).
thing(125).
thing(126).
thing(127).
thing(128).
thing(132).
thing(133).
thing(134).
thing(135).
thing(136).
thing(137).
thing(138).
thing(139).
thing(140).
thing(142).
thing(143).
thing(144).
thing(145).
thing(146).
thing(147).
thing(148).
thing(149).
thing(150).
thing(151).
thing(155).
thing(156).
thing(157).
thing(160).
thing(161).
thing(162).
thing(163).
thing(164).
thing(165).
thing(169).
thing(170).
thing(171).
thing(172).
thing(173).
thing(177).
thing(178).
thing(179).
thing(180).
thing(181).
thing(182).
thing(185).
thing(187).
thing(188).
thing(189).
thing(190).
thing(194).
thing(196).
thing(197).
thing(198).
thing(199).
thing(200).
thing(203).
thing(204).
thing(207).
thing(208).
thing(209).
thing(211).
thing(212).
thing(213).
thing(214).
thing(217).
thing(219).
thing(220).
thing(221).
thing(222).
thing(223).
thing(224).
thing(225).
thing(227).
thing(231).
thing(232).
thing(233).
thing(234).
thing(235).
thing(236).
thing(237).
thing(239).
thing(240).
thing(241).
thing(242).
thing(243).
thing(244).
thing(245).
thing(248).
thing(249).
thing(250).
thing(253).
thing(254).
thing(255).
thing(258).
thing(259).
thing(260).
thing(261).
thing(262).
thing(263).
thing(266).
thing(267).
thing(270).
thing(273).
thing(274).
thing(275).
thing(276).
thing(277).
thing(278).
thing(279).
thing(280).
thing(281).
thing(282).
thing(283).
thing(284).
thing(285).
thing(286).
thing(287).
thing(288).
thing(289).
thing(290).
thing(293).
thing(294).
thing(295).
thing(298).
thing(301).
thing(302).
thing(303).
thing(304).
thing(305).
thing(306).
thing(307).
thing(308).
thing(309).
thing(311).
thing(312).
thing(313).
thing(314).
thing(315).
thing(318).
thing(319).
thing(320).
thing(321).
thing(322).
thing(323).
thing(324).
thing(325).
thing(326).
thing(327).
thing(329).
thing(330).
thing(334).
thing(338).
thing(339).
thing(340).
thing(341).
thing(342).
thing(344).
thing(346).
thing(347).
thing(348).
thing(349).
thing(350).
thing(351).
thing(353).
thing(354).
thing(355).
thing(357).
thing(358).
thing(359).
thing(360).
thing(361).
thing(363).
thing(364).
thing(365).
thing(366).
thing(367).
thing(368).
thing(369).
thing(370).
thing(371).
thing(372).
thing(375).
thing(376).
thing(378).
thing(379).
thing(380).
thing(381).
thing(382).
thing(383).
thing(384).
thing(386).
thing(387).
thing(388).
thing(389).
thing(391).
thing(393).
thing(394).
thing(395).
thing(396).
thing(397).
thing(398).
thing(399).
thing(400).
thing(403).
thing(404).
thing(408).
thing(409).
thing(410).
thing(411).
thing(414).
thing(415).
thing(416).
thing(417).
thing(418).
thing(419).
thing(420).
thing(421).
thing(422).
thing(423).
thing(424).
thing(425).
thing(426).
thing(427).
thing(428).
thing(429).
thing(433).
thing(434).
thing(435).
thing(438).
thing(439).
thing(440).
thing(441).
thing(442).
thing(444).
thing(445).
thing(446).
thing(447).
thing(448).
thing(449).
thing(450).
thing(454).
thing(455).
thing(456).
thing(459).
thing(460).
thing(461).
thing(462).
thing(464).
thing(465).
thing(466).
thing(467).
thing(468).
thing(469).
thing(470).
thing(471).
thing(474).
thing(475).
thing(476).
thing(477).
thing(478).
thing(479).
thing(480).
thing(483).
thing(484).
thing(485).
thing(486).
thing(487).
thing(488).
thing(492).
thing(493).
thing(494).
thing(495).
thing(496).
thing(497).
thing(498).
thing(499).
thing(501).
thing(502).
thing(503).
thing(506).
thing(507).
thing(508).
thing(509).
thing(510).
thing(512).
thing(515).
thing(516).
thing(519).
thing(521).
thing(522).
thing(523).
thing(524).
thing(525).
thing(526).
thing(527).
thing(528).
thing(529).
thing(530).
thing(533).
thing(537).
thing(538).
thing(539).
thing(540).
thing(541).
thing(542).
thing(543).
thing(544).
thing(545).
thing(546).
thing(549).
thing(550).
thing(552).
thing(553).
thing(554).
thing(555).
thing(556).
thing(557).
thing(558).
thing(559).
thing(560).
thing(561).
thing(562).
thing(563).
thing(564).
thing(565).
thing(566).
thing(567).
thing(571).
thing(572).
thing(576).
thing(577).
thing(580).
thing(581).
thing(582).
thing(584).
thing(588).
thing(589).
thing(590).
thing(591).
thing(592).
thing(593).
thing(594).
thing(595).
thing(596).
thing(597).
thing(601).
thing(602).
thing(603).
thing(604).
thing(605).
thing(609).
thing(610).
thing(611).
thing(612).
thing(613).
thing(614).
thing(615).
thing(616).
thing(617).
thing(618).
thing(619).
thing(620).
thing(623).
thing(624).
thing(625).
thing(627).
thing(628).
thing(629).
thing(632).
thing(633).
thing(634).
thing(635).
thing(636).
thing(637).
thing(639).
thing(640).
thing(641).
thing(642).
thing(643).
thing(646).
thing(647).
thing(648).
thing(649).
thing(650).
thing(651).
thing(654).
thing(655).
thing(656).
thing(660).
thing(661).
thing(662).
thing(663).
thing(664).
thing(665).
thing(666).
thing(667).
thing(668).
thing(669).
thing(670).
thing(671).
thing(672).
thing(673).
thing(674).
thing(675).
thing(676).
thing(677).
thing(679).
thing(680).
thing(681).
thing(682).
thing(683).
thing(684).
thing(685).
thing(686).
thing(687).
thing(688).
thing(689).
thing(690).
thing(691).
thing(692).
thing(693).
thing(694).
thing(698).
thing(699).
thing(700).
thing(701).
thing(702).
thing(703).
thing(704).
thing(705).
thing(706).
thing(707).
thing(711).
thing(712).
thing(713).
thing(714).
thing(718).
thing(719).
thing(720).
thing(721).
thing(722).
thing(723).
thing(724).
thing(725).
thing(729).
thing(730).
thing(731).
thing(732).
thing(733).
thing(734).
thing(735).
thing(736).
thing(737).
thing(738).
thing(739).
thing(740).
thing(743).
thing(744).
thing(745).
thing(748).
thing(752).
thing(753).
thing(756).
thing(757).
thing(758).
thing(759).
thing(760).
thing(761).
thing(762).
thing(763).
thing(764).
thing(765).
thing(769).
thing(770).
thing(771).
thing(772).
thing(773).
thing(774).
thing(775).
thing(776).
thing(777).
thing(780).
thing(781).
thing(782).
thing(783).
thing(786).
thing(787).
thing(788).
thing(789).
thing(790).
thing(794).
thing(795).
thing(796).
thing(797).
thing(799).
thing(800).
thing(801).
thing(802).
thing(803).
thing(806).
thing(807).
thing(808).
thing(811).
thing(813).
thing(814).
thing(815).
thing(816).
thing(817).
thing(818).
thing(819).
thing(820).
thing(821).
thing(822).
thing(823).
thing(824).
thing(825).
thing(826).
thing(827).
thing(828).
thing(829).
thing(830).
thing(831).
thing(832).
thing(833).
thing(834).
thing(835).
thing(836).
thing(837).
thing(838).
thing(839).
thing(843).
thing(846).
thing(847).
thing(848).
thing(849).
thing(850).
thing(851).
thing(852).
thing(853).
thing(854).
thing(855).
thing(856).
thing(857).
thing(858).
thing(860).
thing(862).
thing(863).
thing(864).
thing(865).
thing(867).
thing(868).
thing(869).
thing(870).
thing(871).
thing(872).
thing(873).
thing(874).
thing(875).
thing(876).
thing(880).
thing(881).
thing(882).
thing(883).
thing(884).
thing(885).
thing(886).
thing(887).
thing(888).
thing(890).
thing(891).
thing(894).
thing(896).
thing(897).
thing(898).
thing(899).
thing(900).
thing(901).
thing(902).
thing(903).
thing(904).
thing(905).
thing(909).
thing(910).
thing(911).
thing(912).
thing(913).
thing(914).
thing(915).
thing(916).
thing(920).
thing(921).
thing(922).
thing(923).
thing(924).
thing(925).
thing(926).
thing(929).
thing(930).
thing(934).
thing(935).
thing(936).
thing(937).
thing(938).
thing(942).
thing(943).
thing(946).
thing(949).
thing(950).
thing(953).
thing(954).
thing(955).
thing(956).
thing(957).
thing(958).
thing(959).
thing(960).
thing(962).
thing(963).
thing(964).
thing(965).
thing(966).
thing(967).
thing(968).
thing(969).
thing(972).
thing(973).
thing(974).
thing(975).
thing(976).
thing(977).
thing(978).
thing(982).
thing(983).
thing(984).
thing(985).
thing(987).
thing(988).
thing(989).
thing(990).
thing(991).
thing(992).
thing(993).
thing(994).
thing(998).
thing(999).
thing(1002).
thing(1003).
thing(1007).
thing(1008).
thing(1009).
thing(1010).
thing(1011).
thing(1013).
thing(1014).
thing(1015).
thing(1016).
thing(1017).
thing(1018).
thing(1021).
thing(1022).
thing(1023).
thing(1024).
thing(1025).
thing(1026).
thing(1027).
thing(1028).
thing(1029).
thing(1030).
thing(1034).
thing(1038).
thing(1039).
thing(1040).
thing(1041).
thing(1042).
thing(1043).
thing(1044).
thing(1045).
thing(1046).
thing(1047).
thing(1048).
thing(1049).
thing(1053).
thing(1054).
thing(1055).
thing(1056).
thing(1057).
thing(1058).
thing(1060).
thing(1061).
thing(1062).
thing(1063).
thing(1064).
thing(1065).
thing(1066).
thing(1070).
thing(1071).
thing(1075).
thing(1077).
thing(1078).
thing(1079).
thing(1080).
thing(1084).
thing(1085).
thing(1086).
thing(1087).
thing(1088).
thing(1089).
thing(1090).
thing(1091).
thing(1092).
thing(1093).
thing(1094).
thing(1095).
thing(1099).
thing(1100).
thing(1101).
thing(1102).
thing(1103).
thing(1104).
thing(1105).
thing(1108).
thing(1111).
thing(1112).
thing(1113).
thing(1114).
thing(1115).
thing(1116).
thing(1119).
thing(1120).
thing(1121).
thing(1122).
thing(1123).
thing(1124).
thing(1125).
thing(1126).
thing(1127).
thing(1128).
thing(1129).
thing(1133).
thing(1134).
thing(1136).
thing(1137).
thing(1138).
thing(1139).
thing(1140).
thing(1141).
thing(1142).
thing(1143).
thing(1144).
thing(1145).
thing(1149).
thing(1153).
thing(1154).
thing(1155).
thing(1156).
thing(1157).
thing(1158).
thing(1159).
thing(1160).
thing(1161).
thing(1162).
thing(1165).
thing(1166).
thing(1167).
thing(1168).
thing(1169).
thing(1170).
thing(1171).
thing(1172).
thing(1173).
thing(1174).
thing(1175).
thing(1176).
thing(1177).
thing(1178).
thing(1179).
thing(1180).
thing(1181).
thing(1182).
thing(1183).
thing(1184).
thing(1185).
thing(1189).
thing(1190).
thing(1191).
thing(1193).
thing(1195).
thing(1196).
thing(1198).
thing(1199).
thing(1200).
thing(1204).
thing(1205).
thing(1206).
thing(1209).
thing(1210).
thing(1211).
thing(1212).
thing(1213).
thing(1216).
thing(1220).
thing(1221).
thing(1222).
thing(1223).
thing(1224).
thing(1225).
thing(1226).
thing(1228).
thing(1231).
thing(1232).
thing(1233).
thing(1234).
thing(1238).
thing(1239).
thing(1240).
thing(1241).
thing(1242).
thing(1243).
thing(1244).
thing(1246).
thing(1247).
thing(1248).
thing(1249).
thing(1250).
thing(1251).
thing(1252).
thing(1253).
thing(1254).
thing(1255).
thing(1257).
thing(1261).
thing(1262).
thing(1264).
thing(1267).
thing(1268).
thing(1269).
thing(1270).
thing(1271).
thing(1272).
thing(1273).
thing(1276).
thing(1280).
thing(1281).
thing(1282).
thing(1285).
thing(1286).
thing(1287).
thing(1288).
thing(1289).
thing(1290).
thing(1291).
thing(1292).
thing(1293).
thing(1294).
thing(1295).
thing(1296).
thing(1300).
thing(1301).
thing(1303).
thing(1304).
thing(1305).
thing(1306).
thing(1307).
thing(1308).
thing(1309).
thing(1313).
thing(1314).
thing(1315).
thing(1316).
thing(1317).
thing(1318).
thing(1319).
thing(1320).
thing(1321).
thing(1322).
thing(1326).
thing(1327).
thing(1328).
thing(1329).
thing(1330).
thing(1331).
thing(1332).
thing(1333).
thing(1337).
thing(1338).
thing(1339).
thing(1340).
thing(1341).
thing(1342).
thing(1343).
thing(1347).
thing(1348).
thing(1349).
thing(1352).
thing(1354).
thing(1355).
thing(1356).
thing(1357).
thing(1358).
thing(1359).
thing(1360).
thing(1361).
thing(1364).
thing(1365).
thing(1366).
thing(1367).
thing(1368).
thing(1369).
thing(1370).
thing(1371).
thing(1372).
thing(1373).
thing(1374).
thing(1378).
thing(1379).
thing(1380).
thing(1381).
thing(1382).
thing(1383).
thing(1384).
thing(1385).
thing(1386).
thing(1388).
thing(1389).
thing(1390).
thing(1391).
thing(1392).
thing(1393).
thing(1394).
thing(1395).
thing(1396).
thing(1397).
thing(1398).
thing(1399).
thing(1400).
thing(1401).
thing(1402).
thing(1403).
thing(1404).
thing(1405).
thing(1409).
thing(1410).
thing(1412).
thing(1413).
thing(1414).
thing(1415).
thing(1416).
thing(1417).
thing(1418).
thing(1419).
thing(1420).
thing(1422).
thing(1423).
thing(1424).
thing(1425).
thing(1426).
thing(1427).
thing(1428).
thing(1429).
thing(1430).
thing(1433).
thing(1435).
thing(1436).
thing(1437).
thing(1439).
thing(1440).
thing(1441).
thing(1442).
thing(1443).
thing(1444).
thing(1445).
thing(1446).
thing(1447).
thing(1448).
thing(1452).
thing(1455).
thing(1456).
thing(1457).
thing(1458).
thing(1459).
thing(1460).
thing(1461).
thing(1462).
thing(1463).
thing(1464).
thing(1468).
thing(1469).
thing(1470).
thing(1472).
thing(1473).
thing(1474).
thing(1475).
thing(1476).
thing(1477).
thing(1478).
thing(1479).
thing(1480).
thing(1481).
thing(1482).
thing(1484).
thing(1485).
thing(1486).
thing(1487).
thing(1489).
thing(1490).
thing(1491).
thing(1492).
thing(1493).
thing(1494).
thing(1496).
thing(1497).
thing(1498).
thing(1500).
thing(1501).
thing(1502).
thing(1503).
thing(1504).
thing(1505).
thing(1506).
thing(1508).
thing(1509).
thing(1510).
thing(1511).
thing(1512).
thing(1513).
thing(1514).
thing(1515).
thing(1516).
thing(1517).
thing(1518).
thing(1519).
thing(1520).
thing(1521).
thing(1522).
thing(1523).
thing(1524).
thing(1525).
thing(1526).
thing(1530).
thing(1531).
thing(1533).
thing(1534).
thing(1535).
thing(1536).
thing(1537).
thing(1538).
thing(1539).
thing(1542).
thing(1543).
thing(1544).
thing(1545).
thing(1546).
thing(1547).
thing(1548).
thing(1549).
thing(1550).
thing(1554).
thing(1555).
thing(1557).
thing(1558).
thing(1559).
thing(1560).
thing(1561).
thing(1565).
thing(1569).
thing(1570).
thing(1571).
thing(1572).
thing(1573).
thing(1574).
thing(1575).
thing(1576).
thing(1577).
thing(1578).
thing(1579).
thing(1580).
thing(1581).
thing(1582).
thing(1583).
thing(1584).
thing(1585).
thing(1586).
thing(1588).
thing(1589).
thing(1590).
thing(1591).
thing(1593).
thing(1594).
thing(1597).
thing(1598).
thing(1599).
thing(1600).
thing(1601).
thing(1602).
thing(1603).
thing(1604).
thing(1605).
thing(1607).
thing(1608).
thing(1611).
thing(1612).
thing(1613).
thing(1614).
thing(1615).
thing(1616).
thing(1618).
thing(1620).
thing(1621).
thing(1622).
thing(1623).
thing(1624).
thing(1628).
thing(1629).
thing(1630).
thing(1631).
thing(1634).
thing(1636).
thing(1637).
thing(1638).
thing(1640).
thing(1641).
thing(1642).
thing(1643).
thing(1644).
thing(1645).
thing(1646).
thing(1647).
personTOthing(1,670).
personTOthing(1,671).
personTOthing(1,672).
personTOthing(1,673).
personTOthing(1,674).
personTOthing(1,675).
personTOthing(1,676).
personTOthing(1,677).
personTOthing(2,194).
personTOthing(2,378).
personTOthing(2,379).
personTOthing(2,380).
personTOthing(2,381).
personTOthing(2,382).
personTOthing(2,383).
personTOthing(2,384).
personTOthing(3,987).
personTOthing(3,988).
personTOthing(3,989).
personTOthing(4,704).
personTOthing(4,705).
personTOthing(4,706).
personTOthing(4,707).
personTOthing(5,601).
personTOthing(5,602).
personTOthing(5,603).
personTOthing(5,604).
personTOthing(5,605).
personTOthing(6,219).
personTOthing(6,220).
personTOthing(6,221).
personTOthing(6,222).
personTOthing(6,223).
personTOthing(6,224).
personTOthing(6,225).
personTOthing(7,1038).
personTOthing(7,1039).
personTOthing(7,1040).
personTOthing(7,1041).
personTOthing(7,1042).
personTOthing(7,1043).
personTOthing(7,1044).
personTOthing(7,1045).
personTOthing(7,1046).
personTOthing(8,1136).
personTOthing(8,1137).
personTOthing(8,1138).
personTOthing(8,1139).
personTOthing(8,1140).
personTOthing(8,1141).
personTOthing(8,1142).
personTOthing(8,1143).
personTOthing(8,1144).
personTOthing(8,1145).
personTOthing(9,408).
personTOthing(9,409).
personTOthing(9,410).
personTOthing(9,411).
personTOthing(10,521).
personTOthing(10,522).
personTOthing(10,523).
personTOthing(10,524).
personTOthing(10,525).
personTOthing(10,526).
personTOthing(10,527).
personTOthing(10,528).
personTOthing(10,529).
personTOthing(10,530).
personTOthing(11,36).
personTOthing(11,37).
personTOthing(11,38).
personTOthing(11,39).
personTOthing(11,40).
personTOthing(11,41).
personTOthing(11,42).
personTOthing(12,217).
personTOthing(12,1034).
personTOthing(12,1486).
personTOthing(12,1487).
personTOthing(13,1220).
personTOthing(13,1221).
personTOthing(13,1222).
personTOthing(13,1223).
personTOthing(13,1224).
personTOthing(13,1225).
personTOthing(14,444).
personTOthing(14,445).
personTOthing(14,446).
personTOthing(14,447).
personTOthing(14,448).
personTOthing(14,449).
personTOthing(14,450).
personTOthing(15,82).
personTOthing(15,83).
personTOthing(15,84).
personTOthing(16,843).
personTOthing(16,1433).
personTOthing(17,1579).
personTOthing(17,1580).
personTOthing(17,1581).
personTOthing(17,1582).
personTOthing(17,1583).
personTOthing(17,1584).
personTOthing(17,1585).
personTOthing(17,1586).
personTOthing(18,1285).
personTOthing(18,1286).
personTOthing(18,1287).
personTOthing(19,839).
personTOthing(19,949).
personTOthing(19,950).
personTOthing(19,1003).
personTOthing(20,1272).
personTOthing(20,1273).
personTOthing(21,1303).
personTOthing(21,1304).
personTOthing(21,1305).
personTOthing(21,1306).
personTOthing(21,1307).
personTOthing(21,1308).
personTOthing(21,1309).
personTOthing(22,438).
personTOthing(22,929).
personTOthing(22,930).
personTOthing(22,1125).
personTOthing(22,1126).
personTOthing(22,1127).
personTOthing(22,1128).
personTOthing(22,1129).
personTOthing(23,293).
personTOthing(23,294).
personTOthing(23,295).
personTOthing(23,344).
personTOthing(23,833).
personTOthing(23,834).
personTOthing(23,835).
personTOthing(23,836).
personTOthing(23,837).
personTOthing(23,838).
personTOthing(24,1530).
personTOthing(24,1531).
personTOthing(25,632).
personTOthing(25,633).
personTOthing(25,634).
personTOthing(25,635).
personTOthing(25,636).
personTOthing(25,637).
personTOthing(26,142).
personTOthing(26,143).
personTOthing(26,144).
personTOthing(26,145).
personTOthing(27,62).
personTOthing(27,63).
personTOthing(27,64).
personTOthing(27,65).
personTOthing(27,66).
personTOthing(27,67).
personTOthing(27,68).
personTOthing(27,69).
personTOthing(28,769).
personTOthing(28,770).
personTOthing(28,1231).
personTOthing(28,1232).
personTOthing(28,1233).
personTOthing(28,1234).
personTOthing(28,1628).
personTOthing(28,1629).
personTOthing(28,1630).
personTOthing(28,1631).
personTOthing(29,461).
personTOthing(29,462).
personTOthing(29,1257).
personTOthing(29,1352).
personTOthing(30,1264).
personTOthing(30,1419).
personTOthing(30,1420).
personTOthing(30,1452).
personTOthing(31,537).
personTOthing(31,538).
personTOthing(31,539).
personTOthing(31,540).
personTOthing(31,541).
personTOthing(31,542).
personTOthing(31,543).
personTOthing(31,544).
personTOthing(31,545).
personTOthing(31,546).
personTOthing(32,1095).
personTOthing(32,1193).
personTOthing(32,1565).
personTOthing(33,423).
personTOthing(33,424).
personTOthing(33,425).
personTOthing(33,426).
personTOthing(33,427).
personTOthing(33,428).
personTOthing(33,429).
personTOthing(33,515).
personTOthing(33,516).
personTOthing(33,1276).
personTOthing(34,109).
personTOthing(34,110).
personTOthing(34,111).
personTOthing(34,112).
personTOthing(34,113).
personTOthing(34,114).
personTOthing(34,155).
personTOthing(34,156).
personTOthing(34,157).
personTOthing(34,610).
personTOthing(35,733).
personTOthing(35,734).
personTOthing(35,735).
personTOthing(35,736).
personTOthing(35,737).
personTOthing(35,738).
personTOthing(35,739).
personTOthing(35,740).
personTOthing(36,18).
personTOthing(36,19).
personTOthing(36,20).
personTOthing(36,21).
personTOthing(37,283).
personTOthing(37,284).
personTOthing(37,285).
personTOthing(37,286).
personTOthing(37,287).
personTOthing(37,288).
personTOthing(37,289).
personTOthing(37,290).
personTOthing(38,338).
personTOthing(38,339).
personTOthing(38,340).
personTOthing(38,341).
personTOthing(38,342).
personTOthing(38,946).
personTOthing(39,1086).
personTOthing(39,1087).
personTOthing(39,1088).
personTOthing(39,1089).
personTOthing(39,1090).
personTOthing(39,1091).
personTOthing(39,1092).
personTOthing(39,1093).
personTOthing(39,1094).
personTOthing(40,54).
personTOthing(40,55).
personTOthing(40,56).
personTOthing(40,57).
personTOthing(41,5).
personTOthing(41,334).
personTOthing(41,1267).
personTOthing(41,1268).
personTOthing(41,1269).
personTOthing(41,1270).
personTOthing(41,1271).
personTOthing(42,22).
personTOthing(42,23).
personTOthing(42,24).
personTOthing(42,25).
personTOthing(42,26).
personTOthing(42,27).
personTOthing(43,71).
personTOthing(43,72).
personTOthing(43,1355).
personTOthing(43,1356).
personTOthing(43,1357).
personTOthing(43,1358).
personTOthing(43,1359).
personTOthing(43,1360).
personTOthing(43,1361).
personTOthing(44,177).
personTOthing(44,178).
personTOthing(44,179).
personTOthing(44,180).
personTOthing(44,181).
personTOthing(44,182).
personTOthing(45,1435).
personTOthing(45,1436).
personTOthing(45,1437).
personTOthing(46,894).
personTOthing(46,990).
personTOthing(46,991).
personTOthing(46,1246).
personTOthing(46,1247).
personTOthing(46,1248).
personTOthing(46,1249).
personTOthing(46,1250).
personTOthing(46,1251).
personTOthing(47,1261).
personTOthing(47,1262).
personTOthing(48,729).
personTOthing(48,730).
personTOthing(48,731).
personTOthing(48,732).
personTOthing(48,1013).
personTOthing(48,1014).
personTOthing(48,1015).
personTOthing(48,1016).
personTOthing(48,1017).
personTOthing(48,1018).
personTOthing(49,132).
personTOthing(49,133).
personTOthing(49,134).
personTOthing(49,135).
personTOthing(49,136).
personTOthing(49,137).
personTOthing(49,138).
personTOthing(49,139).
personTOthing(49,140).
personTOthing(50,1168).
personTOthing(50,1169).
personTOthing(50,1170).
personTOthing(50,1171).
personTOthing(50,1172).
personTOthing(50,1173).
personTOthing(50,1174).
personTOthing(50,1175).
personTOthing(51,506).
personTOthing(51,507).
personTOthing(51,508).
personTOthing(51,509).
personTOthing(51,510).
personTOthing(52,1028).
personTOthing(52,1029).
personTOthing(52,1030).
personTOthing(53,1119).
personTOthing(53,1120).
personTOthing(53,1121).
personTOthing(53,1122).
personTOthing(53,1123).
personTOthing(53,1124).
personTOthing(53,1133).
personTOthing(53,1636).
personTOthing(53,1637).
personTOthing(53,1638).
personTOthing(54,1153).
personTOthing(54,1154).
personTOthing(54,1155).
personTOthing(54,1156).
personTOthing(54,1157).
personTOthing(54,1158).
personTOthing(54,1159).
personTOthing(54,1160).
personTOthing(54,1161).
personTOthing(54,1162).
personTOthing(55,98).
personTOthing(55,99).
personTOthing(55,100).
personTOthing(55,101).
personTOthing(55,102).
personTOthing(55,103).
personTOthing(55,104).
personTOthing(55,105).
personTOthing(55,106).
personTOthing(55,107).
personTOthing(56,1).
personTOthing(56,2).
personTOthing(56,58).
personTOthing(56,59).
personTOthing(56,60).
personTOthing(56,61).
personTOthing(56,818).
personTOthing(57,93).
personTOthing(57,94).
personTOthing(57,196).
personTOthing(57,197).
personTOthing(57,198).
personTOthing(57,199).
personTOthing(57,200).
personTOthing(57,992).
personTOthing(57,993).
personTOthing(58,492).
personTOthing(58,493).
personTOthing(58,494).
personTOthing(58,495).
personTOthing(58,496).
personTOthing(58,497).
personTOthing(58,498).
personTOthing(58,499).
personTOthing(59,1364).
personTOthing(59,1365).
personTOthing(59,1366).
personTOthing(59,1367).
personTOthing(59,1368).
personTOthing(59,1369).
personTOthing(59,1370).
personTOthing(59,1371).
personTOthing(59,1372).
personTOthing(59,1373).
personTOthing(60,752).
personTOthing(60,753).
personTOthing(61,239).
personTOthing(61,240).
personTOthing(61,329).
personTOthing(61,330).
personTOthing(61,998).
personTOthing(61,999).
personTOthing(62,311).
personTOthing(62,312).
personTOthing(62,313).
personTOthing(62,314).
personTOthing(62,315).
personTOthing(63,1388).
personTOthing(63,1389).
personTOthing(63,1390).
personTOthing(63,1391).
personTOthing(63,1392).
personTOthing(63,1393).
personTOthing(63,1394).
personTOthing(63,1395).
personTOthing(63,1396).
personTOthing(63,1397).
personTOthing(64,1204).
personTOthing(64,1205).
personTOthing(64,1206).
personTOthing(65,1409).
personTOthing(65,1410).
personTOthing(65,1496).
personTOthing(65,1497).
personTOthing(65,1498).
personTOthing(66,346).
personTOthing(66,347).
personTOthing(66,348).
personTOthing(66,349).
personTOthing(67,552).
personTOthing(67,553).
personTOthing(67,554).
personTOthing(67,555).
personTOthing(68,982).
personTOthing(68,983).
personTOthing(68,984).
personTOthing(68,985).
personTOthing(69,1209).
personTOthing(69,1210).
personTOthing(69,1211).
personTOthing(69,1212).
personTOthing(69,1213).
personTOthing(70,253).
personTOthing(70,254).
personTOthing(70,255).
personTOthing(70,612).
personTOthing(70,856).
personTOthing(70,857).
personTOthing(70,858).
personTOthing(71,1313).
personTOthing(71,1314).
personTOthing(71,1315).
personTOthing(71,1316).
personTOthing(71,1317).
personTOthing(71,1318).
personTOthing(71,1319).
personTOthing(71,1320).
personTOthing(71,1321).
personTOthing(71,1322).
personTOthing(72,576).
personTOthing(72,577).
personTOthing(73,646).
personTOthing(73,647).
personTOthing(73,648).
personTOthing(73,649).
personTOthing(73,650).
personTOthing(73,651).
personTOthing(74,231).
personTOthing(74,232).
personTOthing(74,233).
personTOthing(74,234).
personTOthing(74,235).
personTOthing(74,236).
personTOthing(74,237).
personTOthing(75,375).
personTOthing(75,376).
personTOthing(76,187).
personTOthing(76,188).
personTOthing(76,189).
personTOthing(76,190).
personTOthing(77,1134).
personTOthing(77,1618).
personTOthing(78,1288).
personTOthing(78,1289).
personTOthing(78,1290).
personTOthing(78,1291).
personTOthing(78,1292).
personTOthing(78,1293).
personTOthing(78,1294).
personTOthing(78,1295).
personTOthing(78,1296).
personTOthing(79,464).
personTOthing(79,465).
personTOthing(79,466).
personTOthing(79,467).
personTOthing(79,468).
personTOthing(79,469).
personTOthing(79,470).
personTOthing(79,471).
personTOthing(80,718).
personTOthing(80,719).
personTOthing(80,720).
personTOthing(80,721).
personTOthing(80,722).
personTOthing(80,723).
personTOthing(80,724).
personTOthing(80,725).
personTOthing(81,862).
personTOthing(81,863).
personTOthing(81,864).
personTOthing(81,865).
personTOthing(82,519).
personTOthing(82,960).
personTOthing(82,1084).
personTOthing(82,1085).
personTOthing(83,123).
personTOthing(83,124).
personTOthing(83,125).
personTOthing(83,126).
personTOthing(83,127).
personTOthing(83,128).
personTOthing(84,169).
personTOthing(84,170).
personTOthing(84,171).
personTOthing(84,172).
personTOthing(84,173).
personTOthing(84,1047).
personTOthing(84,1048).
personTOthing(84,1049).
personTOthing(85,1165).
personTOthing(85,1166).
personTOthing(85,1167).
personTOthing(86,799).
personTOthing(86,800).
personTOthing(86,801).
personTOthing(86,802).
personTOthing(86,803).
personTOthing(87,1070).
personTOthing(87,1071).
personTOthing(87,1412).
personTOthing(87,1413).
personTOthing(87,1414).
personTOthing(87,1415).
personTOthing(87,1416).
personTOthing(87,1417).
personTOthing(87,1418).
personTOthing(88,743).
personTOthing(88,744).
personTOthing(88,745).
personTOthing(88,748).
personTOthing(89,556).
personTOthing(89,557).
personTOthing(89,558).
personTOthing(89,559).
personTOthing(89,560).
personTOthing(89,561).
personTOthing(89,562).
personTOthing(89,563).
personTOthing(89,564).
personTOthing(89,565).
personTOthing(90,1500).
personTOthing(90,1501).
personTOthing(90,1502).
personTOthing(90,1503).
personTOthing(90,1504).
personTOthing(90,1505).
personTOthing(90,1506).
personTOthing(91,1347).
personTOthing(91,1348).
personTOthing(92,353).
personTOthing(92,354).
personTOthing(92,355).
personTOthing(93,1542).
personTOthing(93,1543).
personTOthing(93,1544).
personTOthing(93,1545).
personTOthing(93,1546).
personTOthing(93,1547).
personTOthing(93,1548).
personTOthing(93,1549).
personTOthing(93,1550).
personTOthing(93,1608).
personTOthing(94,1509).
personTOthing(94,1510).
personTOthing(94,1511).
personTOthing(94,1512).
personTOthing(94,1513).
personTOthing(94,1514).
personTOthing(94,1515).
personTOthing(94,1516).
personTOthing(95,391).
personTOthing(95,609).
personTOthing(96,318).
personTOthing(96,319).
personTOthing(96,320).
personTOthing(96,321).
personTOthing(96,322).
personTOthing(96,323).
personTOthing(96,324).
personTOthing(96,325).
personTOthing(96,326).
personTOthing(96,327).
personTOthing(97,880).
personTOthing(97,881).
personTOthing(97,882).
personTOthing(97,883).
personTOthing(97,884).
personTOthing(97,885).
personTOthing(97,886).
personTOthing(97,887).
personTOthing(97,888).
personTOthing(98,627).
personTOthing(98,628).
personTOthing(98,629).
personTOthing(99,920).
personTOthing(99,921).
personTOthing(99,922).
personTOthing(99,923).
personTOthing(99,924).
personTOthing(99,925).
personTOthing(99,926).
personTOthing(100,867).
personTOthing(100,868).
personTOthing(100,869).
personTOthing(100,870).
personTOthing(100,871).
personTOthing(100,872).
personTOthing(100,873).
personTOthing(100,874).
personTOthing(100,875).
personTOthing(100,876).
personTOthing(101,1021).
personTOthing(101,1022).
personTOthing(101,1023).
personTOthing(101,1024).
personTOthing(101,1025).
personTOthing(101,1026).
personTOthing(101,1027).
personTOthing(102,780).
personTOthing(102,781).
personTOthing(102,782).
personTOthing(102,783).
personTOthing(103,1053).
personTOthing(103,1054).
personTOthing(103,1055).
personTOthing(103,1056).
personTOthing(103,1057).
personTOthing(103,1058).
personTOthing(104,1149).
personTOthing(104,1354).
personTOthing(105,270).
personTOthing(105,1075).
personTOthing(105,1398).
personTOthing(105,1399).
personTOthing(105,1400).
personTOthing(105,1401).
personTOthing(105,1402).
personTOthing(105,1403).
personTOthing(105,1404).
personTOthing(105,1405).
personTOthing(106,819).
personTOthing(106,820).
personTOthing(106,821).
personTOthing(106,822).
personTOthing(106,823).
personTOthing(106,824).
personTOthing(106,825).
personTOthing(107,73).
personTOthing(107,74).
personTOthing(107,75).
personTOthing(107,76).
personTOthing(107,77).
personTOthing(107,78).
personTOthing(108,454).
personTOthing(108,455).
personTOthing(108,456).
personTOthing(109,613).
personTOthing(109,614).
personTOthing(109,615).
personTOthing(109,616).
personTOthing(109,617).
personTOthing(109,618).
personTOthing(109,619).
personTOthing(110,6).
personTOthing(110,942).
personTOthing(110,943).
personTOthing(110,1607).
personTOthing(111,846).
personTOthing(111,847).
personTOthing(111,848).
personTOthing(111,849).
personTOthing(111,850).
personTOthing(111,851).
personTOthing(111,852).
personTOthing(111,853).
personTOthing(111,854).
personTOthing(111,855).
personTOthing(112,953).
personTOthing(112,954).
personTOthing(112,955).
personTOthing(112,956).
personTOthing(112,957).
personTOthing(112,958).
personTOthing(112,959).
personTOthing(113,962).
personTOthing(113,963).
personTOthing(113,964).
personTOthing(113,965).
personTOthing(113,966).
personTOthing(113,967).
personTOthing(113,968).
personTOthing(113,969).
personTOthing(114,1060).
personTOthing(114,1061).
personTOthing(114,1062).
personTOthing(114,1063).
personTOthing(114,1064).
personTOthing(114,1065).
personTOthing(114,1066).
personTOthing(115,46).
personTOthing(115,566).
personTOthing(115,567).
personTOthing(115,1108).
personTOthing(116,589).
personTOthing(116,590).
personTOthing(116,591).
personTOthing(116,592).
personTOthing(116,593).
personTOthing(116,594).
personTOthing(116,595).
personTOthing(116,596).
personTOthing(116,597).
personTOthing(117,1517).
personTOthing(117,1518).
personTOthing(117,1519).
personTOthing(117,1520).
personTOthing(117,1521).
personTOthing(117,1522).
personTOthing(117,1523).
personTOthing(117,1524).
personTOthing(117,1525).
personTOthing(117,1526).
personTOthing(118,1195).
personTOthing(118,1196).
personTOthing(118,1479).
personTOthing(118,1480).
personTOthing(118,1481).
personTOthing(118,1482).
personTOthing(119,512).
personTOthing(119,1349).
personTOthing(120,795).
personTOthing(120,796).
personTOthing(120,797).
personTOthing(121,304).
personTOthing(121,305).
personTOthing(121,306).
personTOthing(121,307).
personTOthing(121,308).
personTOthing(121,309).
personTOthing(122,33).
personTOthing(122,1189).
personTOthing(122,1190).
personTOthing(122,1191).
personTOthing(122,1280).
personTOthing(122,1281).
personTOthing(122,1282).
personTOthing(123,386).
personTOthing(123,387).
personTOthing(123,388).
personTOthing(123,389).
personTOthing(123,1228).
personTOthing(124,351).
personTOthing(124,860).
personTOthing(125,711).
personTOthing(125,712).
personTOthing(125,713).
personTOthing(125,714).
personTOthing(126,1198).
personTOthing(126,1199).
personTOthing(126,1200).
personTOthing(127,501).
personTOthing(127,502).
personTOthing(127,503).
personTOthing(127,806).
personTOthing(127,807).
personTOthing(127,808).
personTOthing(128,1329).
personTOthing(128,1330).
personTOthing(128,1331).
personTOthing(128,1332).
personTOthing(128,1333).
personTOthing(129,588).
personTOthing(129,1620).
personTOthing(129,1621).
personTOthing(129,1622).
personTOthing(129,1623).
personTOthing(129,1624).
personTOthing(130,49).
personTOthing(130,50).
personTOthing(130,51).
personTOthing(130,52).
personTOthing(131,1569).
personTOthing(131,1570).
personTOthing(131,1571).
personTOthing(131,1572).
personTOthing(131,1573).
personTOthing(131,1574).
personTOthing(131,1575).
personTOthing(131,1576).
personTOthing(131,1577).
personTOthing(131,1578).
personTOthing(132,350).
personTOthing(132,994).
personTOthing(132,1300).
personTOthing(132,1301).
personTOthing(133,203).
personTOthing(133,204).
personTOthing(134,687).
personTOthing(134,688).
personTOthing(134,689).
personTOthing(134,690).
personTOthing(134,691).
personTOthing(134,692).
personTOthing(134,693).
personTOthing(134,694).
personTOthing(135,1111).
personTOthing(135,1112).
personTOthing(135,1113).
personTOthing(135,1114).
personTOthing(135,1115).
personTOthing(135,1116).
personTOthing(136,266).
personTOthing(136,267).
personTOthing(137,118).
personTOthing(137,119).
personTOthing(137,120).
personTOthing(137,121).
personTOthing(137,571).
personTOthing(137,572).
personTOthing(137,620).
personTOthing(138,433).
personTOthing(138,434).
personTOthing(138,435).
personTOthing(138,771).
personTOthing(138,772).
personTOthing(138,773).
personTOthing(138,774).
personTOthing(138,775).
personTOthing(138,776).
personTOthing(138,777).
personTOthing(139,474).
personTOthing(139,475).
personTOthing(139,476).
personTOthing(139,477).
personTOthing(139,478).
personTOthing(139,479).
personTOthing(139,480).
personTOthing(140,207).
personTOthing(140,208).
personTOthing(140,209).
personTOthing(141,934).
personTOthing(141,935).
personTOthing(141,936).
personTOthing(141,937).
personTOthing(141,938).
personTOthing(142,1422).
personTOthing(142,1423).
personTOthing(142,1424).
personTOthing(143,1099).
personTOthing(143,1100).
personTOthing(143,1101).
personTOthing(143,1102).
personTOthing(143,1103).
personTOthing(143,1104).
personTOthing(143,1105).
personTOthing(144,15).
personTOthing(144,533).
personTOthing(144,1593).
personTOthing(144,1594).
personTOthing(145,393).
personTOthing(145,394).
personTOthing(145,395).
personTOthing(145,396).
personTOthing(145,397).
personTOthing(145,398).
personTOthing(145,399).
personTOthing(145,400).
personTOthing(146,584).
personTOthing(146,1634).
personTOthing(147,439).
personTOthing(147,440).
personTOthing(147,441).
personTOthing(147,442).
personTOthing(148,1455).
personTOthing(148,1456).
personTOthing(148,1457).
personTOthing(148,1458).
personTOthing(148,1459).
personTOthing(148,1460).
personTOthing(148,1461).
personTOthing(148,1462).
personTOthing(148,1463).
personTOthing(148,1464).
personTOthing(149,1337).
personTOthing(149,1338).
personTOthing(149,1339).
personTOthing(149,1340).
personTOthing(149,1341).
personTOthing(149,1342).
personTOthing(149,1343).
personTOthing(150,403).
personTOthing(150,404).
personTOthing(150,1216).
personTOthing(150,1508).
personTOthing(151,258).
personTOthing(151,259).
personTOthing(151,260).
personTOthing(151,261).
personTOthing(151,262).
personTOthing(151,263).
personTOthing(152,1611).
personTOthing(152,1612).
personTOthing(152,1613).
personTOthing(152,1614).
personTOthing(152,1615).
personTOthing(152,1616).
personTOthing(153,549).
personTOthing(153,550).
personTOthing(154,459).
personTOthing(154,460).
personTOthing(155,89).
personTOthing(155,483).
personTOthing(155,484).
personTOthing(155,485).
personTOthing(155,486).
personTOthing(155,487).
personTOthing(155,488).
personTOthing(156,1640).
personTOthing(156,1641).
personTOthing(156,1642).
personTOthing(156,1643).
personTOthing(156,1644).
personTOthing(156,1645).
personTOthing(156,1646).
personTOthing(156,1647).
personTOthing(157,909).
personTOthing(157,910).
personTOthing(157,911).
personTOthing(157,912).
personTOthing(157,913).
personTOthing(157,914).
personTOthing(157,915).
personTOthing(157,916).
personTOthing(158,273).
personTOthing(158,274).
personTOthing(158,275).
personTOthing(158,276).
personTOthing(158,277).
personTOthing(158,278).
personTOthing(158,279).
personTOthing(158,280).
personTOthing(158,281).
personTOthing(158,282).
personTOthing(159,7).
personTOthing(159,8).
personTOthing(159,9).
personTOthing(159,10).
personTOthing(159,11).
personTOthing(159,12).
personTOthing(160,363).
personTOthing(160,364).
personTOthing(160,365).
personTOthing(160,366).
personTOthing(160,367).
personTOthing(160,368).
personTOthing(160,369).
personTOthing(160,370).
personTOthing(160,371).
personTOthing(160,372).
personTOthing(161,826).
personTOthing(161,827).
personTOthing(161,828).
personTOthing(161,829).
personTOthing(161,830).
personTOthing(161,831).
personTOthing(161,832).
personTOthing(162,227).
personTOthing(162,1597).
personTOthing(162,1598).
personTOthing(162,1599).
personTOthing(162,1600).
personTOthing(162,1601).
personTOthing(162,1602).
personTOthing(162,1603).
personTOthing(162,1604).
personTOthing(162,1605).
personTOthing(163,1439).
personTOthing(163,1440).
personTOthing(163,1441).
personTOthing(163,1442).
personTOthing(163,1443).
personTOthing(163,1444).
personTOthing(163,1445).
personTOthing(163,1446).
personTOthing(163,1447).
personTOthing(163,1448).
personTOthing(164,1077).
personTOthing(164,1078).
personTOthing(164,1079).
personTOthing(164,1080).
personTOthing(165,679).
personTOthing(165,680).
personTOthing(165,681).
personTOthing(165,682).
personTOthing(165,683).
personTOthing(165,684).
personTOthing(165,685).
personTOthing(165,686).
personTOthing(166,1425).
personTOthing(166,1426).
personTOthing(166,1427).
personTOthing(166,1428).
personTOthing(166,1429).
personTOthing(166,1430).
personTOthing(167,896).
personTOthing(167,897).
personTOthing(167,898).
personTOthing(167,899).
personTOthing(167,900).
personTOthing(167,901).
personTOthing(167,902).
personTOthing(167,903).
personTOthing(167,904).
personTOthing(167,905).
personTOthing(168,1557).
personTOthing(168,1558).
personTOthing(168,1559).
personTOthing(168,1560).
personTOthing(168,1561).
personTOthing(169,1489).
personTOthing(169,1490).
personTOthing(169,1491).
personTOthing(169,1492).
personTOthing(169,1493).
personTOthing(169,1494).
personTOthing(170,813).
personTOthing(170,814).
personTOthing(170,815).
personTOthing(170,816).
personTOthing(170,817).
personTOthing(171,639).
personTOthing(171,640).
personTOthing(171,641).
personTOthing(171,642).
personTOthing(171,643).
personTOthing(172,1472).
personTOthing(172,1473).
personTOthing(172,1474).
personTOthing(172,1475).
personTOthing(172,1476).
personTOthing(172,1477).
personTOthing(172,1478).
personTOthing(173,1554).
personTOthing(173,1555).
personTOthing(174,811).
personTOthing(174,972).
personTOthing(174,973).
personTOthing(174,974).
personTOthing(174,975).
personTOthing(174,976).
personTOthing(174,977).
personTOthing(174,978).
personTOthing(174,1484).
personTOthing(174,1485).
personTOthing(175,160).
personTOthing(175,161).
personTOthing(175,162).
personTOthing(175,163).
personTOthing(175,164).
personTOthing(175,165).
personTOthing(176,211).
personTOthing(176,212).
personTOthing(176,213).
personTOthing(176,214).
personTOthing(177,660).
personTOthing(177,661).
personTOthing(177,662).
personTOthing(177,663).
personTOthing(177,664).
personTOthing(177,665).
personTOthing(177,666).
personTOthing(177,667).
personTOthing(177,668).
personTOthing(177,669).
personTOthing(178,1378).
personTOthing(178,1379).
personTOthing(178,1380).
personTOthing(178,1381).
personTOthing(178,1382).
personTOthing(178,1383).
personTOthing(178,1384).
personTOthing(178,1385).
personTOthing(178,1386).
personTOthing(179,1176).
personTOthing(179,1177).
personTOthing(179,1178).
personTOthing(179,1179).
personTOthing(179,1180).
personTOthing(179,1181).
personTOthing(179,1182).
personTOthing(179,1183).
personTOthing(179,1184).
personTOthing(179,1185).
personTOthing(180,146).
personTOthing(180,147).
personTOthing(180,148).
personTOthing(180,149).
personTOthing(180,150).
personTOthing(180,151).
personTOthing(180,580).
personTOthing(180,581).
personTOthing(180,582).
personTOthing(181,1468).
personTOthing(181,1469).
personTOthing(181,1470).
personTOthing(182,698).
personTOthing(182,699).
personTOthing(182,700).
personTOthing(182,701).
personTOthing(182,702).
personTOthing(182,703).
personTOthing(183,86).
personTOthing(183,87).
personTOthing(183,88).
personTOthing(183,623).
personTOthing(183,624).
personTOthing(183,625).
personTOthing(184,248).
personTOthing(184,249).
personTOthing(184,250).
personTOthing(185,654).
personTOthing(185,655).
personTOthing(185,656).
personTOthing(186,30).
personTOthing(186,301).
personTOthing(186,302).
personTOthing(186,303).
personTOthing(187,1002).
personTOthing(187,1226).
personTOthing(187,1326).
personTOthing(187,1327).
personTOthing(187,1328).
personTOthing(188,185).
personTOthing(188,1374).
personTOthing(189,414).
personTOthing(189,415).
personTOthing(189,416).
personTOthing(189,417).
personTOthing(189,418).
personTOthing(189,419).
personTOthing(189,420).
personTOthing(189,421).
personTOthing(189,422).
personTOthing(190,1533).
personTOthing(190,1534).
personTOthing(190,1535).
personTOthing(190,1536).
personTOthing(190,1537).
personTOthing(190,1538).
personTOthing(190,1539).
personTOthing(191,1007).
personTOthing(191,1008).
personTOthing(191,1009).
personTOthing(191,1010).
personTOthing(191,1011).
personTOthing(192,357).
personTOthing(192,358).
personTOthing(192,359).
personTOthing(192,360).
personTOthing(192,361).
personTOthing(193,786).
personTOthing(193,787).
personTOthing(193,788).
personTOthing(193,789).
personTOthing(193,790).
personTOthing(194,1238).
personTOthing(194,1239).
personTOthing(194,1240).
personTOthing(194,1241).
personTOthing(194,1242).
personTOthing(194,1243).
personTOthing(194,1244).
personTOthing(195,756).
personTOthing(195,757).
personTOthing(195,758).
personTOthing(195,759).
personTOthing(195,760).
personTOthing(195,761).
personTOthing(195,762).
personTOthing(195,763).
personTOthing(195,764).
personTOthing(195,765).
personTOthing(196,1588).
personTOthing(196,1589).
personTOthing(196,1590).
personTOthing(196,1591).
personTOthing(197,241).
personTOthing(197,242).
personTOthing(197,243).
personTOthing(197,244).
personTOthing(197,245).
personTOthing(198,611).
personTOthing(198,794).
personTOthing(199,298).
personTOthing(199,890).
personTOthing(199,891).
personTOthing(200,1252).
personTOthing(200,1253).
personTOthing(200,1254).
personTOthing(200,1255).
cabinetDomain(1).
cabinetDomain(2).
cabinetDomain(3).
cabinetDomain(4).
cabinetDomain(5).
cabinetDomain(6).
cabinetDomain(7).
cabinetDomain(8).
cabinetDomain(9).
cabinetDomain(10).
cabinetDomain(11).
cabinetDomain(12).
cabinetDomain(13).
cabinetDomain(14).
cabinetDomain(15).
cabinetDomain(16).
cabinetDomain(17).
cabinetDomain(18).
cabinetDomain(19).
cabinetDomain(20).
cabinetDomain(21).
cabinetDomain(22).
cabinetDomain(23).
cabinetDomain(24).
cabinetDomain(25).
cabinetDomain(26).
cabinetDomain(27).
cabinetDomain(28).
cabinetDomain(29).
cabinetDomain(30).
cabinetDomain(31).
cabinetDomain(32).
cabinetDomain(33).
cabinetDomain(34).
cabinetDomain(35).
cabinetDomain(36).
cabinetDomain(37).
cabinetDomain(38).
cabinetDomain(39).
cabinetDomain(40).
cabinetDomain(41).
cabinetDomain(42).
cabinetDomain(43).
cabinetDomain(44).
cabinetDomain(45).
cabinetDomain(46).
cabinetDomain(47).
cabinetDomain(48).
cabinetDomain(49).
cabinetDomain(50).
cabinetDomain(51).
cabinetDomain(52).
cabinetDomain(53).
cabinetDomain(54).
cabinetDomain(55).
cabinetDomain(56).
cabinetDomain(57).
cabinetDomain(58).
cabinetDomain(59).
cabinetDomain(60).
cabinetDomain(61).
cabinetDomain(62).
cabinetDomain(63).
cabinetDomain(64).
cabinetDomain(65).
cabinetDomain(66).
cabinetDomain(67).
cabinetDomain(68).
cabinetDomain(69).
cabinetDomain(70).
cabinetDomain(71).
cabinetDomain(72).
cabinetDomain(73).
cabinetDomain(74).
cabinetDomain(75).
cabinetDomain(76).
cabinetDomain(77).
cabinetDomain(78).
cabinetDomain(79).
cabinetDomain(80).
cabinetDomain(81).
cabinetDomain(82).
cabinetDomain(83).
cabinetDomain(84).
cabinetDomain(85).
cabinetDomain(86).
cabinetDomain(87).
cabinetDomain(88).
cabinetDomain(89).
cabinetDomain(90).
cabinetDomain(91).
cabinetDomain(92).
cabinetDomain(93).
cabinetDomain(94).
cabinetDomain(95).
cabinetDomain(96).
cabinetDomain(97).
cabinetDomain(98).
cabinetDomain(99).
cabinetDomain(100).
cabinetDomain(101).
cabinetDomain(102).
cabinetDomain(103).
cabinetDomain(104).
cabinetDomain(105).
cabinetDomain(106).
cabinetDomain(107).
cabinetDomain(108).
cabinetDomain(109).
cabinetDomain(110).
cabinetDomain(111).
cabinetDomain(112).
cabinetDomain(113).
cabinetDomain(114).
cabinetDomain(115).
cabinetDomain(116).
cabinetDomain(117).
cabinetDomain(118).
cabinetDomain(119).
cabinetDomain(120).
cabinetDomain(121).
cabinetDomain(122).
cabinetDomain(123).
cabinetDomain(124).
cabinetDomain(125).
cabinetDomain(126).
cabinetDomain(127).
cabinetDomain(128).
cabinetDomain(129).
cabinetDomain(130).
cabinetDomain(131).
cabinetDomain(132).
cabinetDomain(133).
cabinetDomain(134).
cabinetDomain(135).
cabinetDomain(136).
cabinetDomain(137).
cabinetDomain(138).
cabinetDomain(139).
cabinetDomain(140).
cabinetDomain(141).
cabinetDomain(142).
cabinetDomain(143).
cabinetDomain(144).
cabinetDomain(145).
cabinetDomain(146).
cabinetDomain(147).
cabinetDomain(148).
cabinetDomain(149).
cabinetDomain(150).
cabinetDomain(151).
cabinetDomain(152).
cabinetDomain(153).
cabinetDomain(154).
cabinetDomain(155).
cabinetDomain(156).
cabinetDomain(157).
cabinetDomain(158).
cabinetDomain(159).
cabinetDomain(160).
cabinetDomain(161).
cabinetDomain(162).
cabinetDomain(163).
cabinetDomain(164).
cabinetDomain(165).
cabinetDomain(166).
cabinetDomain(167).
cabinetDomain(168).
cabinetDomain(169).
cabinetDomain(170).
cabinetDomain(171).
cabinetDomain(172).
cabinetDomain(173).
cabinetDomain(174).
cabinetDomain(175).
cabinetDomain(176).
cabinetDomain(177).
cabinetDomain(178).
cabinetDomain(179).
cabinetDomain(180).
cabinetDomain(181).
cabinetDomain(182).
cabinetDomain(183).
cabinetDomain(184).
cabinetDomain(185).
cabinetDomain(186).
cabinetDomain(187).
cabinetDomain(188).
cabinetDomain(189).
cabinetDomain(190).
cabinetDomain(191).
cabinetDomain(192).
cabinetDomain(193).
cabinetDomain(194).
cabinetDomain(195).
cabinetDomain(196).
cabinetDomain(197).
cabinetDomain(198).
cabinetDomain(199).
cabinetDomain(200).
cabinetDomain(201).
cabinetDomain(202).
cabinetDomain(203).
cabinetDomain(204).
cabinetDomain(205).
cabinetDomain(206).
cabinetDomain(207).
cabinetDomain(208).
cabinetDomain(209).
cabinetDomain(210).
cabinetDomain(211).
cabinetDomain(212).
cabinetDomain(213).
cabinetDomain(214).
cabinetDomain(215).
cabinetDomain(216).
cabinetDomain(217).
cabinetDomain(218).
cabinetDomain(219).
cabinetDomain(220).
cabinetDomain(221).
cabinetDomain(222).
cabinetDomain(223).
cabinetDomain(224).
cabinetDomain(225).
cabinetDomain(226).
cabinetDomain(227).
cabinetDomain(228).
cabinetDomain(229).
cabinetDomain(230).
cabinetDomain(231).
cabinetDomain(232).
cabinetDomain(233).
cabinetDomain(234).
cabinetDomain(235).
cabinetDomain(236).
cabinetDomain(237).
cabinetDomain(238).
cabinetDomain(239).
cabinetDomain(240).
cabinetDomain(241).
cabinetDomain(242).
cabinetDomain(243).
cabinetDomain(244).
cabinetDomain(245).
cabinetDomain(246).
cabinetDomain(247).
cabinetDomain(248).
cabinetDomain(249).
cabinetDomain(250).
cabinetDomain(251).
cabinetDomain(252).
cabinetDomain(253).
cabinetDomain(254).
cabinetDomain(255).
cabinetDomain(256).
cabinetDomain(257).
cabinetDomain(258).
cabinetDomain(259).
cabinetDomain(260).
cabinetDomain(261).
cabinetDomain(262).
cabinetDomain(263).
cabinetDomain(264).
cabinetDomain(265).
cabinetDomain(266).
cabinetDomain(267).
cabinetDomain(268).
cabinetDomain(269).
cabinetDomain(270).
cabinetDomain(271).
cabinetDomain(272).
cabinetDomain(273).
cabinetDomain(274).
cabinetDomain(275).
cabinetDomain(276).
cabinetDomain(277).
cabinetDomain(278).
cabinetDomain(279).
cabinetDomain(280).
cabinetDomain(281).
cabinetDomain(282).
cabinetDomain(283).
cabinetDomain(284).
cabinetDomain(285).
cabinetDomain(286).
cabinetDomain(287).
cabinetDomain(288).
cabinetDomain(289).
cabinetDomain(290).
cabinetDomain(291).
cabinetDomain(292).
cabinetDomain(293).
cabinetDomain(294).
cabinetDomain(295).
cabinetDomain(296).
cabinetDomain(297).
cabinetDomain(298).
cabinetDomain(299).
cabinetDomain(300).
cabinetDomain(301).
cabinetDomain(302).
cabinetDomain(303).
cabinetDomain(304).
cabinetDomain(305).
cabinetDomain(306).
cabinetDomain(307).
cabinetDomain(308).
cabinetDomain(309).
cabinetDomain(310).
cabinetDomain(311).
cabinetDomain(312).
cabinetDomain(313).
cabinetDomain(314).
cabinetDomain(315).
cabinetDomain(316).
cabinetDomain(317).
cabinetDomain(318).
cabinetDomain(319).
cabinetDomain(320).
cabinetDomain(321).
cabinetDomain(322).
cabinetDomain(323).
cabinetDomain(324).
cabinetDomain(325).
cabinetDomain(326).
cabinetDomain(327).
cabinetDomain(328).
cabinetDomain(329).
cabinetDomain(330).
cabinetDomain(331).
cabinetDomain(332).
cabinetDomain(333).
cabinetDomain(334).
cabinetDomain(335).
cabinetDomain(336).
cabinetDomain(337).
cabinetDomain(338).
cabinetDomain(339).
cabinetDomain(340).
cabinetDomain(341).
cabinetDomain(342).
cabinetDomain(343).
cabinetDomain(344).
cabinetDomain(345).
cabinetDomain(346).
cabinetDomain(347).
cabinetDomain(348).
cabinetDomain(349).
cabinetDomain(350).
cabinetDomain(351).
cabinetDomain(352).
cabinetDomain(353).
cabinetDomain(354).
cabinetDomain(355).
cabinetDomain(356).
cabinetDomain(357).
cabinetDomain(358).
cabinetDomain(359).
cabinetDomain(360).
cabinetDomain(361).
cabinetDomain(362).
cabinetDomain(363).
cabinetDomain(364).
cabinetDomain(365).
cabinetDomain(366).
cabinetDomain(367).
cabinetDomain(368).
cabinetDomain(369).
cabinetDomain(370).
cabinetDomain(371).
cabinetDomain(372).
cabinetDomain(373).
cabinetDomain(374).
cabinetDomain(375).
cabinetDomain(376).
cabinetDomain(377).
cabinetDomain(378).
cabinetDomain(379).
cabinetDomain(380).
cabinetDomain(381).
cabinetDomain(382).
cabinetDomain(383).
cabinetDomain(384).
cabinetDomain(385).
cabinetDomain(386).
cabinetDomain(387).
cabinetDomain(388).
cabinetDomain(389).
cabinetDomain(390).
cabinetDomain(391).
cabinetDomain(392).
cabinetDomain(393).
cabinetDomain(394).
cabinetDomain(395).
cabinetDomain(396).
cabinetDomain(397).
cabinetDomain(398).
cabinetDomain(399).
cabinetDomain(400).
cabinetDomain(401).
cabinetDomain(402).
cabinetDomain(403).
cabinetDomain(404).
cabinetDomain(405).
cabinetDomain(406).
cabinetDomain(407).
cabinetDomain(408).
cabinetDomain(409).
cabinetDomain(410).
cabinetDomain(411).
cabinetDomain(412).
cabinetDomain(413).
cabinetDomain(414).
cabinetDomain(415).
cabinetDomain(416).
cabinetDomain(417).
cabinetDomain(418).
cabinetDomain(419).
cabinetDomain(420).
cabinetDomain(421).
cabinetDomain(422).
cabinetDomain(423).
cabinetDomain(424).
cabinetDomain(425).
cabinetDomain(426).
cabinetDomain(427).
cabinetDomain(428).
cabinetDomain(429).
cabinetDomain(430).
cabinetDomain(431).
cabinetDomain(432).
cabinetDomain(433).
cabinetDomain(434).
cabinetDomain(435).
cabinetDomain(436).
cabinetDomain(437).
cabinetDomain(438).
cabinetDomain(439).
cabinetDomain(440).
cabinetDomain(441).
cabinetDomain(442).
cabinetDomain(443).
cabinetDomain(444).
cabinetDomain(445).
cabinetDomain(446).
cabinetDomain(447).
cabinetDomain(448).
cabinetDomain(449).
cabinetDomain(450).
cabinetDomain(451).
cabinetDomain(452).
cabinetDomain(453).
cabinetDomain(454).
cabinetDomain(455).
cabinetDomain(456).
cabinetDomain(457).
cabinetDomain(458).
cabinetDomain(459).
cabinetDomain(460).
cabinetDomain(461).
cabinetDomain(462).
cabinetDomain(463).
cabinetDomain(464).
cabinetDomain(465).
cabinetDomain(466).
cabinetDomain(467).
cabinetDomain(468).
cabinetDomain(469).
cabinetDomain(470).
cabinetDomain(471).
cabinetDomain(472).
cabinetDomain(473).
cabinetDomain(474).
cabinetDomain(475).
cabinetDomain(476).
cabinetDomain(477).
cabinetDomain(478).
cabinetDomain(479).
cabinetDomain(480).
cabinetDomain(481).
cabinetDomain(482).
cabinetDomain(483).
cabinetDomain(484).
cabinetDomain(485).
cabinetDomain(486).
cabinetDomain(487).
cabinetDomain(488).
cabinetDomain(489).
cabinetDomain(490).
cabinetDomain(491).
cabinetDomain(492).
cabinetDomain(493).
cabinetDomain(494).
cabinetDomain(495).
cabinetDomain(496).
cabinetDomain(497).
cabinetDomain(498).
cabinetDomain(499).
cabinetDomain(500).
cabinetDomain(501).
cabinetDomain(502).
cabinetDomain(503).
cabinetDomain(504).
cabinetDomain(505).
cabinetDomain(506).
cabinetDomain(507).
cabinetDomain(508).
cabinetDomain(509).
cabinetDomain(510).
cabinetDomain(511).
cabinetDomain(512).
cabinetDomain(513).
cabinetDomain(514).
cabinetDomain(515).
cabinetDomain(516).
cabinetDomain(517).
cabinetDomain(518).
cabinetDomain(519).
cabinetDomain(520).
cabinetDomain(521).
cabinetDomain(522).
cabinetDomain(523).
cabinetDomain(524).
cabinetDomain(525).
cabinetDomain(526).
cabinetDomain(527).
cabinetDomain(528).
cabinetDomain(529).
cabinetDomain(530).
cabinetDomain(531).
cabinetDomain(532).
cabinetDomain(533).
cabinetDomain(534).
cabinetDomain(535).
cabinetDomain(536).
cabinetDomain(537).
cabinetDomain(538).
cabinetDomain(539).
cabinetDomain(540).
cabinetDomain(541).
cabinetDomain(542).
cabinetDomain(543).
cabinetDomain(544).
cabinetDomain(545).
cabinetDomain(546).
cabinetDomain(547).
cabinetDomain(548).
cabinetDomain(549).
cabinetDomain(550).
cabinetDomain(551).
cabinetDomain(552).
cabinetDomain(553).
cabinetDomain(554).
cabinetDomain(555).
cabinetDomain(556).
cabinetDomain(557).
cabinetDomain(558).
cabinetDomain(559).
cabinetDomain(560).
cabinetDomain(561).
cabinetDomain(562).
cabinetDomain(563).
cabinetDomain(564).
cabinetDomain(565).
cabinetDomain(566).
cabinetDomain(567).
cabinetDomain(568).
cabinetDomain(569).
cabinetDomain(570).
cabinetDomain(571).
cabinetDomain(572).
cabinetDomain(573).
cabinetDomain(574).
cabinetDomain(575).
cabinetDomain(576).
cabinetDomain(577).
cabinetDomain(578).
cabinetDomain(579).
cabinetDomain(580).
cabinetDomain(581).
cabinetDomain(582).
cabinetDomain(583).
cabinetDomain(584).
cabinetDomain(585).
cabinetDomain(586).
cabinetDomain(587).
cabinetDomain(588).
cabinetDomain(589).
cabinetDomain(590).
cabinetDomain(591).
cabinetDomain(592).
cabinetDomain(593).
cabinetDomain(594).
cabinetDomain(595).
cabinetDomain(596).
cabinetDomain(597).
cabinetDomain(598).
cabinetDomain(599).
cabinetDomain(600).
cabinetDomain(601).
cabinetDomain(602).
cabinetDomain(603).
cabinetDomain(604).
cabinetDomain(605).
cabinetDomain(606).
cabinetDomain(607).
cabinetDomain(608).
cabinetDomain(609).
cabinetDomain(610).
cabinetDomain(611).
cabinetDomain(612).
cabinetDomain(613).
cabinetDomain(614).
cabinetDomain(615).
cabinetDomain(616).
cabinetDomain(617).
cabinetDomain(618).
cabinetDomain(619).
cabinetDomain(620).
cabinetDomain(621).
cabinetDomain(622).
cabinetDomain(623).
cabinetDomain(624).
cabinetDomain(625).
cabinetDomain(626).
cabinetDomain(627).
cabinetDomain(628).
cabinetDomain(629).
cabinetDomain(630).
cabinetDomain(631).
cabinetDomain(632).
cabinetDomain(633).
cabinetDomain(634).
cabinetDomain(635).
cabinetDomain(636).
cabinetDomain(637).
cabinetDomain(638).
cabinetDomain(639).
cabinetDomain(640).
cabinetDomain(641).
cabinetDomain(642).
cabinetDomain(643).
cabinetDomain(644).
cabinetDomain(645).
cabinetDomain(646).
cabinetDomain(647).
cabinetDomain(648).
cabinetDomain(649).
cabinetDomain(650).
cabinetDomain(651).
cabinetDomain(652).
cabinetDomain(653).
cabinetDomain(654).
cabinetDomain(655).
cabinetDomain(656).
cabinetDomain(657).
cabinetDomain(658).
cabinetDomain(659).
cabinetDomain(660).
cabinetDomain(661).
cabinetDomain(662).
cabinetDomain(663).
cabinetDomain(664).
cabinetDomain(665).
cabinetDomain(666).
cabinetDomain(667).
cabinetDomain(668).
cabinetDomain(669).
cabinetDomain(670).
cabinetDomain(671).
cabinetDomain(672).
cabinetDomain(673).
cabinetDomain(674).
cabinetDomain(675).
cabinetDomain(676).
cabinetDomain(677).
cabinetDomain(678).
cabinetDomain(679).
cabinetDomain(680).
cabinetDomain(681).
cabinetDomain(682).
cabinetDomain(683).
cabinetDomain(684).
cabinetDomain(685).
cabinetDomain(686).
cabinetDomain(687).
cabinetDomain(688).
cabinetDomain(689).
cabinetDomain(690).
cabinetDomain(691).
cabinetDomain(692).
cabinetDomain(693).
cabinetDomain(694).
cabinetDomain(695).
cabinetDomain(696).
cabinetDomain(697).
cabinetDomain(698).
cabinetDomain(699).
cabinetDomain(700).
cabinetDomain(701).
cabinetDomain(702).
cabinetDomain(703).
cabinetDomain(704).
cabinetDomain(705).
cabinetDomain(706).
cabinetDomain(707).
cabinetDomain(708).
cabinetDomain(709).
cabinetDomain(710).
cabinetDomain(711).
cabinetDomain(712).
cabinetDomain(713).
cabinetDomain(714).
cabinetDomain(715).
cabinetDomain(716).
cabinetDomain(717).
cabinetDomain(718).
cabinetDomain(719).
cabinetDomain(720).
cabinetDomain(721).
cabinetDomain(722).
cabinetDomain(723).
cabinetDomain(724).
cabinetDomain(725).
cabinetDomain(726).
cabinetDomain(727).
cabinetDomain(728).
cabinetDomain(729).
cabinetDomain(730).
cabinetDomain(731).
cabinetDomain(732).
cabinetDomain(733).
cabinetDomain(734).
cabinetDomain(735).
cabinetDomain(736).
cabinetDomain(737).
cabinetDomain(738).
cabinetDomain(739).
cabinetDomain(740).
cabinetDomain(741).
cabinetDomain(742).
cabinetDomain(743).
cabinetDomain(744).
cabinetDomain(745).
cabinetDomain(746).
cabinetDomain(747).
cabinetDomain(748).
cabinetDomain(749).
cabinetDomain(750).
cabinetDomain(751).
cabinetDomain(752).
cabinetDomain(753).
cabinetDomain(754).
cabinetDomain(755).
cabinetDomain(756).
cabinetDomain(757).
cabinetDomain(758).
cabinetDomain(759).
cabinetDomain(760).
cabinetDomain(761).
cabinetDomain(762).
cabinetDomain(763).
cabinetDomain(764).
cabinetDomain(765).
cabinetDomain(766).
cabinetDomain(767).
cabinetDomain(768).
cabinetDomain(769).
cabinetDomain(770).
cabinetDomain(771).
cabinetDomain(772).
cabinetDomain(773).
cabinetDomain(774).
cabinetDomain(775).
cabinetDomain(776).
cabinetDomain(777).
cabinetDomain(778).
cabinetDomain(779).
cabinetDomain(780).
cabinetDomain(781).
cabinetDomain(782).
cabinetDomain(783).
cabinetDomain(784).
cabinetDomain(785).
cabinetDomain(786).
cabinetDomain(787).
cabinetDomain(788).
cabinetDomain(789).
cabinetDomain(790).
cabinetDomain(791).
cabinetDomain(792).
cabinetDomain(793).
cabinetDomain(794).
cabinetDomain(795).
cabinetDomain(796).
cabinetDomain(797).
cabinetDomain(798).
cabinetDomain(799).
cabinetDomain(800).
roomDomain(1).
roomDomain(2).
roomDomain(3).
roomDomain(4).
roomDomain(5).
roomDomain(6).
roomDomain(7).
roomDomain(8).
roomDomain(9).
roomDomain(10).
roomDomain(11).
roomDomain(12).
roomDomain(13).
roomDomain(14).
roomDomain(15).
roomDomain(16).
roomDomain(17).
roomDomain(18).
roomDomain(19).
roomDomain(20).
roomDomain(21).
roomDomain(22).
roomDomain(23).
roomDomain(24).
roomDomain(25).
roomDomain(26).
roomDomain(27).
roomDomain(28).
roomDomain(29).
roomDomain(30).
roomDomain(31).
roomDomain(32).
roomDomain(33).
roomDomain(34).
roomDomain(35).
roomDomain(36).
roomDomain(37).
roomDomain(38).
roomDomain(39).
roomDomain(40).
roomDomain(41).
roomDomain(42).
roomDomain(43).
roomDomain(44).
roomDomain(45).
roomDomain(46).
roomDomain(47).
roomDomain(48).
roomDomain(49).
roomDomain(50).
roomDomain(51).
roomDomain(52).
roomDomain(53).
roomDomain(54).
roomDomain(55).
roomDomain(56).
roomDomain(57).
roomDomain(58).
roomDomain(59).
roomDomain(60).
roomDomain(61).
roomDomain(62).
roomDomain(63).
roomDomain(64).
roomDomain(65).
roomDomain(66).
roomDomain(67).
roomDomain(68).
roomDomain(69).
roomDomain(70).
roomDomain(71).
roomDomain(72).
roomDomain(73).
roomDomain(74).
roomDomain(75).
roomDomain(76).
roomDomain(77).
roomDomain(78).
roomDomain(79).
roomDomain(80).
roomDomain(81).
roomDomain(82).
roomDomain(83).
roomDomain(84).
roomDomain(85).
roomDomain(86).
roomDomain(87).
roomDomain(88).
roomDomain(89).
roomDomain(90).
roomDomain(91).
roomDomain(92).
roomDomain(93).
roomDomain(94).
roomDomain(95).
roomDomain(96).
roomDomain(97).
roomDomain(98).
roomDomain(99).
roomDomain(100).
roomDomain(101).
roomDomain(102).
roomDomain(103).
roomDomain(104).
roomDomain(105).
roomDomain(106).
roomDomain(107).
roomDomain(108).
roomDomain(109).
roomDomain(110).
roomDomain(111).
roomDomain(112).
roomDomain(113).
roomDomain(114).
roomDomain(115).
roomDomain(116).
roomDomain(117).
roomDomain(118).
roomDomain(119).
roomDomain(120).
roomDomain(121).
roomDomain(122).
roomDomain(123).
roomDomain(124).
roomDomain(125).
roomDomain(126).
roomDomain(127).
roomDomain(128).
roomDomain(129).
roomDomain(130).
roomDomain(131).
roomDomain(132).
roomDomain(133).
roomDomain(134).
roomDomain(135).
roomDomain(136).
roomDomain(137).
roomDomain(138).
roomDomain(139).
roomDomain(140).
roomDomain(141).
roomDomain(142).
roomDomain(143).
roomDomain(144).
roomDomain(145).
roomDomain(146).
roomDomain(147).
roomDomain(148).
roomDomain(149).
roomDomain(150).
roomDomain(151).
roomDomain(152).
roomDomain(153).
roomDomain(154).
roomDomain(155).
roomDomain(156).
roomDomain(157).
roomDomain(158).
roomDomain(159).
roomDomain(160).
roomDomain(161).
roomDomain(162).
roomDomain(163).
roomDomain(164).
roomDomain(165).
roomDomain(166).
roomDomain(167).
roomDomain(168).
roomDomain(169).
roomDomain(170).
roomDomain(171).
roomDomain(172).
roomDomain(173).
roomDomain(174).
roomDomain(175).
roomDomain(176).
roomDomain(177).
roomDomain(178).
roomDomain(179).
roomDomain(180).
roomDomain(181).
roomDomain(182).
roomDomain(183).
roomDomain(184).
roomDomain(185).
roomDomain(186).
roomDomain(187).
roomDomain(188).
roomDomain(189).
roomDomain(190).
roomDomain(191).
roomDomain(192).
roomDomain(193).
roomDomain(194).
roomDomain(195).
roomDomain(196).
roomDomain(197).
roomDomain(198).
roomDomain(199).
roomDomain(200).
