person(1).
person(2).
person(3).
person(4).
person(5).
person(6).
person(7).
person(8).
person(9).
person(10).
person(11).
person(12).
person(13).
person(14).
person(15).
person(16).
person(17).
person(18).
person(19).
person(20).
person(21).
person(22).
person(23).
person(24).
person(25).
person(26).
person(27).
person(28).
person(29).
person(30).
person(31).
person(32).
person(33).
person(34).
person(35).
person(36).
person(37).
person(38).
person(39).
person(40).
thing(1).
thing(2).
thing(3).
thing(4).
thing(5).
thing(6).
thing(7).
thing(8).
thing(9).
thing(10).
thing(11).
thing(12).
thing(13).
thing(14).
thing(15).
thing(16).
thing(17).
thing(18).
thing(19).
thing(20).
thing(21).
thing(22).
thing(23).
thing(24).
thing(25).
thing(26).
thing(27).
thing(28).
thing(30).
thing(31).
thing(32).
thing(33).
thing(34).
thing(35).
thing(36).
thing(37).
thing(38).
thing(39).
thing(40).
thing(41).
thing(42).
thing(43).
thing(45).
thing(46).
thing(47).
thing(48).
thing(49).
thing(50).
thing(51).
thing(54).
thing(55).
thing(56).
thing(57).
thing(60).
thing(61).
thing(62).
thing(63).
thing(64).
thing(67).
thing(68).
thing(69).
thing(70).
thing(71).
thing(72).
thing(73).
thing(74).
thing(75).
thing(76).
thing(77).
thing(81).
thing(82).
thing(85).
thing(87).
thing(90).
thing(91).
thing(92).
thing(93).
thing(94).
thing(95).
thing(96).
thing(97).
thing(98).
thing(99).
thing(100).
thing(101).
thing(102).
thing(103).
thing(104).
thing(107).
thing(111).
thing(114).
thing(115).
thing(116).
thing(117).
thing(118).
thing(119).
thing(120).
thing(121).
thing(124).
thing(125).
thing(129).
thing(130).
thing(131).
thing(132).
thing(133).
thing(134).
thing(135).
thing(136).
thing(137).
thing(138).
thing(139).
thing(143).
thing(144).
thing(146).
thing(147).
thing(150).
thing(153).
thing(157).
thing(158).
thing(159).
thing(160).
thing(161).
thing(162).
thing(163).
thing(165).
thing(166).
thing(167).
thing(168).
thing(170).
thing(171).
thing(172).
thing(173).
thing(174).
thing(175).
thing(176).
thing(177).
thing(180).
thing(181).
thing(182).
thing(183).
thing(184).
thing(185).
thing(186).
thing(187).
thing(188).
thing(189).
thing(190).
thing(191).
thing(195).
thing(196).
thing(197).
thing(198).
thing(199).
thing(202).
thing(203).
thing(204).
thing(205).
thing(206).
thing(209).
thing(210).
thing(211).
thing(212).
thing(214).
thing(215).
thing(216).
thing(217).
thing(218).
thing(219).
thing(220).
thing(221).
thing(222).
thing(223).
thing(225).
thing(226).
thing(228).
thing(229).
thing(230).
thing(231).
thing(232).
thing(233).
thing(234).
thing(236).
thing(239).
thing(240).
thing(241).
thing(242).
thing(243).
thing(244).
thing(245).
thing(246).
thing(250).
thing(251).
thing(252).
thing(254).
thing(255).
thing(256).
thing(257).
thing(260).
thing(261).
thing(262).
thing(263).
thing(264).
thing(265).
thing(266).
thing(267).
thing(269).
thing(270).
thing(271).
thing(274).
thing(275).
thing(276).
thing(277).
thing(278).
thing(279).
thing(281).
thing(282).
thing(283).
thing(284).
thing(285).
thing(286).
thing(287).
thing(288).
thing(289).
thing(290).
thing(291).
thing(292).
thing(293).
thing(294).
thing(295).
thing(299).
thing(302).
thing(303).
thing(304).
thing(305).
thing(306).
thing(307).
thing(308).
thing(309).
thing(310).
thing(311).
thing(312).
thing(313).
thing(314).
thing(315).
thing(316).
thing(317).
thing(318).
thing(319).
personTOthing(1,22).
personTOthing(1,23).
personTOthing(1,24).
personTOthing(1,25).
personTOthing(1,26).
personTOthing(1,27).
personTOthing(1,28).
personTOthing(1,180).
personTOthing(1,181).
personTOthing(1,182).
personTOthing(2,54).
personTOthing(2,55).
personTOthing(2,56).
personTOthing(2,57).
personTOthing(3,111).
personTOthing(3,225).
personTOthing(3,226).
personTOthing(3,269).
personTOthing(4,153).
personTOthing(4,162).
personTOthing(4,163).
personTOthing(5,209).
personTOthing(5,210).
personTOthing(5,211).
personTOthing(5,212).
personTOthing(6,233).
personTOthing(6,234).
personTOthing(6,236).
personTOthing(6,252).
personTOthing(7,302).
personTOthing(7,303).
personTOthing(7,304).
personTOthing(7,305).
personTOthing(7,306).
personTOthing(7,307).
personTOthing(7,308).
personTOthing(8,260).
personTOthing(8,261).
personTOthing(8,262).
personTOthing(8,263).
personTOthing(8,264).
personTOthing(8,265).
personTOthing(8,266).
personTOthing(8,267).
personTOthing(9,135).
personTOthing(9,136).
personTOthing(9,137).
personTOthing(9,138).
personTOthing(10,309).
personTOthing(10,310).
personTOthing(10,311).
personTOthing(10,312).
personTOthing(10,313).
personTOthing(10,314).
personTOthing(10,315).
personTOthing(10,316).
personTOthing(10,317).
personTOthing(11,30).
personTOthing(11,31).
personTOthing(11,32).
personTOthing(11,33).
personTOthing(12,114).
personTOthing(12,115).
personTOthing(12,116).
personTOthing(12,117).
personTOthing(12,118).
personTOthing(12,119).
personTOthing(12,120).
personTOthing(12,121).
personTOthing(13,107).
personTOthing(13,150).
personTOthing(14,139).
personTOthing(14,270).
personTOthing(14,271).
personTOthing(14,293).
personTOthing(14,294).
personTOthing(14,295).
personTOthing(15,77).
personTOthing(15,143).
personTOthing(15,144).
personTOthing(15,195).
personTOthing(15,196).
personTOthing(15,197).
personTOthing(15,198).
personTOthing(15,199).
personTOthing(16,124).
personTOthing(16,125).
personTOthing(16,146).
personTOthing(16,147).
personTOthing(16,228).
personTOthing(16,229).
personTOthing(16,230).
personTOthing(16,231).
personTOthing(16,232).
personTOthing(17,60).
personTOthing(17,61).
personTOthing(17,62).
personTOthing(17,63).
personTOthing(17,64).
personTOthing(18,10).
personTOthing(18,11).
personTOthing(19,165).
personTOthing(19,166).
personTOthing(19,167).
personTOthing(19,168).
personTOthing(20,12).
personTOthing(20,13).
personTOthing(20,14).
personTOthing(20,15).
personTOthing(20,16).
personTOthing(20,17).
personTOthing(20,18).
personTOthing(20,19).
personTOthing(20,20).
personTOthing(20,21).
personTOthing(21,1).
personTOthing(21,2).
personTOthing(21,3).
personTOthing(21,4).
personTOthing(21,5).
personTOthing(21,6).
personTOthing(21,7).
personTOthing(21,8).
personTOthing(21,9).
personTOthing(22,250).
personTOthing(22,251).
personTOthing(23,281).
personTOthing(23,282).
personTOthing(23,283).
personTOthing(23,284).
personTOthing(23,285).
personTOthing(23,286).
personTOthing(23,287).
personTOthing(24,274).
personTOthing(24,275).
personTOthing(24,276).
personTOthing(24,277).
personTOthing(24,278).
personTOthing(24,279).
personTOthing(25,87).
personTOthing(25,90).
personTOthing(25,91).
personTOthing(25,92).
personTOthing(25,93).
personTOthing(25,94).
personTOthing(25,95).
personTOthing(25,318).
personTOthing(25,319).
personTOthing(26,34).
personTOthing(26,35).
personTOthing(26,36).
personTOthing(26,37).
personTOthing(26,38).
personTOthing(26,39).
personTOthing(26,40).
personTOthing(26,41).
personTOthing(26,42).
personTOthing(26,43).
personTOthing(27,96).
personTOthing(27,97).
personTOthing(27,98).
personTOthing(27,99).
personTOthing(27,100).
personTOthing(27,101).
personTOthing(27,102).
personTOthing(27,103).
personTOthing(27,104).
personTOthing(28,245).
personTOthing(28,246).
personTOthing(29,157).
personTOthing(29,158).
personTOthing(29,159).
personTOthing(29,160).
personTOthing(29,161).
personTOthing(30,170).
personTOthing(30,171).
personTOthing(30,172).
personTOthing(30,173).
personTOthing(30,174).
personTOthing(31,81).
personTOthing(31,82).
personTOthing(31,239).
personTOthing(31,240).
personTOthing(31,241).
personTOthing(31,242).
personTOthing(31,243).
personTOthing(31,244).
personTOthing(31,299).
personTOthing(32,129).
personTOthing(32,130).
personTOthing(32,131).
personTOthing(32,132).
personTOthing(32,133).
personTOthing(32,134).
personTOthing(33,47).
personTOthing(33,48).
personTOthing(33,49).
personTOthing(33,50).
personTOthing(33,51).
personTOthing(34,175).
personTOthing(34,176).
personTOthing(34,177).
personTOthing(35,45).
personTOthing(35,46).
personTOthing(35,288).
personTOthing(35,289).
personTOthing(35,290).
personTOthing(35,291).
personTOthing(35,292).
personTOthing(36,202).
personTOthing(36,203).
personTOthing(36,204).
personTOthing(36,205).
personTOthing(36,206).
personTOthing(37,67).
personTOthing(37,68).
personTOthing(37,69).
personTOthing(37,70).
personTOthing(37,71).
personTOthing(37,72).
personTOthing(37,73).
personTOthing(37,74).
personTOthing(37,75).
personTOthing(37,76).
personTOthing(38,254).
personTOthing(38,255).
personTOthing(38,256).
personTOthing(38,257).
personTOthing(39,85).
personTOthing(39,183).
personTOthing(39,184).
personTOthing(39,185).
personTOthing(39,186).
personTOthing(39,187).
personTOthing(39,188).
personTOthing(39,189).
personTOthing(39,190).
personTOthing(39,191).
personTOthing(40,214).
personTOthing(40,215).
personTOthing(40,216).
personTOthing(40,217).
personTOthing(40,218).
personTOthing(40,219).
personTOthing(40,220).
personTOthing(40,221).
personTOthing(40,222).
personTOthing(40,223).
cabinetDomain(1).
cabinetDomain(2).
cabinetDomain(3).
cabinetDomain(4).
cabinetDomain(5).
cabinetDomain(6).
cabinetDomain(7).
cabinetDomain(8).
cabinetDomain(9).
cabinetDomain(10).
cabinetDomain(11).
cabinetDomain(12).
cabinetDomain(13).
cabinetDomain(14).
cabinetDomain(15).
cabinetDomain(16).
cabinetDomain(17).
cabinetDomain(18).
cabinetDomain(19).
cabinetDomain(20).
cabinetDomain(21).
cabinetDomain(22).
cabinetDomain(23).
cabinetDomain(24).
cabinetDomain(25).
cabinetDomain(26).
cabinetDomain(27).
cabinetDomain(28).
cabinetDomain(29).
cabinetDomain(30).
cabinetDomain(31).
cabinetDomain(32).
cabinetDomain(33).
cabinetDomain(34).
cabinetDomain(35).
cabinetDomain(36).
cabinetDomain(37).
cabinetDomain(38).
cabinetDomain(39).
cabinetDomain(40).
cabinetDomain(41).
cabinetDomain(42).
cabinetDomain(43).
cabinetDomain(44).
cabinetDomain(45).
cabinetDomain(46).
cabinetDomain(47).
cabinetDomain(48).
cabinetDomain(49).
cabinetDomain(50).
cabinetDomain(51).
cabinetDomain(52).
cabinetDomain(53).
cabinetDomain(54).
cabinetDomain(55).
cabinetDomain(56).
cabinetDomain(57).
cabinetDomain(58).
cabinetDomain(59).
cabinetDomain(60).
cabinetDomain(61).
cabinetDomain(62).
cabinetDomain(63).
cabinetDomain(64).
cabinetDomain(65).
cabinetDomain(66).
cabinetDomain(67).
cabinetDomain(68).
cabinetDomain(69).
cabinetDomain(70).
cabinetDomain(71).
cabinetDomain(72).
cabinetDomain(73).
cabinetDomain(74).
cabinetDomain(75).
cabinetDomain(76).
cabinetDomain(77).
cabinetDomain(78).
cabinetDomain(79).
cabinetDomain(80).
cabinetDomain(81).
cabinetDomain(82).
cabinetDomain(83).
cabinetDomain(84).
cabinetDomain(85).
cabinetDomain(86).
cabinetDomain(87).
cabinetDomain(88).
cabinetDomain(89).
cabinetDomain(90).
cabinetDomain(91).
cabinetDomain(92).
cabinetDomain(93).
cabinetDomain(94).
cabinetDomain(95).
cabinetDomain(96).
cabinetDomain(97).
cabinetDomain(98).
cabinetDomain(99).
cabinetDomain(100).
cabinetDomain(101).
cabinetDomain(102).
cabinetDomain(103).
cabinetDomain(104).
cabinetDomain(105).
cabinetDomain(106).
cabinetDomain(107).
cabinetDomain(108).
cabinetDomain(109).
cabinetDomain(110).
cabinetDomain(111).
cabinetDomain(112).
cabinetDomain(113).
cabinetDomain(114).
cabinetDomain(115).
cabinetDomain(116).
cabinetDomain(117).
cabinetDomain(118).
cabinetDomain(119).
cabinetDomain(120).
cabinetDomain(121).
cabinetDomain(122).
cabinetDomain(123).
cabinetDomain(124).
cabinetDomain(125).
cabinetDomain(126).
cabinetDomain(127).
cabinetDomain(128).
cabinetDomain(129).
cabinetDomain(130).
cabinetDomain(131).
cabinetDomain(132).
cabinetDomain(133).
cabinetDomain(134).
cabinetDomain(135).
cabinetDomain(136).
cabinetDomain(137).
cabinetDomain(138).
cabinetDomain(139).
cabinetDomain(140).
cabinetDomain(141).
cabinetDomain(142).
cabinetDomain(143).
cabinetDomain(144).
cabinetDomain(145).
cabinetDomain(146).
cabinetDomain(147).
cabinetDomain(148).
cabinetDomain(149).
cabinetDomain(150).
cabinetDomain(151).
cabinetDomain(152).
cabinetDomain(153).
cabinetDomain(154).
cabinetDomain(155).
cabinetDomain(156).
cabinetDomain(157).
cabinetDomain(158).
cabinetDomain(159).
cabinetDomain(160).
roomDomain(1).
roomDomain(2).
roomDomain(3).
roomDomain(4).
roomDomain(5).
roomDomain(6).
roomDomain(7).
roomDomain(8).
roomDomain(9).
roomDomain(10).
roomDomain(11).
roomDomain(12).
roomDomain(13).
roomDomain(14).
roomDomain(15).
roomDomain(16).
roomDomain(17).
roomDomain(18).
roomDomain(19).
roomDomain(20).
roomDomain(21).
roomDomain(22).
roomDomain(23).
roomDomain(24).
roomDomain(25).
roomDomain(26).
roomDomain(27).
roomDomain(28).
roomDomain(29).
roomDomain(30).
roomDomain(31).
roomDomain(32).
roomDomain(33).
roomDomain(34).
roomDomain(35).
roomDomain(36).
roomDomain(37).
roomDomain(38).
roomDomain(39).
roomDomain(40).
