person(1).
person(2).
person(3).
person(4).
person(5).
person(6).
person(7).
person(8).
person(9).
person(10).
person(11).
person(12).
person(13).
person(14).
person(15).
person(16).
person(17).
person(18).
person(19).
person(20).
person(21).
person(22).
person(23).
person(24).
person(25).
person(26).
person(27).
person(28).
person(29).
person(30).
person(31).
person(32).
person(33).
person(34).
person(35).
person(36).
person(37).
person(38).
person(39).
person(40).
person(41).
person(42).
person(43).
person(44).
person(45).
person(46).
person(47).
person(48).
person(49).
person(50).
person(51).
person(52).
person(53).
person(54).
person(55).
person(56).
person(57).
person(58).
person(59).
person(60).
person(61).
person(62).
person(63).
person(64).
person(65).
person(66).
person(67).
person(68).
person(69).
person(70).
person(71).
person(72).
person(73).
person(74).
person(75).
person(76).
person(77).
person(78).
person(79).
person(80).
person(81).
person(82).
person(83).
person(84).
person(85).
person(86).
person(87).
person(88).
person(89).
person(90).
person(91).
person(92).
person(93).
person(94).
person(95).
person(96).
person(97).
person(98).
person(99).
person(100).
thing(1).
thing(2).
thing(3).
thing(4).
thing(5).
thing(6).
thing(7).
thing(8).
thing(9).
thing(10).
thing(11).
thing(12).
thing(13).
thing(14).
thing(15).
thing(16).
thing(17).
thing(18).
thing(19).
thing(20).
thing(21).
thing(22).
thing(26).
thing(27).
thing(28).
thing(29).
thing(31).
thing(35).
thing(36).
thing(40).
thing(44).
thing(46).
thing(47).
thing(48).
thing(49).
thing(50).
thing(54).
thing(55).
thing(56).
thing(57).
thing(58).
thing(59).
thing(60).
thing(61).
thing(62).
thing(63).
thing(64).
thing(65).
thing(66).
thing(67).
thing(68).
thing(69).
thing(72).
thing(73).
thing(76).
thing(77).
thing(78).
thing(79).
thing(83).
thing(84).
thing(85).
thing(86).
thing(87).
thing(89).
thing(90).
thing(91).
thing(92).
thing(93).
thing(94).
thing(95).
thing(96).
thing(97).
thing(98).
thing(100).
thing(101).
thing(102).
thing(103).
thing(104).
thing(105).
thing(106).
thing(107).
thing(108).
thing(109).
thing(110).
thing(111).
thing(112).
thing(113).
thing(115).
thing(116).
thing(117).
thing(118).
thing(119).
thing(120).
thing(121).
thing(122).
thing(124).
thing(125).
thing(126).
thing(127).
thing(128).
thing(129).
thing(130).
thing(131).
thing(135).
thing(136).
thing(137).
thing(138).
thing(139).
thing(140).
thing(141).
thing(142).
thing(143).
thing(144).
thing(145).
thing(146).
thing(147).
thing(148).
thing(152).
thing(154).
thing(157).
thing(158).
thing(159).
thing(160).
thing(161).
thing(162).
thing(163).
thing(166).
thing(168).
thing(172).
thing(173).
thing(174).
thing(175).
thing(176).
thing(177).
thing(178).
thing(179).
thing(180).
thing(183).
thing(184).
thing(185).
thing(187).
thing(188).
thing(189).
thing(190).
thing(191).
thing(195).
thing(196).
thing(200).
thing(201).
thing(202).
thing(203).
thing(204).
thing(205).
thing(206).
thing(207).
thing(208).
thing(209).
thing(210).
thing(211).
thing(215).
thing(216).
thing(218).
thing(219).
thing(221).
thing(222).
thing(223).
thing(224).
thing(225).
thing(226).
thing(227).
thing(228).
thing(229).
thing(230).
thing(234).
thing(235).
thing(236).
thing(237).
thing(238).
thing(239).
thing(240).
thing(241).
thing(245).
thing(246).
thing(247).
thing(248).
thing(249).
thing(251).
thing(252).
thing(253).
thing(254).
thing(255).
thing(256).
thing(257).
thing(258).
thing(259).
thing(262).
thing(263).
thing(264).
thing(265).
thing(266).
thing(267).
thing(268).
thing(270).
thing(271).
thing(272).
thing(273).
thing(274).
thing(275).
thing(276).
thing(277).
thing(278).
thing(279).
thing(280).
thing(281).
thing(282).
thing(283).
thing(284).
thing(285).
thing(287).
thing(291).
thing(292).
thing(293).
thing(294).
thing(295).
thing(296).
thing(297).
thing(298).
thing(302).
thing(303).
thing(304).
thing(305).
thing(306).
thing(307).
thing(311).
thing(312).
thing(313).
thing(314).
thing(318).
thing(319).
thing(320).
thing(321).
thing(322).
thing(323).
thing(324).
thing(325).
thing(326).
thing(327).
thing(328).
thing(332).
thing(335).
thing(336).
thing(337).
thing(338).
thing(339).
thing(340).
thing(341).
thing(342).
thing(343).
thing(344).
thing(345).
thing(346).
thing(347).
thing(348).
thing(349).
thing(350).
thing(351).
thing(352).
thing(356).
thing(357).
thing(360).
thing(361).
thing(362).
thing(363).
thing(364).
thing(365).
thing(367).
thing(370).
thing(371).
thing(372).
thing(373).
thing(374).
thing(378).
thing(379).
thing(380).
thing(381).
thing(382).
thing(383).
thing(384).
thing(386).
thing(387).
thing(388).
thing(389).
thing(390).
thing(391).
thing(392).
thing(393).
thing(396).
thing(397).
thing(398).
thing(399).
thing(400).
thing(401).
thing(402).
thing(403).
thing(404).
thing(405).
thing(407).
thing(409).
thing(410).
thing(411).
thing(412).
thing(413).
thing(414).
thing(415).
thing(416).
thing(417).
thing(421).
thing(422).
thing(423).
thing(424).
thing(425).
thing(429).
thing(430).
thing(431).
thing(432).
thing(433).
thing(434).
thing(435).
thing(436).
thing(437).
thing(438).
thing(439).
thing(440).
thing(442).
thing(443).
thing(444).
thing(446).
thing(447).
thing(448).
thing(449).
thing(450).
thing(451).
thing(452).
thing(453).
thing(455).
thing(456).
thing(457).
thing(458).
thing(459).
thing(460).
thing(464).
thing(465).
thing(466).
thing(467).
thing(468).
thing(469).
thing(470).
thing(471).
thing(472).
thing(473).
thing(475).
thing(476).
thing(477).
thing(478).
thing(479).
thing(480).
thing(481).
thing(482).
thing(483).
thing(484).
thing(485).
thing(486).
thing(487).
thing(488).
thing(490).
thing(491).
thing(492).
thing(493).
thing(494).
thing(495).
thing(499).
thing(500).
thing(501).
thing(502).
thing(503).
thing(504).
thing(505).
thing(506).
thing(507).
thing(508).
thing(509).
thing(512).
thing(513).
thing(516).
thing(517).
thing(518).
thing(519).
thing(520).
thing(521).
thing(522).
thing(523).
thing(524).
thing(525).
thing(527).
thing(528).
thing(529).
thing(530).
thing(532).
thing(533).
thing(537).
thing(538).
thing(542).
thing(543).
thing(544).
thing(545).
thing(546).
thing(550).
thing(551).
thing(552).
thing(553).
thing(554).
thing(556).
thing(557).
thing(558).
thing(559).
thing(560).
thing(561).
thing(562).
thing(563).
thing(564).
thing(568).
thing(571).
thing(572).
thing(573).
thing(574).
thing(575).
thing(576).
thing(577).
thing(578).
thing(580).
thing(581).
thing(582).
thing(583).
thing(586).
thing(587).
thing(588).
thing(591).
thing(592).
thing(593).
thing(594).
thing(595).
thing(596).
thing(597).
thing(600).
thing(601).
thing(602).
thing(603).
thing(604).
thing(605).
thing(606).
thing(609).
thing(610).
thing(611).
thing(612).
thing(613).
thing(614).
thing(615).
thing(616).
thing(617).
thing(618).
thing(621).
thing(622).
thing(623).
thing(624).
thing(625).
thing(626).
thing(630).
thing(634).
thing(635).
thing(636).
thing(637).
thing(638).
thing(639).
thing(640).
thing(641).
thing(642).
thing(643).
thing(644).
thing(648).
thing(649).
thing(650).
thing(653).
thing(654).
thing(655).
thing(656).
thing(657).
thing(658).
thing(659).
thing(660).
thing(661).
thing(662).
thing(663).
thing(664).
thing(665).
thing(666).
thing(667).
thing(668).
thing(669).
thing(670).
thing(671).
thing(672).
thing(673).
thing(674).
thing(675).
thing(676).
thing(679).
thing(680).
thing(681).
thing(682).
thing(683).
thing(684).
thing(685).
thing(686).
thing(687).
thing(688).
thing(689).
thing(690).
thing(691).
thing(692).
thing(693).
thing(694).
thing(695).
thing(699).
thing(700).
thing(701).
thing(702).
thing(703).
thing(704).
thing(705).
thing(706).
thing(707).
thing(708).
thing(709).
thing(710).
thing(713).
thing(715).
thing(716).
thing(717).
thing(718).
thing(720).
thing(721).
thing(722).
thing(723).
thing(724).
thing(725).
thing(726).
thing(727).
thing(728).
thing(729).
thing(731).
thing(735).
thing(736).
thing(737).
thing(738).
thing(739).
thing(740).
thing(741).
thing(742).
thing(743).
thing(744).
thing(745).
thing(746).
thing(747).
thing(748).
thing(749).
thing(750).
thing(751).
thing(752).
thing(756).
thing(758).
thing(759).
thing(761).
thing(765).
thing(766).
thing(767).
thing(768).
thing(769).
thing(770).
thing(771).
thing(772).
thing(773).
thing(774).
thing(777).
thing(780).
thing(783).
thing(784).
thing(785).
thing(786).
thing(787).
thing(790).
thing(791).
thing(792).
thing(793).
thing(794).
thing(795).
thing(796).
thing(800).
thing(801).
thing(802).
thing(803).
thing(804).
thing(805).
thing(808).
thing(809).
thing(810).
thing(811).
thing(812).
thing(813).
thing(814).
thing(815).
thing(816).
thing(817).
thing(821).
thing(822).
personTOthing(1,648).
personTOthing(1,649).
personTOthing(2,744).
personTOthing(2,745).
personTOthing(2,746).
personTOthing(2,747).
personTOthing(2,748).
personTOthing(2,749).
personTOthing(2,750).
personTOthing(2,751).
personTOthing(2,752).
personTOthing(3,527).
personTOthing(3,528).
personTOthing(3,529).
personTOthing(3,530).
personTOthing(4,679).
personTOthing(4,680).
personTOthing(4,681).
personTOthing(4,682).
personTOthing(4,683).
personTOthing(4,684).
personTOthing(4,685).
personTOthing(4,686).
personTOthing(4,687).
personTOthing(4,688).
personTOthing(5,40).
personTOthing(5,168).
personTOthing(6,46).
personTOthing(6,47).
personTOthing(6,48).
personTOthing(6,49).
personTOthing(6,50).
personTOthing(7,234).
personTOthing(7,235).
personTOthing(7,236).
personTOthing(7,237).
personTOthing(7,238).
personTOthing(7,239).
personTOthing(7,240).
personTOthing(7,241).
personTOthing(8,421).
personTOthing(8,422).
personTOthing(8,423).
personTOthing(8,424).
personTOthing(8,425).
personTOthing(8,650).
personTOthing(9,621).
personTOthing(9,622).
personTOthing(9,623).
personTOthing(10,409).
personTOthing(10,410).
personTOthing(10,411).
personTOthing(10,412).
personTOthing(10,413).
personTOthing(10,414).
personTOthing(10,415).
personTOthing(10,416).
personTOthing(10,417).
personTOthing(11,765).
personTOthing(11,766).
personTOthing(11,767).
personTOthing(11,768).
personTOthing(11,769).
personTOthing(11,770).
personTOthing(11,771).
personTOthing(11,772).
personTOthing(11,773).
personTOthing(11,774).
personTOthing(12,72).
personTOthing(12,73).
personTOthing(13,318).
personTOthing(13,319).
personTOthing(13,320).
personTOthing(13,321).
personTOthing(13,322).
personTOthing(13,323).
personTOthing(13,324).
personTOthing(14,434).
personTOthing(14,435).
personTOthing(14,436).
personTOthing(14,437).
personTOthing(14,438).
personTOthing(14,439).
personTOthing(14,440).
personTOthing(14,586).
personTOthing(14,587).
personTOthing(14,588).
personTOthing(15,407).
personTOthing(15,499).
personTOthing(16,92).
personTOthing(16,93).
personTOthing(16,94).
personTOthing(16,95).
personTOthing(16,96).
personTOthing(16,97).
personTOthing(16,98).
personTOthing(17,253).
personTOthing(17,254).
personTOthing(17,255).
personTOthing(17,256).
personTOthing(17,257).
personTOthing(17,258).
personTOthing(17,259).
personTOthing(18,490).
personTOthing(18,491).
personTOthing(18,492).
personTOthing(18,493).
personTOthing(18,494).
personTOthing(18,495).
personTOthing(19,87).
personTOthing(19,325).
personTOthing(19,642).
personTOthing(19,643).
personTOthing(19,644).
personTOthing(20,218).
personTOthing(20,219).
personTOthing(21,187).
personTOthing(21,188).
personTOthing(21,189).
personTOthing(21,190).
personTOthing(21,191).
personTOthing(22,396).
personTOthing(22,397).
personTOthing(22,398).
personTOthing(22,399).
personTOthing(22,400).
personTOthing(22,401).
personTOthing(22,402).
personTOthing(22,403).
personTOthing(22,404).
personTOthing(22,405).
personTOthing(23,200).
personTOthing(23,201).
personTOthing(23,202).
personTOthing(23,203).
personTOthing(23,204).
personTOthing(23,205).
personTOthing(23,206).
personTOthing(23,207).
personTOthing(23,777).
personTOthing(24,35).
personTOthing(24,36).
personTOthing(25,26).
personTOthing(25,27).
personTOthing(25,28).
personTOthing(25,29).
personTOthing(25,245).
personTOthing(25,246).
personTOthing(25,247).
personTOthing(25,248).
personTOthing(25,249).
personTOthing(26,221).
personTOthing(26,222).
personTOthing(26,223).
personTOthing(26,224).
personTOthing(26,225).
personTOthing(26,226).
personTOthing(26,227).
personTOthing(26,228).
personTOthing(26,229).
personTOthing(27,208).
personTOthing(27,209).
personTOthing(27,210).
personTOthing(27,211).
personTOthing(28,459).
personTOthing(28,460).
personTOthing(28,568).
personTOthing(28,591).
personTOthing(28,592).
personTOthing(28,593).
personTOthing(28,594).
personTOthing(29,808).
personTOthing(29,809).
personTOthing(29,810).
personTOthing(29,811).
personTOthing(29,812).
personTOthing(29,813).
personTOthing(29,814).
personTOthing(29,815).
personTOthing(29,816).
personTOthing(29,817).
personTOthing(30,166).
personTOthing(30,251).
personTOthing(30,252).
personTOthing(30,780).
personTOthing(31,152).
personTOthing(31,756).
personTOthing(32,270).
personTOthing(32,271).
personTOthing(32,272).
personTOthing(32,273).
personTOthing(32,274).
personTOthing(32,275).
personTOthing(32,332).
personTOthing(32,618).
personTOthing(33,343).
personTOthing(33,344).
personTOthing(33,345).
personTOthing(33,346).
personTOthing(33,347).
personTOthing(33,348).
personTOthing(33,349).
personTOthing(33,350).
personTOthing(33,351).
personTOthing(33,352).
personTOthing(34,83).
personTOthing(34,84).
personTOthing(34,85).
personTOthing(34,86).
personTOthing(34,456).
personTOthing(34,457).
personTOthing(34,458).
personTOthing(34,595).
personTOthing(34,596).
personTOthing(34,597).
personTOthing(35,800).
personTOthing(35,801).
personTOthing(35,802).
personTOthing(35,803).
personTOthing(35,804).
personTOthing(35,805).
personTOthing(36,720).
personTOthing(36,721).
personTOthing(36,722).
personTOthing(36,723).
personTOthing(36,724).
personTOthing(36,725).
personTOthing(36,726).
personTOthing(36,727).
personTOthing(36,728).
personTOthing(36,729).
personTOthing(37,335).
personTOthing(37,336).
personTOthing(37,337).
personTOthing(37,338).
personTOthing(37,339).
personTOthing(37,340).
personTOthing(37,341).
personTOthing(37,342).
personTOthing(38,142).
personTOthing(38,143).
personTOthing(38,144).
personTOthing(38,145).
personTOthing(38,146).
personTOthing(38,147).
personTOthing(38,148).
personTOthing(39,262).
personTOthing(39,263).
personTOthing(39,264).
personTOthing(39,265).
personTOthing(39,266).
personTOthing(39,267).
personTOthing(39,268).
personTOthing(40,392).
personTOthing(40,393).
personTOthing(40,658).
personTOthing(40,659).
personTOthing(40,660).
personTOthing(40,661).
personTOthing(40,662).
personTOthing(41,464).
personTOthing(41,465).
personTOthing(41,466).
personTOthing(41,467).
personTOthing(41,468).
personTOthing(41,469).
personTOthing(41,470).
personTOthing(41,471).
personTOthing(41,472).
personTOthing(41,473).
personTOthing(42,196).
personTOthing(42,356).
personTOthing(42,357).
personTOthing(42,455).
personTOthing(43,653).
personTOthing(43,654).
personTOthing(43,655).
personTOthing(43,656).
personTOthing(43,657).
personTOthing(44,31).
personTOthing(44,157).
personTOthing(44,158).
personTOthing(44,159).
personTOthing(44,160).
personTOthing(44,161).
personTOthing(44,162).
personTOthing(44,163).
personTOthing(45,713).
personTOthing(45,731).
personTOthing(46,89).
personTOthing(46,90).
personTOthing(46,91).
personTOthing(46,287).
personTOthing(46,326).
personTOthing(46,327).
personTOthing(46,328).
personTOthing(47,600).
personTOthing(47,601).
personTOthing(47,602).
personTOthing(47,603).
personTOthing(47,604).
personTOthing(47,605).
personTOthing(47,606).
personTOthing(48,475).
personTOthing(48,476).
personTOthing(48,477).
personTOthing(48,478).
personTOthing(48,479).
personTOthing(48,480).
personTOthing(48,481).
personTOthing(48,482).
personTOthing(48,483).
personTOthing(49,111).
personTOthing(49,112).
personTOthing(49,113).
personTOthing(49,215).
personTOthing(49,216).
personTOthing(49,484).
personTOthing(49,485).
personTOthing(49,486).
personTOthing(49,487).
personTOthing(49,488).
personTOthing(50,790).
personTOthing(50,791).
personTOthing(50,792).
personTOthing(50,793).
personTOthing(50,794).
personTOthing(50,795).
personTOthing(50,796).
personTOthing(51,512).
personTOthing(51,513).
personTOthing(51,532).
personTOthing(51,533).
personTOthing(51,550).
personTOthing(51,551).
personTOthing(51,552).
personTOthing(51,553).
personTOthing(52,715).
personTOthing(52,716).
personTOthing(52,717).
personTOthing(52,718).
personTOthing(52,821).
personTOthing(53,172).
personTOthing(53,173).
personTOthing(53,174).
personTOthing(53,175).
personTOthing(53,176).
personTOthing(53,177).
personTOthing(53,178).
personTOthing(53,179).
personTOthing(53,180).
personTOthing(54,663).
personTOthing(54,664).
personTOthing(54,665).
personTOthing(54,666).
personTOthing(54,667).
personTOthing(55,689).
personTOthing(55,699).
personTOthing(56,124).
personTOthing(56,125).
personTOthing(56,126).
personTOthing(56,127).
personTOthing(56,128).
personTOthing(56,129).
personTOthing(56,130).
personTOthing(56,131).
personTOthing(57,360).
personTOthing(57,361).
personTOthing(57,362).
personTOthing(57,363).
personTOthing(57,364).
personTOthing(57,365).
personTOthing(58,115).
personTOthing(58,116).
personTOthing(58,117).
personTOthing(58,118).
personTOthing(58,119).
personTOthing(58,120).
personTOthing(58,121).
personTOthing(58,122).
personTOthing(59,516).
personTOthing(59,517).
personTOthing(59,518).
personTOthing(59,519).
personTOthing(59,520).
personTOthing(59,521).
personTOthing(59,522).
personTOthing(59,523).
personTOthing(59,524).
personTOthing(59,525).
personTOthing(60,276).
personTOthing(60,277).
personTOthing(60,278).
personTOthing(61,735).
personTOthing(61,736).
personTOthing(61,737).
personTOthing(61,738).
personTOthing(61,739).
personTOthing(61,740).
personTOthing(61,741).
personTOthing(61,742).
personTOthing(61,743).
personTOthing(62,556).
personTOthing(62,557).
personTOthing(62,558).
personTOthing(62,559).
personTOthing(62,560).
personTOthing(62,561).
personTOthing(62,562).
personTOthing(62,563).
personTOthing(62,564).
personTOthing(63,634).
personTOthing(63,635).
personTOthing(63,636).
personTOthing(63,637).
personTOthing(63,638).
personTOthing(63,639).
personTOthing(63,640).
personTOthing(63,641).
personTOthing(64,76).
personTOthing(64,154).
personTOthing(64,822).
personTOthing(65,54).
personTOthing(65,55).
personTOthing(65,367).
personTOthing(66,537).
personTOthing(66,538).
personTOthing(67,378).
personTOthing(67,379).
personTOthing(67,380).
personTOthing(67,381).
personTOthing(67,382).
personTOthing(67,383).
personTOthing(67,384).
personTOthing(68,429).
personTOthing(68,430).
personTOthing(68,431).
personTOthing(68,432).
personTOthing(68,433).
personTOthing(69,7).
personTOthing(69,8).
personTOthing(69,9).
personTOthing(69,10).
personTOthing(69,11).
personTOthing(69,12).
personTOthing(69,13).
personTOthing(70,279).
personTOthing(70,280).
personTOthing(70,281).
personTOthing(70,282).
personTOthing(70,283).
personTOthing(70,284).
personTOthing(70,285).
personTOthing(70,758).
personTOthing(70,759).
personTOthing(71,77).
personTOthing(71,78).
personTOthing(71,79).
personTOthing(72,370).
personTOthing(72,371).
personTOthing(72,372).
personTOthing(72,373).
personTOthing(72,374).
personTOthing(73,311).
personTOthing(73,312).
personTOthing(73,313).
personTOthing(73,314).
personTOthing(74,624).
personTOthing(74,625).
personTOthing(74,626).
personTOthing(75,708).
personTOthing(75,709).
personTOthing(75,710).
personTOthing(76,135).
personTOthing(76,136).
personTOthing(76,137).
personTOthing(76,138).
personTOthing(76,139).
personTOthing(76,140).
personTOthing(76,141).
personTOthing(77,195).
personTOthing(77,230).
personTOthing(78,44).
personTOthing(78,307).
personTOthing(78,630).
personTOthing(79,100).
personTOthing(79,101).
personTOthing(79,102).
personTOthing(79,103).
personTOthing(79,104).
personTOthing(79,105).
personTOthing(80,609).
personTOthing(80,610).
personTOthing(80,611).
personTOthing(80,612).
personTOthing(80,613).
personTOthing(80,614).
personTOthing(80,615).
personTOthing(80,616).
personTOthing(80,617).
personTOthing(81,446).
personTOthing(81,447).
personTOthing(81,448).
personTOthing(81,449).
personTOthing(81,450).
personTOthing(81,451).
personTOthing(81,452).
personTOthing(81,453).
personTOthing(82,500).
personTOthing(82,501).
personTOthing(82,502).
personTOthing(82,503).
personTOthing(82,504).
personTOthing(82,505).
personTOthing(82,506).
personTOthing(82,507).
personTOthing(82,508).
personTOthing(82,509).
personTOthing(83,668).
personTOthing(83,669).
personTOthing(83,670).
personTOthing(83,671).
personTOthing(83,672).
personTOthing(83,673).
personTOthing(83,674).
personTOthing(83,675).
personTOthing(83,676).
personTOthing(84,16).
personTOthing(84,17).
personTOthing(84,18).
personTOthing(84,19).
personTOthing(84,20).
personTOthing(84,21).
personTOthing(84,22).
personTOthing(85,580).
personTOthing(85,581).
personTOthing(85,582).
personTOthing(85,583).
personTOthing(86,183).
personTOthing(86,184).
personTOthing(86,185).
personTOthing(87,386).
personTOthing(87,387).
personTOthing(87,388).
personTOthing(87,389).
personTOthing(87,390).
personTOthing(87,391).
personTOthing(88,690).
personTOthing(88,691).
personTOthing(88,692).
personTOthing(88,693).
personTOthing(88,694).
personTOthing(88,695).
personTOthing(89,542).
personTOthing(89,543).
personTOthing(89,544).
personTOthing(89,545).
personTOthing(89,546).
personTOthing(90,302).
personTOthing(90,303).
personTOthing(90,304).
personTOthing(90,305).
personTOthing(90,306).
personTOthing(91,700).
personTOthing(91,701).
personTOthing(91,702).
personTOthing(91,703).
personTOthing(91,704).
personTOthing(91,705).
personTOthing(91,706).
personTOthing(91,707).
personTOthing(92,442).
personTOthing(92,443).
personTOthing(92,444).
personTOthing(93,571).
personTOthing(93,572).
personTOthing(93,573).
personTOthing(93,574).
personTOthing(93,575).
personTOthing(93,576).
personTOthing(93,577).
personTOthing(93,578).
personTOthing(94,14).
personTOthing(94,15).
personTOthing(95,783).
personTOthing(95,784).
personTOthing(95,785).
personTOthing(95,786).
personTOthing(95,787).
personTOthing(96,1).
personTOthing(96,2).
personTOthing(96,3).
personTOthing(96,4).
personTOthing(96,5).
personTOthing(96,6).
personTOthing(97,291).
personTOthing(97,292).
personTOthing(97,293).
personTOthing(97,294).
personTOthing(97,295).
personTOthing(97,296).
personTOthing(97,297).
personTOthing(97,298).
personTOthing(97,554).
personTOthing(97,761).
personTOthing(98,62).
personTOthing(98,63).
personTOthing(98,64).
personTOthing(98,65).
personTOthing(98,66).
personTOthing(98,67).
personTOthing(98,68).
personTOthing(98,69).
personTOthing(99,106).
personTOthing(99,107).
personTOthing(99,108).
personTOthing(99,109).
personTOthing(99,110).
personTOthing(100,56).
personTOthing(100,57).
personTOthing(100,58).
personTOthing(100,59).
personTOthing(100,60).
personTOthing(100,61).
cabinetDomain(1).
cabinetDomain(2).
cabinetDomain(3).
cabinetDomain(4).
cabinetDomain(5).
cabinetDomain(6).
cabinetDomain(7).
cabinetDomain(8).
cabinetDomain(9).
cabinetDomain(10).
cabinetDomain(11).
cabinetDomain(12).
cabinetDomain(13).
cabinetDomain(14).
cabinetDomain(15).
cabinetDomain(16).
cabinetDomain(17).
cabinetDomain(18).
cabinetDomain(19).
cabinetDomain(20).
cabinetDomain(21).
cabinetDomain(22).
cabinetDomain(23).
cabinetDomain(24).
cabinetDomain(25).
cabinetDomain(26).
cabinetDomain(27).
cabinetDomain(28).
cabinetDomain(29).
cabinetDomain(30).
cabinetDomain(31).
cabinetDomain(32).
cabinetDomain(33).
cabinetDomain(34).
cabinetDomain(35).
cabinetDomain(36).
cabinetDomain(37).
cabinetDomain(38).
cabinetDomain(39).
cabinetDomain(40).
cabinetDomain(41).
cabinetDomain(42).
cabinetDomain(43).
cabinetDomain(44).
cabinetDomain(45).
cabinetDomain(46).
cabinetDomain(47).
cabinetDomain(48).
cabinetDomain(49).
cabinetDomain(50).
cabinetDomain(51).
cabinetDomain(52).
cabinetDomain(53).
cabinetDomain(54).
cabinetDomain(55).
cabinetDomain(56).
cabinetDomain(57).
cabinetDomain(58).
cabinetDomain(59).
cabinetDomain(60).
cabinetDomain(61).
cabinetDomain(62).
cabinetDomain(63).
cabinetDomain(64).
cabinetDomain(65).
cabinetDomain(66).
cabinetDomain(67).
cabinetDomain(68).
cabinetDomain(69).
cabinetDomain(70).
cabinetDomain(71).
cabinetDomain(72).
cabinetDomain(73).
cabinetDomain(74).
cabinetDomain(75).
cabinetDomain(76).
cabinetDomain(77).
cabinetDomain(78).
cabinetDomain(79).
cabinetDomain(80).
cabinetDomain(81).
cabinetDomain(82).
cabinetDomain(83).
cabinetDomain(84).
cabinetDomain(85).
cabinetDomain(86).
cabinetDomain(87).
cabinetDomain(88).
cabinetDomain(89).
cabinetDomain(90).
cabinetDomain(91).
cabinetDomain(92).
cabinetDomain(93).
cabinetDomain(94).
cabinetDomain(95).
cabinetDomain(96).
cabinetDomain(97).
cabinetDomain(98).
cabinetDomain(99).
cabinetDomain(100).
cabinetDomain(101).
cabinetDomain(102).
cabinetDomain(103).
cabinetDomain(104).
cabinetDomain(105).
cabinetDomain(106).
cabinetDomain(107).
cabinetDomain(108).
cabinetDomain(109).
cabinetDomain(110).
cabinetDomain(111).
cabinetDomain(112).
cabinetDomain(113).
cabinetDomain(114).
cabinetDomain(115).
cabinetDomain(116).
cabinetDomain(117).
cabinetDomain(118).
cabinetDomain(119).
cabinetDomain(120).
cabinetDomain(121).
cabinetDomain(122).
cabinetDomain(123).
cabinetDomain(124).
cabinetDomain(125).
cabinetDomain(126).
cabinetDomain(127).
cabinetDomain(128).
cabinetDomain(129).
cabinetDomain(130).
cabinetDomain(131).
cabinetDomain(132).
cabinetDomain(133).
cabinetDomain(134).
cabinetDomain(135).
cabinetDomain(136).
cabinetDomain(137).
cabinetDomain(138).
cabinetDomain(139).
cabinetDomain(140).
cabinetDomain(141).
cabinetDomain(142).
cabinetDomain(143).
cabinetDomain(144).
cabinetDomain(145).
cabinetDomain(146).
cabinetDomain(147).
cabinetDomain(148).
cabinetDomain(149).
cabinetDomain(150).
cabinetDomain(151).
cabinetDomain(152).
cabinetDomain(153).
cabinetDomain(154).
cabinetDomain(155).
cabinetDomain(156).
cabinetDomain(157).
cabinetDomain(158).
cabinetDomain(159).
cabinetDomain(160).
cabinetDomain(161).
cabinetDomain(162).
cabinetDomain(163).
cabinetDomain(164).
cabinetDomain(165).
cabinetDomain(166).
cabinetDomain(167).
cabinetDomain(168).
cabinetDomain(169).
cabinetDomain(170).
cabinetDomain(171).
cabinetDomain(172).
cabinetDomain(173).
cabinetDomain(174).
cabinetDomain(175).
cabinetDomain(176).
cabinetDomain(177).
cabinetDomain(178).
cabinetDomain(179).
cabinetDomain(180).
cabinetDomain(181).
cabinetDomain(182).
cabinetDomain(183).
cabinetDomain(184).
cabinetDomain(185).
cabinetDomain(186).
cabinetDomain(187).
cabinetDomain(188).
cabinetDomain(189).
cabinetDomain(190).
cabinetDomain(191).
cabinetDomain(192).
cabinetDomain(193).
cabinetDomain(194).
cabinetDomain(195).
cabinetDomain(196).
cabinetDomain(197).
cabinetDomain(198).
cabinetDomain(199).
cabinetDomain(200).
cabinetDomain(201).
cabinetDomain(202).
cabinetDomain(203).
cabinetDomain(204).
cabinetDomain(205).
cabinetDomain(206).
cabinetDomain(207).
cabinetDomain(208).
cabinetDomain(209).
cabinetDomain(210).
cabinetDomain(211).
cabinetDomain(212).
cabinetDomain(213).
cabinetDomain(214).
cabinetDomain(215).
cabinetDomain(216).
cabinetDomain(217).
cabinetDomain(218).
cabinetDomain(219).
cabinetDomain(220).
cabinetDomain(221).
cabinetDomain(222).
cabinetDomain(223).
cabinetDomain(224).
cabinetDomain(225).
cabinetDomain(226).
cabinetDomain(227).
cabinetDomain(228).
cabinetDomain(229).
cabinetDomain(230).
cabinetDomain(231).
cabinetDomain(232).
cabinetDomain(233).
cabinetDomain(234).
cabinetDomain(235).
cabinetDomain(236).
cabinetDomain(237).
cabinetDomain(238).
cabinetDomain(239).
cabinetDomain(240).
cabinetDomain(241).
cabinetDomain(242).
cabinetDomain(243).
cabinetDomain(244).
cabinetDomain(245).
cabinetDomain(246).
cabinetDomain(247).
cabinetDomain(248).
cabinetDomain(249).
cabinetDomain(250).
cabinetDomain(251).
cabinetDomain(252).
cabinetDomain(253).
cabinetDomain(254).
cabinetDomain(255).
cabinetDomain(256).
cabinetDomain(257).
cabinetDomain(258).
cabinetDomain(259).
cabinetDomain(260).
cabinetDomain(261).
cabinetDomain(262).
cabinetDomain(263).
cabinetDomain(264).
cabinetDomain(265).
cabinetDomain(266).
cabinetDomain(267).
cabinetDomain(268).
cabinetDomain(269).
cabinetDomain(270).
cabinetDomain(271).
cabinetDomain(272).
cabinetDomain(273).
cabinetDomain(274).
cabinetDomain(275).
cabinetDomain(276).
cabinetDomain(277).
cabinetDomain(278).
cabinetDomain(279).
cabinetDomain(280).
cabinetDomain(281).
cabinetDomain(282).
cabinetDomain(283).
cabinetDomain(284).
cabinetDomain(285).
cabinetDomain(286).
cabinetDomain(287).
cabinetDomain(288).
cabinetDomain(289).
cabinetDomain(290).
cabinetDomain(291).
cabinetDomain(292).
cabinetDomain(293).
cabinetDomain(294).
cabinetDomain(295).
cabinetDomain(296).
cabinetDomain(297).
cabinetDomain(298).
cabinetDomain(299).
cabinetDomain(300).
cabinetDomain(301).
cabinetDomain(302).
cabinetDomain(303).
cabinetDomain(304).
cabinetDomain(305).
cabinetDomain(306).
cabinetDomain(307).
cabinetDomain(308).
cabinetDomain(309).
cabinetDomain(310).
cabinetDomain(311).
cabinetDomain(312).
cabinetDomain(313).
cabinetDomain(314).
cabinetDomain(315).
cabinetDomain(316).
cabinetDomain(317).
cabinetDomain(318).
cabinetDomain(319).
cabinetDomain(320).
cabinetDomain(321).
cabinetDomain(322).
cabinetDomain(323).
cabinetDomain(324).
cabinetDomain(325).
cabinetDomain(326).
cabinetDomain(327).
cabinetDomain(328).
cabinetDomain(329).
cabinetDomain(330).
cabinetDomain(331).
cabinetDomain(332).
cabinetDomain(333).
cabinetDomain(334).
cabinetDomain(335).
cabinetDomain(336).
cabinetDomain(337).
cabinetDomain(338).
cabinetDomain(339).
cabinetDomain(340).
cabinetDomain(341).
cabinetDomain(342).
cabinetDomain(343).
cabinetDomain(344).
cabinetDomain(345).
cabinetDomain(346).
cabinetDomain(347).
cabinetDomain(348).
cabinetDomain(349).
cabinetDomain(350).
cabinetDomain(351).
cabinetDomain(352).
cabinetDomain(353).
cabinetDomain(354).
cabinetDomain(355).
cabinetDomain(356).
cabinetDomain(357).
cabinetDomain(358).
cabinetDomain(359).
cabinetDomain(360).
cabinetDomain(361).
cabinetDomain(362).
cabinetDomain(363).
cabinetDomain(364).
cabinetDomain(365).
cabinetDomain(366).
cabinetDomain(367).
cabinetDomain(368).
cabinetDomain(369).
cabinetDomain(370).
cabinetDomain(371).
cabinetDomain(372).
cabinetDomain(373).
cabinetDomain(374).
cabinetDomain(375).
cabinetDomain(376).
cabinetDomain(377).
cabinetDomain(378).
cabinetDomain(379).
cabinetDomain(380).
cabinetDomain(381).
cabinetDomain(382).
cabinetDomain(383).
cabinetDomain(384).
cabinetDomain(385).
cabinetDomain(386).
cabinetDomain(387).
cabinetDomain(388).
cabinetDomain(389).
cabinetDomain(390).
cabinetDomain(391).
cabinetDomain(392).
cabinetDomain(393).
cabinetDomain(394).
cabinetDomain(395).
cabinetDomain(396).
cabinetDomain(397).
cabinetDomain(398).
cabinetDomain(399).
cabinetDomain(400).
roomDomain(1).
roomDomain(2).
roomDomain(3).
roomDomain(4).
roomDomain(5).
roomDomain(6).
roomDomain(7).
roomDomain(8).
roomDomain(9).
roomDomain(10).
roomDomain(11).
roomDomain(12).
roomDomain(13).
roomDomain(14).
roomDomain(15).
roomDomain(16).
roomDomain(17).
roomDomain(18).
roomDomain(19).
roomDomain(20).
roomDomain(21).
roomDomain(22).
roomDomain(23).
roomDomain(24).
roomDomain(25).
roomDomain(26).
roomDomain(27).
roomDomain(28).
roomDomain(29).
roomDomain(30).
roomDomain(31).
roomDomain(32).
roomDomain(33).
roomDomain(34).
roomDomain(35).
roomDomain(36).
roomDomain(37).
roomDomain(38).
roomDomain(39).
roomDomain(40).
roomDomain(41).
roomDomain(42).
roomDomain(43).
roomDomain(44).
roomDomain(45).
roomDomain(46).
roomDomain(47).
roomDomain(48).
roomDomain(49).
roomDomain(50).
roomDomain(51).
roomDomain(52).
roomDomain(53).
roomDomain(54).
roomDomain(55).
roomDomain(56).
roomDomain(57).
roomDomain(58).
roomDomain(59).
roomDomain(60).
roomDomain(61).
roomDomain(62).
roomDomain(63).
roomDomain(64).
roomDomain(65).
roomDomain(66).
roomDomain(67).
roomDomain(68).
roomDomain(69).
roomDomain(70).
roomDomain(71).
roomDomain(72).
roomDomain(73).
roomDomain(74).
roomDomain(75).
roomDomain(76).
roomDomain(77).
roomDomain(78).
roomDomain(79).
roomDomain(80).
roomDomain(81).
roomDomain(82).
roomDomain(83).
roomDomain(84).
roomDomain(85).
roomDomain(86).
roomDomain(87).
roomDomain(88).
roomDomain(89).
roomDomain(90).
roomDomain(91).
roomDomain(92).
roomDomain(93).
roomDomain(94).
roomDomain(95).
roomDomain(96).
roomDomain(97).
roomDomain(98).
roomDomain(99).
roomDomain(100).
