person(1).
person(2).
person(3).
person(4).
person(5).
person(6).
person(7).
person(8).
person(9).
person(10).
person(11).
person(12).
person(13).
person(14).
person(15).
person(16).
person(17).
person(18).
person(19).
person(20).
person(21).
person(22).
person(23).
person(24).
person(25).
person(26).
person(27).
person(28).
person(29).
person(30).
person(31).
person(32).
person(33).
person(34).
person(35).
person(36).
person(37).
person(38).
person(39).
person(40).
person(41).
person(42).
person(43).
person(44).
person(45).
person(46).
person(47).
person(48).
person(49).
person(50).
thing(1).
thing(2).
thing(5).
thing(6).
thing(7).
thing(8).
thing(9).
thing(10).
thing(11).
thing(12).
thing(13).
thing(14).
thing(15).
thing(16).
thing(17).
thing(18).
thing(19).
thing(22).
thing(23).
thing(24).
thing(25).
thing(26).
thing(27).
thing(28).
thing(29).
thing(30).
thing(31).
thing(32).
thing(36).
thing(37).
thing(38).
thing(39).
thing(40).
thing(41).
thing(42).
thing(46).
thing(49).
thing(50).
thing(51).
thing(52).
thing(53).
thing(54).
thing(55).
thing(59).
thing(61).
thing(62).
thing(65).
thing(66).
thing(67).
thing(68).
thing(69).
thing(70).
thing(71).
thing(74).
thing(76).
thing(77).
thing(78).
thing(79).
thing(83).
thing(84).
thing(85).
thing(86).
thing(87).
thing(88).
thing(89).
thing(90).
thing(91).
thing(93).
thing(97).
thing(101).
thing(103).
thing(104).
thing(105).
thing(106).
thing(109).
thing(110).
thing(111).
thing(112).
thing(114).
thing(115).
thing(116).
thing(117).
thing(118).
thing(119).
thing(120).
thing(121).
thing(122).
thing(123).
thing(125).
thing(128).
thing(129).
thing(133).
thing(134).
thing(135).
thing(136).
thing(137).
thing(138).
thing(139).
thing(140).
thing(141).
thing(144).
thing(145).
thing(146).
thing(147).
thing(148).
thing(149).
thing(150).
thing(151).
thing(154).
thing(158).
thing(159).
thing(160).
thing(161).
thing(164).
thing(165).
thing(166).
thing(167).
thing(171).
thing(172).
thing(175).
thing(176).
thing(177).
thing(180).
thing(181).
thing(182).
thing(183).
thing(184).
thing(185).
thing(189).
thing(190).
thing(191).
thing(192).
thing(193).
thing(194).
thing(195).
thing(196).
thing(199).
thing(200).
thing(201).
thing(202).
thing(203).
thing(204).
thing(205).
thing(206).
thing(207).
thing(208).
thing(209).
thing(210).
thing(211).
thing(212).
thing(213).
thing(214).
thing(215).
thing(216).
thing(219).
thing(220).
thing(221).
thing(222).
thing(223).
thing(224).
thing(225).
thing(226).
thing(227).
thing(231).
thing(232).
thing(233).
thing(235).
thing(237).
thing(238).
thing(241).
thing(242).
thing(246).
thing(247).
thing(248).
thing(249).
thing(250).
thing(251).
thing(252).
thing(253).
thing(254).
thing(255).
thing(258).
thing(259).
thing(260).
thing(262).
thing(264).
thing(265).
thing(266).
thing(267).
thing(268).
thing(269).
thing(270).
thing(271).
thing(272).
thing(273).
thing(274).
thing(275).
thing(276).
thing(277).
thing(278).
thing(279).
thing(280).
thing(281).
thing(282).
thing(283).
thing(284).
thing(285).
thing(286).
thing(287).
thing(291).
thing(292).
thing(293).
thing(294).
thing(295).
thing(296).
thing(297).
thing(298).
thing(300).
thing(301).
thing(302).
thing(303).
thing(304).
thing(305).
thing(306).
thing(307).
thing(308).
thing(311).
thing(314).
thing(315).
thing(316).
thing(317).
thing(318).
thing(322).
thing(324).
thing(326).
thing(327).
thing(328).
thing(329).
thing(330).
thing(331).
thing(332).
thing(333).
thing(334).
thing(336).
thing(337).
thing(338).
thing(339).
thing(340).
thing(344).
thing(345).
thing(346).
thing(347).
thing(350).
thing(351).
thing(352).
thing(353).
thing(354).
thing(355).
thing(356).
thing(357).
thing(360).
thing(361).
thing(362).
thing(363).
thing(364).
thing(368).
thing(369).
thing(371).
thing(372).
thing(373).
thing(374).
thing(375).
thing(376).
thing(377).
thing(378).
thing(379).
thing(380).
thing(381).
thing(382).
thing(383).
thing(384).
thing(385).
thing(386).
thing(389).
thing(390).
thing(391).
thing(392).
thing(393).
personTOthing(1,377).
personTOthing(1,378).
personTOthing(1,379).
personTOthing(1,380).
personTOthing(1,381).
personTOthing(2,165).
personTOthing(2,166).
personTOthing(2,167).
personTOthing(3,66).
personTOthing(3,67).
personTOthing(3,68).
personTOthing(3,69).
personTOthing(3,70).
personTOthing(3,71).
personTOthing(4,49).
personTOthing(4,50).
personTOthing(4,51).
personTOthing(4,52).
personTOthing(4,53).
personTOthing(4,54).
personTOthing(4,55).
personTOthing(5,207).
personTOthing(5,208).
personTOthing(5,209).
personTOthing(5,210).
personTOthing(5,211).
personTOthing(5,212).
personTOthing(5,213).
personTOthing(5,214).
personTOthing(5,215).
personTOthing(5,216).
personTOthing(6,231).
personTOthing(6,232).
personTOthing(6,371).
personTOthing(6,372).
personTOthing(6,373).
personTOthing(6,374).
personTOthing(6,375).
personTOthing(6,376).
personTOthing(7,83).
personTOthing(7,154).
personTOthing(7,199).
personTOthing(7,200).
personTOthing(7,201).
personTOthing(7,202).
personTOthing(7,203).
personTOthing(7,204).
personTOthing(7,205).
personTOthing(7,206).
personTOthing(8,291).
personTOthing(8,292).
personTOthing(9,5).
personTOthing(9,6).
personTOthing(9,7).
personTOthing(9,8).
personTOthing(9,9).
personTOthing(9,10).
personTOthing(9,11).
personTOthing(9,12).
personTOthing(9,13).
personTOthing(10,144).
personTOthing(10,145).
personTOthing(10,146).
personTOthing(10,147).
personTOthing(10,148).
personTOthing(10,149).
personTOthing(10,150).
personTOthing(10,151).
personTOthing(11,326).
personTOthing(11,327).
personTOthing(11,328).
personTOthing(11,329).
personTOthing(11,330).
personTOthing(11,331).
personTOthing(11,332).
personTOthing(11,333).
personTOthing(11,334).
personTOthing(12,389).
personTOthing(12,390).
personTOthing(12,391).
personTOthing(12,392).
personTOthing(12,393).
personTOthing(13,282).
personTOthing(13,283).
personTOthing(13,284).
personTOthing(13,285).
personTOthing(13,286).
personTOthing(13,287).
personTOthing(14,314).
personTOthing(14,315).
personTOthing(14,316).
personTOthing(14,317).
personTOthing(14,318).
personTOthing(15,180).
personTOthing(15,181).
personTOthing(15,182).
personTOthing(15,183).
personTOthing(15,184).
personTOthing(15,185).
personTOthing(16,219).
personTOthing(16,220).
personTOthing(16,221).
personTOthing(16,222).
personTOthing(16,223).
personTOthing(16,224).
personTOthing(16,225).
personTOthing(17,189).
personTOthing(17,190).
personTOthing(17,191).
personTOthing(17,192).
personTOthing(17,193).
personTOthing(17,194).
personTOthing(17,195).
personTOthing(17,196).
personTOthing(18,296).
personTOthing(18,297).
personTOthing(18,298).
personTOthing(19,74).
personTOthing(19,128).
personTOthing(19,129).
personTOthing(20,246).
personTOthing(20,247).
personTOthing(20,248).
personTOthing(20,249).
personTOthing(20,250).
personTOthing(20,251).
personTOthing(20,252).
personTOthing(20,253).
personTOthing(20,254).
personTOthing(20,255).
personTOthing(21,382).
personTOthing(21,383).
personTOthing(21,384).
personTOthing(21,385).
personTOthing(21,386).
personTOthing(22,101).
personTOthing(22,175).
personTOthing(22,176).
personTOthing(22,177).
personTOthing(22,273).
personTOthing(23,233).
personTOthing(23,235).
personTOthing(23,311).
personTOthing(24,158).
personTOthing(24,159).
personTOthing(24,160).
personTOthing(24,161).
personTOthing(25,61).
personTOthing(25,62).
personTOthing(26,24).
personTOthing(26,25).
personTOthing(26,26).
personTOthing(26,27).
personTOthing(26,28).
personTOthing(26,29).
personTOthing(26,30).
personTOthing(26,31).
personTOthing(26,32).
personTOthing(27,300).
personTOthing(27,301).
personTOthing(27,302).
personTOthing(27,303).
personTOthing(27,304).
personTOthing(27,305).
personTOthing(27,306).
personTOthing(27,307).
personTOthing(27,308).
personTOthing(28,344).
personTOthing(28,345).
personTOthing(28,346).
personTOthing(28,347).
personTOthing(29,293).
personTOthing(29,294).
personTOthing(29,295).
personTOthing(30,278).
personTOthing(30,279).
personTOthing(30,280).
personTOthing(30,281).
personTOthing(31,354).
personTOthing(31,355).
personTOthing(31,356).
personTOthing(31,357).
personTOthing(32,1).
personTOthing(32,2).
personTOthing(32,241).
personTOthing(32,242).
personTOthing(33,114).
personTOthing(33,115).
personTOthing(33,116).
personTOthing(33,117).
personTOthing(33,118).
personTOthing(33,119).
personTOthing(33,120).
personTOthing(33,121).
personTOthing(33,122).
personTOthing(33,123).
personTOthing(34,36).
personTOthing(34,37).
personTOthing(34,38).
personTOthing(34,39).
personTOthing(34,40).
personTOthing(34,41).
personTOthing(34,42).
personTOthing(35,46).
personTOthing(35,171).
personTOthing(35,172).
personTOthing(36,264).
personTOthing(36,265).
personTOthing(36,266).
personTOthing(36,267).
personTOthing(36,268).
personTOthing(36,269).
personTOthing(36,270).
personTOthing(36,271).
personTOthing(36,272).
personTOthing(37,76).
personTOthing(37,77).
personTOthing(37,78).
personTOthing(37,79).
personTOthing(37,125).
personTOthing(38,360).
personTOthing(38,361).
personTOthing(38,362).
personTOthing(38,363).
personTOthing(38,364).
personTOthing(39,133).
personTOthing(39,134).
personTOthing(39,135).
personTOthing(39,136).
personTOthing(39,137).
personTOthing(39,138).
personTOthing(39,139).
personTOthing(39,140).
personTOthing(39,141).
personTOthing(39,164).
personTOthing(40,368).
personTOthing(40,369).
personTOthing(41,258).
personTOthing(41,259).
personTOthing(41,260).
personTOthing(41,274).
personTOthing(41,275).
personTOthing(41,276).
personTOthing(41,277).
personTOthing(42,84).
personTOthing(42,85).
personTOthing(42,86).
personTOthing(42,87).
personTOthing(42,88).
personTOthing(42,89).
personTOthing(42,90).
personTOthing(42,91).
personTOthing(43,14).
personTOthing(43,15).
personTOthing(43,16).
personTOthing(43,17).
personTOthing(43,18).
personTOthing(43,19).
personTOthing(44,103).
personTOthing(44,104).
personTOthing(44,105).
personTOthing(44,106).
personTOthing(45,322).
personTOthing(45,324).
personTOthing(46,93).
personTOthing(46,97).
personTOthing(46,262).
personTOthing(47,22).
personTOthing(47,23).
personTOthing(47,59).
personTOthing(47,336).
personTOthing(47,337).
personTOthing(47,338).
personTOthing(47,339).
personTOthing(47,340).
personTOthing(48,226).
personTOthing(48,227).
personTOthing(49,65).
personTOthing(49,237).
personTOthing(49,238).
personTOthing(49,350).
personTOthing(49,351).
personTOthing(49,352).
personTOthing(49,353).
personTOthing(50,109).
personTOthing(50,110).
personTOthing(50,111).
personTOthing(50,112).
cabinetDomain(1).
cabinetDomain(2).
cabinetDomain(3).
cabinetDomain(4).
cabinetDomain(5).
cabinetDomain(6).
cabinetDomain(7).
cabinetDomain(8).
cabinetDomain(9).
cabinetDomain(10).
cabinetDomain(11).
cabinetDomain(12).
cabinetDomain(13).
cabinetDomain(14).
cabinetDomain(15).
cabinetDomain(16).
cabinetDomain(17).
cabinetDomain(18).
cabinetDomain(19).
cabinetDomain(20).
cabinetDomain(21).
cabinetDomain(22).
cabinetDomain(23).
cabinetDomain(24).
cabinetDomain(25).
cabinetDomain(26).
cabinetDomain(27).
cabinetDomain(28).
cabinetDomain(29).
cabinetDomain(30).
cabinetDomain(31).
cabinetDomain(32).
cabinetDomain(33).
cabinetDomain(34).
cabinetDomain(35).
cabinetDomain(36).
cabinetDomain(37).
cabinetDomain(38).
cabinetDomain(39).
cabinetDomain(40).
cabinetDomain(41).
cabinetDomain(42).
cabinetDomain(43).
cabinetDomain(44).
cabinetDomain(45).
cabinetDomain(46).
cabinetDomain(47).
cabinetDomain(48).
cabinetDomain(49).
cabinetDomain(50).
cabinetDomain(51).
cabinetDomain(52).
cabinetDomain(53).
cabinetDomain(54).
cabinetDomain(55).
cabinetDomain(56).
cabinetDomain(57).
cabinetDomain(58).
cabinetDomain(59).
cabinetDomain(60).
cabinetDomain(61).
cabinetDomain(62).
cabinetDomain(63).
cabinetDomain(64).
cabinetDomain(65).
cabinetDomain(66).
cabinetDomain(67).
cabinetDomain(68).
cabinetDomain(69).
cabinetDomain(70).
cabinetDomain(71).
cabinetDomain(72).
cabinetDomain(73).
cabinetDomain(74).
cabinetDomain(75).
cabinetDomain(76).
cabinetDomain(77).
cabinetDomain(78).
cabinetDomain(79).
cabinetDomain(80).
cabinetDomain(81).
cabinetDomain(82).
cabinetDomain(83).
cabinetDomain(84).
cabinetDomain(85).
cabinetDomain(86).
cabinetDomain(87).
cabinetDomain(88).
cabinetDomain(89).
cabinetDomain(90).
cabinetDomain(91).
cabinetDomain(92).
cabinetDomain(93).
cabinetDomain(94).
cabinetDomain(95).
cabinetDomain(96).
cabinetDomain(97).
cabinetDomain(98).
cabinetDomain(99).
cabinetDomain(100).
cabinetDomain(101).
cabinetDomain(102).
cabinetDomain(103).
cabinetDomain(104).
cabinetDomain(105).
cabinetDomain(106).
cabinetDomain(107).
cabinetDomain(108).
cabinetDomain(109).
cabinetDomain(110).
cabinetDomain(111).
cabinetDomain(112).
cabinetDomain(113).
cabinetDomain(114).
cabinetDomain(115).
cabinetDomain(116).
cabinetDomain(117).
cabinetDomain(118).
cabinetDomain(119).
cabinetDomain(120).
cabinetDomain(121).
cabinetDomain(122).
cabinetDomain(123).
cabinetDomain(124).
cabinetDomain(125).
cabinetDomain(126).
cabinetDomain(127).
cabinetDomain(128).
cabinetDomain(129).
cabinetDomain(130).
cabinetDomain(131).
cabinetDomain(132).
cabinetDomain(133).
cabinetDomain(134).
cabinetDomain(135).
cabinetDomain(136).
cabinetDomain(137).
cabinetDomain(138).
cabinetDomain(139).
cabinetDomain(140).
cabinetDomain(141).
cabinetDomain(142).
cabinetDomain(143).
cabinetDomain(144).
cabinetDomain(145).
cabinetDomain(146).
cabinetDomain(147).
cabinetDomain(148).
cabinetDomain(149).
cabinetDomain(150).
cabinetDomain(151).
cabinetDomain(152).
cabinetDomain(153).
cabinetDomain(154).
cabinetDomain(155).
cabinetDomain(156).
cabinetDomain(157).
cabinetDomain(158).
cabinetDomain(159).
cabinetDomain(160).
cabinetDomain(161).
cabinetDomain(162).
cabinetDomain(163).
cabinetDomain(164).
cabinetDomain(165).
cabinetDomain(166).
cabinetDomain(167).
cabinetDomain(168).
cabinetDomain(169).
cabinetDomain(170).
cabinetDomain(171).
cabinetDomain(172).
cabinetDomain(173).
cabinetDomain(174).
cabinetDomain(175).
cabinetDomain(176).
cabinetDomain(177).
cabinetDomain(178).
cabinetDomain(179).
cabinetDomain(180).
cabinetDomain(181).
cabinetDomain(182).
cabinetDomain(183).
cabinetDomain(184).
cabinetDomain(185).
cabinetDomain(186).
cabinetDomain(187).
cabinetDomain(188).
cabinetDomain(189).
cabinetDomain(190).
cabinetDomain(191).
cabinetDomain(192).
cabinetDomain(193).
cabinetDomain(194).
cabinetDomain(195).
cabinetDomain(196).
cabinetDomain(197).
cabinetDomain(198).
cabinetDomain(199).
cabinetDomain(200).
roomDomain(1).
roomDomain(2).
roomDomain(3).
roomDomain(4).
roomDomain(5).
roomDomain(6).
roomDomain(7).
roomDomain(8).
roomDomain(9).
roomDomain(10).
roomDomain(11).
roomDomain(12).
roomDomain(13).
roomDomain(14).
roomDomain(15).
roomDomain(16).
roomDomain(17).
roomDomain(18).
roomDomain(19).
roomDomain(20).
roomDomain(21).
roomDomain(22).
roomDomain(23).
roomDomain(24).
roomDomain(25).
roomDomain(26).
roomDomain(27).
roomDomain(28).
roomDomain(29).
roomDomain(30).
roomDomain(31).
roomDomain(32).
roomDomain(33).
roomDomain(34).
roomDomain(35).
roomDomain(36).
roomDomain(37).
roomDomain(38).
roomDomain(39).
roomDomain(40).
roomDomain(41).
roomDomain(42).
roomDomain(43).
roomDomain(44).
roomDomain(45).
roomDomain(46).
roomDomain(47).
roomDomain(48).
roomDomain(49).
roomDomain(50).
