person(1).
person(2).
person(3).
person(4).
person(5).
person(6).
person(7).
person(8).
person(9).
person(10).
thing(1).
thing(3).
thing(4).
thing(5).
thing(6).
thing(7).
thing(8).
thing(9).
thing(10).
thing(13).
thing(14).
thing(15).
thing(16).
thing(17).
thing(18).
thing(19).
thing(20).
thing(21).
thing(24).
thing(25).
thing(26).
thing(29).
thing(30).
thing(31).
thing(32).
thing(33).
thing(34).
thing(37).
thing(38).
thing(39).
thing(40).
thing(41).
thing(42).
thing(44).
thing(45).
thing(46).
thing(47).
thing(48).
thing(49).
thing(50).
thing(51).
thing(52).
thing(53).
thing(54).
thing(55).
thing(56).
thing(57).
thing(58).
thing(59).
thing(60).
thing(61).
thing(62).
thing(63).
thing(64).
thing(65).
thing(66).
thing(67).
thing(68).
thing(69).
thing(72).
thing(75).
thing(76).
thing(77).
thing(78).
thing(79).
thing(80).
thing(81).
thing(82).
thing(83).
thing(84).
personTOthing(1,13).
personTOthing(1,14).
personTOthing(1,15).
personTOthing(1,16).
personTOthing(1,17).
personTOthing(1,18).
personTOthing(1,19).
personTOthing(1,20).
personTOthing(1,21).
personTOthing(2,3).
personTOthing(2,4).
personTOthing(2,5).
personTOthing(2,6).
personTOthing(2,7).
personTOthing(2,8).
personTOthing(2,9).
personTOthing(2,10).
personTOthing(3,1).
personTOthing(3,72).
personTOthing(4,37).
personTOthing(4,38).
personTOthing(4,39).
personTOthing(4,40).
personTOthing(4,41).
personTOthing(4,42).
personTOthing(5,24).
personTOthing(5,25).
personTOthing(5,26).
personTOthing(6,75).
personTOthing(6,76).
personTOthing(6,77).
personTOthing(6,78).
personTOthing(6,79).
personTOthing(6,80).
personTOthing(6,81).
personTOthing(6,82).
personTOthing(6,83).
personTOthing(6,84).
personTOthing(7,62).
personTOthing(7,63).
personTOthing(7,64).
personTOthing(7,65).
personTOthing(7,66).
personTOthing(7,67).
personTOthing(7,68).
personTOthing(7,69).
personTOthing(8,54).
personTOthing(8,55).
personTOthing(8,56).
personTOthing(8,57).
personTOthing(8,58).
personTOthing(8,59).
personTOthing(8,60).
personTOthing(8,61).
personTOthing(9,29).
personTOthing(9,30).
personTOthing(9,31).
personTOthing(9,32).
personTOthing(9,33).
personTOthing(9,34).
personTOthing(10,44).
personTOthing(10,45).
personTOthing(10,46).
personTOthing(10,47).
personTOthing(10,48).
personTOthing(10,49).
personTOthing(10,50).
personTOthing(10,51).
personTOthing(10,52).
personTOthing(10,53).
cabinetDomain(1).
cabinetDomain(2).
cabinetDomain(3).
cabinetDomain(4).
cabinetDomain(5).
cabinetDomain(6).
cabinetDomain(7).
cabinetDomain(8).
cabinetDomain(9).
cabinetDomain(10).
cabinetDomain(11).
cabinetDomain(12).
cabinetDomain(13).
cabinetDomain(14).
cabinetDomain(15).
cabinetDomain(16).
cabinetDomain(17).
cabinetDomain(18).
cabinetDomain(19).
cabinetDomain(20).
cabinetDomain(21).
cabinetDomain(22).
cabinetDomain(23).
cabinetDomain(24).
cabinetDomain(25).
cabinetDomain(26).
cabinetDomain(27).
cabinetDomain(28).
cabinetDomain(29).
cabinetDomain(30).
cabinetDomain(31).
cabinetDomain(32).
cabinetDomain(33).
cabinetDomain(34).
cabinetDomain(35).
cabinetDomain(36).
cabinetDomain(37).
cabinetDomain(38).
cabinetDomain(39).
cabinetDomain(40).
roomDomain(1).
roomDomain(2).
roomDomain(3).
roomDomain(4).
roomDomain(5).
roomDomain(6).
roomDomain(7).
roomDomain(8).
roomDomain(9).
roomDomain(10).
