node(1).
node(10).
node(100).
node(101).
node(102).
node(103).
node(104).
node(105).
node(106).
node(107).
node(108).
node(109).
node(11).
node(110).
node(111).
node(112).
node(113).
node(114).
node(115).
node(116).
node(117).
node(118).
node(119).
node(12).
node(120).
node(121).
node(122).
node(123).
node(124).
node(125).
node(126).
node(127).
node(128).
node(129).
node(13).
node(130).
node(131).
node(132).
node(133).
node(134).
node(135).
node(136).
node(137).
node(138).
node(139).
node(14).
node(140).
node(141).
node(142).
node(143).
node(144).
node(145).
node(146).
node(147).
node(148).
node(149).
node(15).
node(150).
node(151).
node(152).
node(153).
node(154).
node(155).
node(156).
node(157).
node(158).
node(159).
node(16).
node(160).
node(161).
node(162).
node(163).
node(164).
node(165).
node(166).
node(167).
node(168).
node(169).
node(17).
node(170).
node(171).
node(172).
node(173).
node(174).
node(175).
node(176).
node(177).
node(178).
node(179).
node(18).
node(180).
node(181).
node(182).
node(183).
node(184).
node(185).
node(186).
node(187).
node(188).
node(189).
node(19).
node(190).
node(191).
node(192).
node(193).
node(194).
node(195).
node(196).
node(197).
node(198).
node(199).
node(2).
node(20).
node(200).
node(201).
node(202).
node(203).
node(204).
node(205).
node(206).
node(207).
node(208).
node(209).
node(21).
node(210).
node(211).
node(212).
node(213).
node(214).
node(215).
node(216).
node(217).
node(218).
node(219).
node(22).
node(220).
node(221).
node(222).
node(223).
node(224).
node(225).
node(226).
node(227).
node(228).
node(229).
node(23).
node(230).
node(231).
node(232).
node(233).
node(234).
node(235).
node(236).
node(237).
node(238).
node(239).
node(24).
node(240).
node(241).
node(242).
node(243).
node(244).
node(245).
node(246).
node(247).
node(248).
node(249).
node(25).
node(250).
node(251).
node(252).
node(253).
node(254).
node(255).
node(256).
node(257).
node(258).
node(259).
node(26).
node(260).
node(261).
node(262).
node(263).
node(264).
node(265).
node(266).
node(267).
node(268).
node(269).
node(27).
node(270).
node(271).
node(272).
node(273).
node(274).
node(275).
node(276).
node(277).
node(278).
node(279).
node(28).
node(280).
node(281).
node(282).
node(283).
node(284).
node(285).
node(286).
node(287).
node(288).
node(289).
node(29).
node(290).
node(291).
node(292).
node(293).
node(294).
node(295).
node(296).
node(297).
node(298).
node(299).
node(3).
node(30).
node(300).
node(301).
node(302).
node(303).
node(304).
node(305).
node(306).
node(307).
node(308).
node(309).
node(31).
node(310).
node(311).
node(312).
node(313).
node(314).
node(315).
node(316).
node(317).
node(318).
node(319).
node(32).
node(320).
node(321).
node(322).
node(323).
node(324).
node(325).
node(326).
node(327).
node(328).
node(329).
node(33).
node(330).
node(331).
node(332).
node(333).
node(334).
node(335).
node(336).
node(337).
node(338).
node(339).
node(34).
node(340).
node(341).
node(342).
node(343).
node(344).
node(345).
node(346).
node(347).
node(348).
node(349).
node(35).
node(350).
node(351).
node(352).
node(353).
node(354).
node(355).
node(356).
node(357).
node(358).
node(359).
node(36).
node(360).
node(361).
node(362).
node(363).
node(364).
node(365).
node(366).
node(367).
node(368).
node(369).
node(37).
node(370).
node(371).
node(372).
node(373).
node(374).
node(375).
node(376).
node(377).
node(378).
node(379).
node(38).
node(380).
node(381).
node(382).
node(383).
node(384).
node(385).
node(386).
node(387).
node(388).
node(389).
node(39).
node(390).
node(391).
node(392).
node(393).
node(394).
node(395).
node(396).
node(397).
node(398).
node(399).
node(4).
node(40).
node(400).
node(401).
node(402).
node(403).
node(404).
node(405).
node(406).
node(407).
node(408).
node(409).
node(41).
node(410).
node(411).
node(412).
node(413).
node(414).
node(415).
node(416).
node(417).
node(418).
node(419).
node(42).
node(420).
node(421).
node(422).
node(423).
node(424).
node(425).
node(426).
node(427).
node(428).
node(429).
node(43).
node(430).
node(431).
node(432).
node(433).
node(434).
node(435).
node(436).
node(437).
node(438).
node(439).
node(44).
node(440).
node(441).
node(442).
node(443).
node(444).
node(445).
node(446).
node(447).
node(448).
node(449).
node(45).
node(450).
node(451).
node(452).
node(453).
node(454).
node(455).
node(456).
node(457).
node(458).
node(459).
node(46).
node(460).
node(461).
node(462).
node(463).
node(464).
node(465).
node(466).
node(467).
node(468).
node(469).
node(47).
node(470).
node(471).
node(472).
node(473).
node(474).
node(475).
node(476).
node(477).
node(478).
node(479).
node(48).
node(480).
node(481).
node(482).
node(483).
node(484).
node(485).
node(486).
node(487).
node(488).
node(489).
node(49).
node(490).
node(491).
node(492).
node(493).
node(494).
node(495).
node(496).
node(497).
node(498).
node(499).
node(5).
node(50).
node(500).
node(51).
node(52).
node(53).
node(54).
node(55).
node(56).
node(57).
node(58).
node(59).
node(6).
node(60).
node(61).
node(62).
node(63).
node(64).
node(65).
node(66).
node(67).
node(68).
node(69).
node(7).
node(70).
node(71).
node(72).
node(73).
node(74).
node(75).
node(76).
node(77).
node(78).
node(79).
node(8).
node(80).
node(81).
node(82).
node(83).
node(84).
node(85).
node(86).
node(87).
node(88).
node(89).
node(9).
node(90).
node(91).
node(92).
node(93).
node(94).
node(95).
node(96).
node(97).
node(98).
node(99).
link(1,11).
link(1,2).
link(10,20).
link(10,9).
link(100,120).
link(100,90).
link(100,99).
link(101,102).
link(101,131).
link(102,101).
link(102,103).
link(102,132).
link(103,102).
link(103,104).
link(103,133).
link(104,103).
link(104,105).
link(104,134).
link(105,104).
link(105,106).
link(105,135).
link(106,105).
link(106,107).
link(106,136).
link(107,106).
link(107,108).
link(107,137).
link(108,107).
link(108,109).
link(108,138).
link(109,110).
link(109,139).
link(11,1).
link(11,12).
link(11,21).
link(110,109).
link(110,111).
link(110,140).
link(111,110).
link(111,112).
link(111,141).
link(111,91).
link(112,111).
link(112,113).
link(112,142).
link(112,92).
link(113,112).
link(113,114).
link(113,143).
link(113,93).
link(114,113).
link(114,115).
link(114,144).
link(114,94).
link(115,114).
link(115,116).
link(115,145).
link(115,95).
link(116,115).
link(116,117).
link(116,146).
link(116,96).
link(117,116).
link(117,118).
link(117,147).
link(117,97).
link(118,117).
link(118,119).
link(118,148).
link(118,98).
link(119,118).
link(119,120).
link(119,149).
link(119,99).
link(12,11).
link(12,13).
link(12,2).
link(12,22).
link(120,100).
link(120,119).
link(120,121).
link(120,150).
link(121,120).
link(121,122).
link(121,151).
link(122,121).
link(122,123).
link(122,152).
link(123,122).
link(123,124).
link(123,153).
link(124,123).
link(124,125).
link(124,154).
link(125,124).
link(125,126).
link(125,155).
link(126,125).
link(126,127).
link(126,156).
link(127,126).
link(127,128).
link(127,157).
link(128,127).
link(128,129).
link(128,158).
link(129,128).
link(129,130).
link(129,159).
link(13,12).
link(13,14).
link(13,23).
link(13,3).
link(130,129).
link(130,160).
link(131,101).
link(131,132).
link(131,161).
link(132,102).
link(132,131).
link(132,133).
link(132,162).
link(133,103).
link(133,132).
link(133,134).
link(133,163).
link(134,104).
link(134,133).
link(134,135).
link(134,164).
link(135,105).
link(135,134).
link(135,136).
link(135,165).
link(136,106).
link(136,135).
link(136,137).
link(136,166).
link(137,107).
link(137,136).
link(137,138).
link(137,167).
link(138,108).
link(138,137).
link(138,139).
link(138,168).
link(139,109).
link(139,138).
link(139,140).
link(139,169).
link(14,13).
link(14,15).
link(14,24).
link(14,4).
link(140,110).
link(140,139).
link(140,141).
link(140,170).
link(141,111).
link(141,140).
link(141,142).
link(141,171).
link(142,112).
link(142,141).
link(142,143).
link(142,172).
link(143,113).
link(143,142).
link(143,144).
link(143,173).
link(144,114).
link(144,143).
link(144,145).
link(144,174).
link(145,115).
link(145,144).
link(145,146).
link(145,175).
link(146,116).
link(146,145).
link(146,147).
link(146,176).
link(147,117).
link(147,146).
link(147,148).
link(147,177).
link(148,118).
link(148,147).
link(148,149).
link(148,178).
link(149,119).
link(149,148).
link(149,150).
link(149,179).
link(15,14).
link(15,16).
link(15,25).
link(15,5).
link(150,120).
link(150,149).
link(150,151).
link(150,180).
link(151,121).
link(151,150).
link(151,152).
link(151,181).
link(152,122).
link(152,151).
link(152,153).
link(152,182).
link(153,123).
link(153,152).
link(153,154).
link(153,183).
link(154,124).
link(154,153).
link(154,155).
link(154,184).
link(155,125).
link(155,154).
link(155,156).
link(155,185).
link(156,126).
link(156,155).
link(156,157).
link(156,186).
link(157,127).
link(157,156).
link(157,158).
link(157,187).
link(158,128).
link(158,157).
link(158,159).
link(158,188).
link(159,129).
link(159,158).
link(159,160).
link(159,189).
link(16,15).
link(16,17).
link(16,26).
link(16,6).
link(160,130).
link(160,159).
link(160,190).
link(161,131).
link(161,162).
link(161,191).
link(162,132).
link(162,161).
link(162,163).
link(163,133).
link(163,162).
link(163,164).
link(163,193).
link(164,134).
link(164,163).
link(164,165).
link(164,194).
link(165,135).
link(165,164).
link(165,166).
link(165,195).
link(166,136).
link(166,165).
link(166,196).
link(167,137).
link(167,166).
link(167,168).
link(167,197).
link(168,138).
link(168,167).
link(168,169).
link(168,198).
link(169,139).
link(169,168).
link(169,170).
link(169,199).
link(17,16).
link(17,18).
link(17,27).
link(17,7).
link(170,140).
link(170,169).
link(170,171).
link(170,200).
link(171,141).
link(171,170).
link(171,172).
link(171,201).
link(172,142).
link(172,171).
link(172,173).
link(172,202).
link(173,143).
link(173,172).
link(173,174).
link(173,203).
link(174,144).
link(174,173).
link(174,175).
link(174,204).
link(175,145).
link(175,174).
link(175,176).
link(175,205).
link(176,146).
link(176,175).
link(176,177).
link(176,206).
link(177,176).
link(177,178).
link(177,207).
link(178,148).
link(178,177).
link(178,179).
link(178,208).
link(179,149).
link(179,178).
link(179,180).
link(179,209).
link(18,17).
link(18,19).
link(18,28).
link(18,8).
link(180,150).
link(180,179).
link(180,181).
link(180,210).
link(181,151).
link(181,180).
link(181,182).
link(181,211).
link(182,152).
link(182,181).
link(182,183).
link(182,212).
link(183,153).
link(183,182).
link(183,184).
link(183,213).
link(184,154).
link(184,183).
link(184,185).
link(184,214).
link(185,155).
link(185,184).
link(185,186).
link(185,215).
link(186,156).
link(186,185).
link(186,187).
link(186,216).
link(187,157).
link(187,186).
link(187,188).
link(187,217).
link(188,158).
link(188,187).
link(188,189).
link(188,218).
link(189,159).
link(189,188).
link(189,190).
link(189,219).
link(19,18).
link(19,20).
link(19,29).
link(19,9).
link(190,160).
link(190,189).
link(190,220).
link(191,161).
link(191,192).
link(191,221).
link(192,162).
link(192,191).
link(192,193).
link(192,222).
link(193,163).
link(193,192).
link(193,194).
link(193,223).
link(194,164).
link(194,193).
link(194,195).
link(194,224).
link(195,165).
link(195,194).
link(195,196).
link(195,225).
link(196,166).
link(196,195).
link(196,197).
link(196,226).
link(197,167).
link(197,196).
link(197,198).
link(197,227).
link(198,168).
link(198,197).
link(198,199).
link(198,228).
link(199,169).
link(199,198).
link(199,200).
link(199,229).
link(2,1).
link(2,12).
link(2,3).
link(20,10).
link(20,19).
link(20,30).
link(200,170).
link(200,199).
link(200,201).
link(200,230).
link(201,171).
link(201,200).
link(201,202).
link(201,231).
link(202,172).
link(202,201).
link(202,203).
link(202,232).
link(203,173).
link(203,202).
link(203,204).
link(203,233).
link(204,174).
link(204,203).
link(204,205).
link(204,234).
link(205,175).
link(205,204).
link(205,206).
link(205,235).
link(206,176).
link(206,205).
link(206,207).
link(206,236).
link(207,177).
link(207,206).
link(207,208).
link(207,237).
link(208,178).
link(208,207).
link(208,209).
link(208,238).
link(209,179).
link(209,208).
link(209,210).
link(209,239).
link(21,11).
link(21,22).
link(21,31).
link(210,180).
link(210,209).
link(210,211).
link(210,240).
link(211,181).
link(211,210).
link(211,212).
link(211,241).
link(212,182).
link(212,211).
link(212,213).
link(212,242).
link(213,183).
link(213,212).
link(213,214).
link(213,243).
link(214,184).
link(214,213).
link(214,215).
link(214,244).
link(215,185).
link(215,214).
link(215,216).
link(215,245).
link(216,186).
link(216,215).
link(216,217).
link(216,246).
link(217,187).
link(217,216).
link(217,218).
link(217,247).
link(218,188).
link(218,217).
link(218,219).
link(218,248).
link(219,189).
link(219,218).
link(219,220).
link(219,249).
link(22,12).
link(22,21).
link(22,23).
link(22,32).
link(220,190).
link(220,219).
link(220,250).
link(221,191).
link(221,222).
link(221,251).
link(222,192).
link(222,221).
link(222,252).
link(223,222).
link(223,224).
link(223,253).
link(224,194).
link(224,223).
link(224,225).
link(224,254).
link(225,195).
link(225,224).
link(225,255).
link(226,196).
link(226,225).
link(226,227).
link(226,256).
link(227,197).
link(227,226).
link(227,228).
link(227,257).
link(228,198).
link(228,227).
link(228,229).
link(228,258).
link(229,199).
link(229,228).
link(229,230).
link(229,259).
link(23,13).
link(23,22).
link(23,24).
link(23,33).
link(230,200).
link(230,229).
link(230,231).
link(230,260).
link(231,201).
link(231,230).
link(231,232).
link(231,261).
link(232,202).
link(232,231).
link(232,233).
link(232,262).
link(233,203).
link(233,232).
link(233,234).
link(233,263).
link(234,204).
link(234,233).
link(234,235).
link(234,264).
link(235,205).
link(235,234).
link(235,236).
link(235,265).
link(236,206).
link(236,235).
link(236,237).
link(236,266).
link(237,207).
link(237,236).
link(237,238).
link(237,267).
link(238,208).
link(238,237).
link(238,239).
link(238,268).
link(239,209).
link(239,238).
link(239,240).
link(239,269).
link(24,14).
link(24,23).
link(24,25).
link(24,34).
link(240,210).
link(240,239).
link(240,241).
link(240,270).
link(241,211).
link(241,240).
link(241,242).
link(242,212).
link(242,241).
link(242,243).
link(242,272).
link(243,213).
link(243,242).
link(243,244).
link(243,273).
link(244,214).
link(244,243).
link(244,245).
link(244,274).
link(245,215).
link(245,244).
link(245,246).
link(245,275).
link(246,216).
link(246,245).
link(246,247).
link(246,276).
link(247,217).
link(247,246).
link(247,248).
link(247,277).
link(248,218).
link(248,247).
link(248,249).
link(248,278).
link(249,219).
link(249,248).
link(249,250).
link(249,279).
link(25,15).
link(25,24).
link(25,26).
link(25,35).
link(250,220).
link(250,249).
link(250,280).
link(251,221).
link(251,252).
link(251,281).
link(252,222).
link(252,251).
link(252,253).
link(252,282).
link(253,223).
link(253,252).
link(253,254).
link(253,283).
link(254,224).
link(254,253).
link(254,255).
link(254,284).
link(255,225).
link(255,254).
link(255,256).
link(255,285).
link(256,226).
link(256,255).
link(256,257).
link(256,286).
link(257,227).
link(257,256).
link(257,258).
link(257,287).
link(258,228).
link(258,257).
link(258,259).
link(258,288).
link(259,229).
link(259,258).
link(259,260).
link(259,289).
link(26,16).
link(26,25).
link(26,27).
link(26,36).
link(260,230).
link(260,259).
link(260,261).
link(260,290).
link(261,231).
link(261,260).
link(261,262).
link(261,291).
link(262,232).
link(262,261).
link(262,263).
link(262,292).
link(263,233).
link(263,262).
link(263,264).
link(264,234).
link(264,263).
link(264,265).
link(264,294).
link(265,235).
link(265,264).
link(265,266).
link(265,295).
link(266,236).
link(266,265).
link(266,267).
link(267,237).
link(267,266).
link(267,268).
link(267,297).
link(268,238).
link(268,267).
link(268,269).
link(269,239).
link(269,268).
link(269,270).
link(269,299).
link(27,17).
link(27,26).
link(27,37).
link(270,240).
link(270,269).
link(270,271).
link(270,300).
link(271,241).
link(271,270).
link(271,272).
link(271,301).
link(272,242).
link(272,271).
link(272,273).
link(272,302).
link(273,243).
link(273,272).
link(273,274).
link(273,303).
link(274,244).
link(274,273).
link(274,275).
link(274,304).
link(275,245).
link(275,274).
link(275,276).
link(275,305).
link(276,246).
link(276,275).
link(276,277).
link(276,306).
link(277,247).
link(277,276).
link(277,278).
link(277,307).
link(278,248).
link(278,279).
link(278,308).
link(279,249).
link(279,278).
link(279,280).
link(279,309).
link(28,18).
link(28,27).
link(28,29).
link(28,38).
link(280,250).
link(280,279).
link(280,310).
link(281,251).
link(281,282).
link(281,311).
link(282,252).
link(282,281).
link(282,283).
link(282,312).
link(283,253).
link(283,282).
link(283,284).
link(283,313).
link(284,254).
link(284,283).
link(284,285).
link(284,314).
link(285,255).
link(285,284).
link(285,286).
link(285,315).
link(286,256).
link(286,285).
link(286,287).
link(286,316).
link(287,257).
link(287,286).
link(287,288).
link(287,317).
link(288,258).
link(288,287).
link(288,289).
link(288,318).
link(289,259).
link(289,288).
link(289,290).
link(289,319).
link(29,19).
link(29,28).
link(29,30).
link(29,39).
link(290,260).
link(290,289).
link(290,291).
link(290,320).
link(291,261).
link(291,290).
link(291,292).
link(291,321).
link(292,262).
link(292,291).
link(292,293).
link(292,322).
link(293,263).
link(293,292).
link(293,294).
link(293,323).
link(294,293).
link(294,295).
link(294,324).
link(295,265).
link(295,294).
link(295,296).
link(295,325).
link(296,266).
link(296,295).
link(296,297).
link(296,326).
link(297,267).
link(297,296).
link(297,298).
link(297,327).
link(298,268).
link(298,297).
link(298,299).
link(298,328).
link(299,269).
link(299,298).
link(299,300).
link(299,329).
link(3,13).
link(3,2).
link(3,4).
link(30,20).
link(30,29).
link(30,40).
link(300,270).
link(300,299).
link(300,301).
link(300,330).
link(301,271).
link(301,300).
link(301,302).
link(301,331).
link(302,272).
link(302,301).
link(302,303).
link(302,332).
link(303,273).
link(303,302).
link(303,304).
link(303,333).
link(304,274).
link(304,303).
link(304,305).
link(304,334).
link(305,275).
link(305,304).
link(305,306).
link(305,335).
link(306,276).
link(306,305).
link(306,307).
link(306,336).
link(307,277).
link(307,306).
link(307,308).
link(307,337).
link(308,278).
link(308,307).
link(308,309).
link(308,338).
link(309,279).
link(309,308).
link(309,310).
link(309,339).
link(31,21).
link(31,32).
link(31,41).
link(310,280).
link(310,309).
link(310,340).
link(311,281).
link(311,312).
link(311,341).
link(312,282).
link(312,311).
link(312,313).
link(312,342).
link(313,283).
link(313,312).
link(313,314).
link(313,343).
link(314,284).
link(314,313).
link(314,315).
link(314,344).
link(315,285).
link(315,314).
link(315,316).
link(315,345).
link(316,286).
link(316,315).
link(316,317).
link(316,346).
link(317,316).
link(317,318).
link(317,347).
link(318,288).
link(318,317).
link(318,319).
link(318,348).
link(319,289).
link(319,318).
link(319,320).
link(319,349).
link(32,22).
link(32,31).
link(32,33).
link(32,42).
link(320,290).
link(320,319).
link(320,321).
link(320,350).
link(321,291).
link(321,320).
link(321,322).
link(321,351).
link(322,292).
link(322,323).
link(322,352).
link(323,293).
link(323,324).
link(323,353).
link(324,294).
link(324,323).
link(324,325).
link(324,354).
link(325,295).
link(325,324).
link(325,326).
link(325,355).
link(326,296).
link(326,325).
link(326,327).
link(326,356).
link(327,297).
link(327,326).
link(327,328).
link(327,357).
link(328,298).
link(328,327).
link(328,329).
link(328,358).
link(329,299).
link(329,328).
link(329,330).
link(33,23).
link(33,32).
link(33,34).
link(33,43).
link(330,300).
link(330,329).
link(330,331).
link(330,360).
link(331,301).
link(331,330).
link(331,332).
link(331,361).
link(332,302).
link(332,331).
link(332,333).
link(332,362).
link(333,303).
link(333,332).
link(333,363).
link(334,304).
link(334,333).
link(334,335).
link(334,364).
link(335,305).
link(335,334).
link(335,336).
link(335,365).
link(336,306).
link(336,366).
link(337,307).
link(337,336).
link(337,338).
link(337,367).
link(338,308).
link(338,337).
link(338,339).
link(338,368).
link(339,309).
link(339,338).
link(339,340).
link(339,369).
link(34,24).
link(34,33).
link(34,35).
link(34,44).
link(340,310).
link(340,339).
link(340,370).
link(341,311).
link(341,342).
link(341,371).
link(342,312).
link(342,341).
link(342,343).
link(342,372).
link(343,313).
link(343,342).
link(343,344).
link(343,373).
link(344,314).
link(344,343).
link(344,345).
link(344,374).
link(345,315).
link(345,344).
link(345,346).
link(345,375).
link(346,316).
link(346,345).
link(346,376).
link(347,317).
link(347,346).
link(347,348).
link(347,377).
link(348,318).
link(348,347).
link(348,349).
link(348,378).
link(349,319).
link(349,348).
link(349,350).
link(349,379).
link(35,25).
link(35,34).
link(35,36).
link(35,45).
link(350,320).
link(350,349).
link(350,351).
link(350,380).
link(351,321).
link(351,350).
link(351,352).
link(351,381).
link(352,322).
link(352,351).
link(352,353).
link(352,382).
link(353,323).
link(353,352).
link(353,354).
link(353,383).
link(354,324).
link(354,353).
link(354,355).
link(354,384).
link(355,325).
link(355,354).
link(355,356).
link(355,385).
link(356,326).
link(356,355).
link(356,357).
link(356,386).
link(357,327).
link(357,358).
link(357,387).
link(358,328).
link(358,357).
link(358,359).
link(358,388).
link(359,329).
link(359,358).
link(359,360).
link(359,389).
link(36,26).
link(36,35).
link(36,37).
link(36,46).
link(360,330).
link(360,359).
link(360,361).
link(360,390).
link(361,331).
link(361,360).
link(361,362).
link(361,391).
link(362,332).
link(362,361).
link(362,363).
link(362,392).
link(363,333).
link(363,362).
link(363,364).
link(363,393).
link(364,334).
link(364,363).
link(364,365).
link(364,394).
link(365,335).
link(365,364).
link(365,366).
link(365,395).
link(366,336).
link(366,365).
link(366,367).
link(366,396).
link(367,337).
link(367,366).
link(367,368).
link(367,397).
link(368,338).
link(368,367).
link(368,369).
link(368,398).
link(369,339).
link(369,368).
link(369,370).
link(369,399).
link(37,27).
link(37,36).
link(37,38).
link(37,47).
link(370,340).
link(370,369).
link(370,400).
link(371,341).
link(371,372).
link(372,342).
link(372,371).
link(372,373).
link(373,343).
link(373,372).
link(373,374).
link(374,344).
link(374,373).
link(374,375).
link(375,345).
link(375,374).
link(375,376).
link(376,346).
link(376,375).
link(376,377).
link(377,347).
link(377,376).
link(377,378).
link(378,377).
link(378,379).
link(379,349).
link(379,378).
link(379,380).
link(38,28).
link(38,37).
link(38,39).
link(38,48).
link(380,350).
link(380,379).
link(380,381).
link(381,351).
link(381,380).
link(381,382).
link(381,401).
link(382,352).
link(382,381).
link(382,383).
link(382,402).
link(383,353).
link(383,382).
link(383,384).
link(383,403).
link(384,354).
link(384,383).
link(384,385).
link(384,404).
link(385,355).
link(385,384).
link(385,386).
link(385,405).
link(386,356).
link(386,385).
link(386,387).
link(386,406).
link(387,357).
link(387,386).
link(387,388).
link(387,407).
link(388,358).
link(388,387).
link(388,389).
link(389,359).
link(389,388).
link(389,390).
link(389,409).
link(39,29).
link(39,38).
link(39,40).
link(39,49).
link(390,389).
link(390,391).
link(390,410).
link(391,361).
link(391,390).
link(391,392).
link(392,362).
link(392,391).
link(392,393).
link(393,363).
link(393,392).
link(393,394).
link(394,364).
link(394,393).
link(394,395).
link(395,365).
link(395,394).
link(395,396).
link(396,366).
link(396,395).
link(396,397).
link(397,367).
link(397,396).
link(397,398).
link(398,368).
link(398,397).
link(398,399).
link(399,369).
link(399,398).
link(399,400).
link(4,14).
link(4,3).
link(4,5).
link(40,30).
link(40,39).
link(40,50).
link(400,370).
link(400,399).
link(401,381).
link(401,402).
link(401,411).
link(402,382).
link(402,401).
link(402,403).
link(402,412).
link(403,383).
link(403,402).
link(403,404).
link(403,413).
link(404,384).
link(404,403).
link(404,405).
link(404,414).
link(405,385).
link(405,404).
link(405,406).
link(405,415).
link(406,386).
link(406,405).
link(406,407).
link(406,416).
link(407,387).
link(407,406).
link(407,408).
link(407,417).
link(408,388).
link(408,407).
link(408,409).
link(408,418).
link(409,389).
link(409,408).
link(409,410).
link(409,419).
link(41,31).
link(41,42).
link(410,390).
link(410,409).
link(410,420).
link(411,401).
link(411,412).
link(411,421).
link(412,402).
link(412,411).
link(412,413).
link(412,422).
link(413,403).
link(413,412).
link(413,414).
link(413,423).
link(414,404).
link(414,413).
link(414,415).
link(414,424).
link(415,405).
link(415,414).
link(415,416).
link(415,425).
link(416,406).
link(416,415).
link(416,417).
link(416,426).
link(417,407).
link(417,416).
link(417,418).
link(417,427).
link(418,408).
link(418,417).
link(418,419).
link(418,428).
link(419,409).
link(419,418).
link(419,420).
link(419,429).
link(42,32).
link(42,41).
link(42,52).
link(420,410).
link(420,419).
link(420,430).
link(421,411).
link(421,422).
link(421,431).
link(422,412).
link(422,421).
link(422,423).
link(422,432).
link(423,413).
link(423,422).
link(423,424).
link(423,433).
link(424,414).
link(424,423).
link(424,425).
link(424,434).
link(425,415).
link(425,424).
link(425,426).
link(425,435).
link(426,416).
link(426,425).
link(426,427).
link(427,417).
link(427,426).
link(427,428).
link(427,437).
link(428,418).
link(428,427).
link(428,429).
link(428,438).
link(429,419).
link(429,428).
link(429,430).
link(429,439).
link(43,33).
link(43,42).
link(43,44).
link(43,53).
link(430,420).
link(430,440).
link(431,421).
link(431,432).
link(431,441).
link(432,422).
link(432,431).
link(432,433).
link(432,442).
link(433,423).
link(433,432).
link(433,434).
link(433,443).
link(434,424).
link(434,433).
link(434,435).
link(434,444).
link(435,425).
link(435,434).
link(435,436).
link(435,445).
link(436,426).
link(436,435).
link(436,437).
link(436,446).
link(437,427).
link(437,436).
link(437,438).
link(437,447).
link(438,428).
link(438,437).
link(438,439).
link(438,448).
link(439,429).
link(439,438).
link(439,440).
link(439,449).
link(44,34).
link(44,43).
link(44,45).
link(44,54).
link(440,430).
link(440,439).
link(440,450).
link(441,431).
link(441,442).
link(441,451).
link(442,432).
link(442,441).
link(442,443).
link(442,452).
link(443,433).
link(443,442).
link(443,444).
link(443,453).
link(444,434).
link(444,443).
link(444,445).
link(444,454).
link(445,435).
link(445,444).
link(445,446).
link(445,455).
link(446,436).
link(446,445).
link(446,447).
link(446,456).
link(447,437).
link(447,446).
link(447,448).
link(447,457).
link(448,438).
link(448,447).
link(448,449).
link(448,458).
link(449,439).
link(449,448).
link(449,450).
link(449,459).
link(45,35).
link(45,44).
link(45,46).
link(45,55).
link(450,440).
link(450,449).
link(450,460).
link(451,441).
link(451,452).
link(451,461).
link(452,442).
link(452,451).
link(452,453).
link(452,462).
link(453,443).
link(453,452).
link(453,454).
link(453,463).
link(454,444).
link(454,453).
link(454,455).
link(454,464).
link(455,445).
link(455,454).
link(455,456).
link(455,465).
link(456,446).
link(456,455).
link(456,457).
link(456,466).
link(457,447).
link(457,456).
link(457,458).
link(457,467).
link(458,448).
link(458,457).
link(458,459).
link(458,468).
link(459,449).
link(459,458).
link(459,460).
link(459,469).
link(46,36).
link(46,45).
link(46,47).
link(46,56).
link(460,450).
link(460,459).
link(460,470).
link(461,451).
link(461,462).
link(461,471).
link(462,452).
link(462,461).
link(462,463).
link(462,472).
link(463,453).
link(463,462).
link(463,464).
link(463,473).
link(464,454).
link(464,463).
link(464,465).
link(464,474).
link(465,455).
link(465,464).
link(465,466).
link(465,475).
link(466,456).
link(466,465).
link(466,467).
link(466,476).
link(467,457).
link(467,468).
link(467,477).
link(468,458).
link(468,467).
link(468,469).
link(468,478).
link(469,459).
link(469,468).
link(469,470).
link(469,479).
link(47,37).
link(47,46).
link(47,48).
link(470,460).
link(470,469).
link(470,480).
link(471,461).
link(471,472).
link(471,481).
link(472,462).
link(472,471).
link(472,473).
link(472,482).
link(473,463).
link(473,472).
link(473,474).
link(473,483).
link(474,464).
link(474,473).
link(474,475).
link(474,484).
link(475,465).
link(475,474).
link(475,476).
link(475,485).
link(476,466).
link(476,475).
link(476,486).
link(477,467).
link(477,476).
link(477,478).
link(477,487).
link(478,468).
link(478,477).
link(478,479).
link(478,488).
link(479,469).
link(479,478).
link(479,480).
link(479,489).
link(48,38).
link(48,47).
link(48,49).
link(48,58).
link(480,470).
link(480,479).
link(480,490).
link(481,471).
link(481,482).
link(481,491).
link(482,472).
link(482,481).
link(482,483).
link(482,492).
link(483,473).
link(483,482).
link(483,484).
link(483,493).
link(484,474).
link(484,485).
link(484,494).
link(485,475).
link(485,484).
link(485,486).
link(485,495).
link(486,476).
link(486,485).
link(486,487).
link(486,496).
link(487,477).
link(487,486).
link(487,488).
link(487,497).
link(488,478).
link(488,487).
link(488,489).
link(488,498).
link(489,479).
link(489,488).
link(489,490).
link(489,499).
link(49,39).
link(49,48).
link(49,50).
link(49,59).
link(490,489).
link(490,500).
link(491,481).
link(491,492).
link(492,482).
link(492,491).
link(492,493).
link(493,483).
link(493,492).
link(493,494).
link(494,484).
link(494,493).
link(494,495).
link(495,485).
link(495,494).
link(495,496).
link(496,486).
link(496,495).
link(496,497).
link(497,487).
link(497,496).
link(497,498).
link(498,488).
link(498,499).
link(499,489).
link(499,498).
link(499,500).
link(5,15).
link(5,4).
link(5,6).
link(50,40).
link(50,49).
link(50,60).
link(500,490).
link(500,499).
link(51,41).
link(51,52).
link(51,61).
link(52,42).
link(52,51).
link(52,53).
link(52,62).
link(53,43).
link(53,52).
link(53,54).
link(53,63).
link(54,44).
link(54,53).
link(54,55).
link(54,64).
link(55,45).
link(55,54).
link(55,56).
link(55,65).
link(56,46).
link(56,55).
link(56,57).
link(56,66).
link(57,47).
link(57,56).
link(57,58).
link(57,67).
link(58,48).
link(58,57).
link(58,59).
link(58,68).
link(59,49).
link(59,58).
link(59,60).
link(59,69).
link(6,16).
link(6,5).
link(6,7).
link(60,50).
link(60,59).
link(60,70).
link(61,51).
link(61,62).
link(61,71).
link(62,52).
link(62,61).
link(62,63).
link(62,72).
link(63,53).
link(63,62).
link(63,64).
link(63,73).
link(64,54).
link(64,63).
link(64,65).
link(64,74).
link(65,55).
link(65,64).
link(65,66).
link(65,75).
link(66,56).
link(66,65).
link(66,67).
link(66,76).
link(67,57).
link(67,66).
link(67,68).
link(67,77).
link(68,58).
link(68,67).
link(68,78).
link(69,68).
link(69,70).
link(69,79).
link(7,17).
link(7,6).
link(7,8).
link(70,60).
link(70,69).
link(70,80).
link(71,61).
link(71,72).
link(71,81).
link(72,62).
link(72,71).
link(72,73).
link(72,82).
link(73,63).
link(73,72).
link(73,74).
link(73,83).
link(74,64).
link(74,73).
link(74,75).
link(74,84).
link(75,65).
link(75,74).
link(75,76).
link(75,85).
link(76,66).
link(76,75).
link(76,77).
link(76,86).
link(77,67).
link(77,76).
link(77,78).
link(77,87).
link(78,68).
link(78,77).
link(78,79).
link(78,88).
link(79,69).
link(79,78).
link(79,80).
link(79,89).
link(8,18).
link(8,7).
link(8,9).
link(80,70).
link(80,79).
link(80,90).
link(81,71).
link(81,82).
link(81,91).
link(82,72).
link(82,81).
link(82,83).
link(82,92).
link(83,73).
link(83,82).
link(83,84).
link(83,93).
link(84,74).
link(84,83).
link(84,85).
link(84,94).
link(85,75).
link(85,84).
link(85,86).
link(85,95).
link(86,76).
link(86,85).
link(86,87).
link(86,96).
link(87,77).
link(87,86).
link(87,88).
link(87,97).
link(88,78).
link(88,87).
link(88,89).
link(88,98).
link(89,79).
link(89,88).
link(89,90).
link(89,99).
link(9,10).
link(9,19).
link(9,8).
link(90,100).
link(90,80).
link(90,89).
link(91,111).
link(91,81).
link(91,92).
link(92,112).
link(92,82).
link(92,91).
link(92,93).
link(93,113).
link(93,83).
link(93,92).
link(93,94).
link(94,114).
link(94,84).
link(94,93).
link(94,95).
link(95,115).
link(95,85).
link(95,94).
link(95,96).
link(96,116).
link(96,86).
link(96,95).
link(96,97).
link(97,117).
link(97,87).
link(97,96).
link(97,98).
link(98,118).
link(98,88).
link(98,97).
link(98,99).
link(99,100).
link(99,119).
link(99,89).
link(99,98).
