node(1).
node(2).
node(3).
node(4).
node(5).
node(6).
node(7).
node(8).
node(9).
node(10).
node(11).
node(12).
node(13).
node(14).
node(15).
node(16).
node(17).
node(18).
node(19).
node(20).
node(21).
node(22).
node(23).
node(24).
node(25).
node(26).
node(27).
node(28).
node(29).
node(30).
node(31).
node(32).
node(33).
node(34).
node(35).
node(36).
node(37).
node(38).
node(39).
node(40).
node(41).
node(42).
node(43).
node(44).
node(45).
node(46).
node(47).
node(48).
node(49).
node(50).
node(51).
node(52).
node(53).
node(54).
node(55).
node(56).
node(57).
node(58).
node(59).
node(60).
node(61).
node(62).
node(63).
node(64).
node(65).
node(66).
node(67).
node(68).
node(69).
node(70).
node(71).
node(72).
node(73).
node(74).
node(75).
node(76).
node(77).
node(78).
node(79).
node(80).
node(81).
node(82).
node(83).
node(84).
node(85).
node(86).
node(87).
node(88).
node(89).
node(90).
node(91).
node(92).
node(93).
node(94).
node(95).
node(96).
node(97).
node(98).
node(99).
node(100).
node(101).
node(102).
node(103).
node(104).
node(105).
node(106).
node(107).
node(108).
node(109).
node(110).
node(111).
node(112).
node(113).
node(114).
node(115).
node(116).
node(117).
node(118).
node(119).
node(120).
node(121).
node(122).
node(123).
node(124).
node(125).
node(126).
node(127).
node(128).
node(129).
node(130).
node(131).
node(132).
node(133).
node(134).
node(135).
node(136).
node(137).
node(138).
node(139).
node(140).
node(141).
node(142).
node(143).
node(144).
node(145).
node(146).
node(147).
node(148).
node(149).
node(150).
node(151).
node(152).
node(153).
node(154).
node(155).
node(156).
node(157).
node(158).
node(159).
node(160).
node(161).
node(162).
node(163).
node(164).
node(165).
node(166).
node(167).
node(168).
link(1,13).
link(1,2).
link(10,11).
link(10,9).
link(100,101).
link(100,112).
link(100,88).
link(100,99).
link(101,100).
link(101,113).
link(101,89).
link(102,101).
link(102,103).
link(102,114).
link(102,90).
link(103,102).
link(103,104).
link(103,115).
link(103,91).
link(104,103).
link(104,105).
link(104,116).
link(104,92).
link(105,104).
link(105,106).
link(105,117).
link(105,93).
link(106,105).
link(106,107).
link(106,118).
link(106,94).
link(107,106).
link(107,108).
link(107,119).
link(107,95).
link(108,107).
link(108,120).
link(108,96).
link(109,110).
link(109,121).
link(109,97).
link(11,10).
link(11,12).
link(11,23).
link(110,109).
link(110,111).
link(110,122).
link(110,98).
link(111,110).
link(111,112).
link(111,123).
link(111,99).
link(112,100).
link(112,111).
link(112,113).
link(112,124).
link(113,101).
link(113,112).
link(113,114).
link(113,125).
link(114,102).
link(114,113).
link(114,115).
link(114,126).
link(115,103).
link(115,114).
link(115,116).
link(115,127).
link(116,104).
link(116,115).
link(116,117).
link(117,105).
link(117,116).
link(117,118).
link(117,129).
link(118,106).
link(118,117).
link(118,119).
link(118,130).
link(119,107).
link(119,118).
link(119,120).
link(12,11).
link(12,24).
link(120,108).
link(120,119).
link(120,132).
link(121,109).
link(121,122).
link(121,133).
link(122,110).
link(122,121).
link(122,123).
link(122,134).
link(123,111).
link(123,122).
link(123,124).
link(123,135).
link(124,112).
link(124,125).
link(124,136).
link(125,113).
link(125,124).
link(125,126).
link(125,137).
link(126,114).
link(126,125).
link(126,127).
link(126,138).
link(127,115).
link(127,126).
link(127,128).
link(127,139).
link(128,116).
link(128,127).
link(128,129).
link(128,140).
link(129,117).
link(129,128).
link(129,130).
link(129,141).
link(13,1).
link(13,14).
link(13,25).
link(130,118).
link(130,129).
link(130,131).
link(130,142).
link(131,119).
link(131,130).
link(131,132).
link(131,143).
link(132,120).
link(132,131).
link(133,121).
link(133,134).
link(133,145).
link(134,122).
link(134,133).
link(134,135).
link(134,146).
link(135,123).
link(135,134).
link(135,136).
link(135,147).
link(136,124).
link(136,135).
link(136,137).
link(136,148).
link(137,125).
link(137,136).
link(137,138).
link(137,149).
link(138,126).
link(138,137).
link(138,139).
link(138,150).
link(139,127).
link(139,138).
link(139,140).
link(139,151).
link(14,13).
link(14,15).
link(14,2).
link(14,26).
link(140,128).
link(140,139).
link(140,141).
link(140,152).
link(141,129).
link(141,140).
link(141,142).
link(141,153).
link(142,130).
link(142,141).
link(142,143).
link(143,131).
link(143,142).
link(143,144).
link(143,155).
link(144,132).
link(144,143).
link(144,156).
link(145,133).
link(145,146).
link(145,157).
link(146,134).
link(146,145).
link(146,147).
link(146,158).
link(147,135).
link(147,146).
link(147,148).
link(147,159).
link(148,136).
link(148,147).
link(148,149).
link(148,160).
link(149,137).
link(149,150).
link(149,161).
link(15,14).
link(15,16).
link(15,27).
link(15,3).
link(150,138).
link(150,149).
link(150,151).
link(150,162).
link(151,139).
link(151,150).
link(151,152).
link(151,163).
link(152,140).
link(152,151).
link(152,153).
link(152,164).
link(153,141).
link(153,152).
link(153,165).
link(154,142).
link(154,153).
link(154,155).
link(154,166).
link(155,143).
link(155,154).
link(155,156).
link(155,167).
link(156,144).
link(156,155).
link(156,168).
link(157,145).
link(157,158).
link(158,146).
link(158,157).
link(158,159).
link(159,147).
link(159,158).
link(159,160).
link(16,15).
link(16,17).
link(16,28).
link(16,4).
link(160,148).
link(160,159).
link(160,161).
link(161,149).
link(161,160).
link(161,162).
link(162,150).
link(162,161).
link(162,163).
link(163,151).
link(163,162).
link(163,164).
link(164,152).
link(164,163).
link(164,165).
link(165,153).
link(165,164).
link(165,166).
link(166,154).
link(166,165).
link(166,167).
link(167,155).
link(167,168).
link(168,156).
link(168,167).
link(17,16).
link(17,18).
link(17,29).
link(17,5).
link(18,17).
link(18,19).
link(18,30).
link(18,6).
link(19,18).
link(19,20).
link(19,31).
link(19,7).
link(2,1).
link(2,14).
link(20,19).
link(20,21).
link(20,32).
link(20,8).
link(21,20).
link(21,22).
link(21,33).
link(21,9).
link(22,10).
link(22,21).
link(22,23).
link(22,34).
link(23,11).
link(23,22).
link(23,24).
link(23,35).
link(24,12).
link(24,23).
link(24,36).
link(25,13).
link(25,26).
link(25,37).
link(26,14).
link(26,27).
link(26,38).
link(27,15).
link(27,26).
link(27,28).
link(27,39).
link(28,16).
link(28,27).
link(28,29).
link(28,40).
link(29,17).
link(29,28).
link(29,30).
link(29,41).
link(3,15).
link(3,2).
link(3,4).
link(30,18).
link(30,29).
link(30,31).
link(30,42).
link(31,19).
link(31,30).
link(31,32).
link(31,43).
link(32,20).
link(32,31).
link(32,33).
link(32,44).
link(33,21).
link(33,32).
link(33,34).
link(33,45).
link(34,22).
link(34,33).
link(34,35).
link(34,46).
link(35,23).
link(35,34).
link(35,36).
link(35,47).
link(36,24).
link(36,35).
link(36,48).
link(37,25).
link(37,38).
link(37,49).
link(38,26).
link(38,37).
link(38,39).
link(38,50).
link(39,38).
link(39,40).
link(4,3).
link(4,5).
link(40,28).
link(40,39).
link(40,41).
link(40,52).
link(41,29).
link(41,40).
link(41,42).
link(41,53).
link(42,30).
link(42,41).
link(42,43).
link(43,31).
link(43,42).
link(43,44).
link(43,55).
link(44,32).
link(44,43).
link(44,45).
link(44,56).
link(45,33).
link(45,44).
link(45,46).
link(45,57).
link(46,34).
link(46,45).
link(46,47).
link(46,58).
link(47,35).
link(47,46).
link(47,48).
link(47,59).
link(48,36).
link(48,47).
link(49,37).
link(49,50).
link(5,17).
link(5,4).
link(5,6).
link(50,49).
link(50,51).
link(50,62).
link(51,39).
link(51,50).
link(51,52).
link(51,63).
link(52,40).
link(52,51).
link(52,53).
link(52,64).
link(53,41).
link(53,52).
link(53,54).
link(53,65).
link(54,42).
link(54,53).
link(54,55).
link(54,66).
link(55,43).
link(55,54).
link(55,56).
link(55,67).
link(56,44).
link(56,55).
link(56,57).
link(56,68).
link(57,45).
link(57,56).
link(57,58).
link(57,69).
link(58,46).
link(58,57).
link(58,59).
link(58,70).
link(59,47).
link(59,58).
link(59,60).
link(59,71).
link(6,18).
link(6,5).
link(6,7).
link(60,48).
link(60,59).
link(60,72).
link(61,49).
link(61,62).
link(61,73).
link(62,50).
link(62,61).
link(62,63).
link(62,74).
link(63,51).
link(63,62).
link(63,64).
link(64,52).
link(64,63).
link(64,65).
link(64,76).
link(65,64).
link(65,66).
link(65,77).
link(66,54).
link(66,65).
link(66,67).
link(67,55).
link(67,66).
link(67,68).
link(67,79).
link(68,56).
link(68,67).
link(68,69).
link(68,80).
link(69,57).
link(69,68).
link(69,70).
link(69,81).
link(7,19).
link(7,6).
link(7,8).
link(70,58).
link(70,69).
link(70,71).
link(70,82).
link(71,70).
link(71,72).
link(71,83).
link(72,60).
link(72,71).
link(72,84).
link(73,74).
link(73,85).
link(74,62).
link(74,73).
link(74,75).
link(74,86).
link(75,63).
link(75,74).
link(75,76).
link(75,87).
link(76,64).
link(76,75).
link(76,77).
link(76,88).
link(77,65).
link(77,76).
link(77,78).
link(77,89).
link(78,66).
link(78,77).
link(78,79).
link(79,67).
link(79,78).
link(79,80).
link(8,20).
link(8,7).
link(8,9).
link(80,68).
link(80,79).
link(80,81).
link(80,92).
link(81,69).
link(81,80).
link(81,82).
link(81,93).
link(82,70).
link(82,81).
link(82,83).
link(82,94).
link(83,71).
link(83,82).
link(83,84).
link(83,95).
link(84,72).
link(84,83).
link(84,96).
link(85,73).
link(85,86).
link(85,97).
link(86,74).
link(86,85).
link(86,87).
link(86,98).
link(87,86).
link(87,88).
link(87,99).
link(88,100).
link(88,76).
link(88,87).
link(88,89).
link(89,77).
link(89,88).
link(89,90).
link(9,10).
link(9,21).
link(9,8).
link(90,102).
link(90,78).
link(90,89).
link(90,91).
link(91,79).
link(91,90).
link(91,92).
link(92,104).
link(92,80).
link(92,91).
link(92,93).
link(93,105).
link(93,81).
link(93,92).
link(94,106).
link(94,82).
link(94,93).
link(94,95).
link(95,107).
link(95,83).
link(95,94).
link(95,96).
link(96,108).
link(96,84).
link(96,95).
link(97,109).
link(97,85).
link(97,98).
link(98,110).
link(98,86).
link(98,97).
link(98,99).
link(99,100).
link(99,111).
link(99,87).
link(99,98).
