node(1).
node(2).
node(3).
node(4).
node(5).
node(6).
node(7).
node(8).
node(9).
node(10).
node(11).
node(12).
node(13).
node(14).
node(15).
node(16).
node(17).
node(18).
node(19).
node(20).
node(21).
node(22).
node(23).
node(24).
node(25).
node(26).
node(27).
node(28).
node(29).
node(30).
node(31).
node(32).
node(33).
node(34).
node(35).
node(36).
node(37).
node(38).
node(39).
node(40).
node(41).
node(42).
node(43).
node(44).
node(45).
node(46).
node(47).
node(48).
node(49).
node(50).
node(51).
node(52).
node(53).
node(54).
node(55).
node(56).
node(57).
node(58).
node(59).
node(60).
node(61).
node(62).
node(63).
node(64).
node(65).
node(66).
node(67).
node(68).
node(69).
node(70).
node(71).
node(72).
node(73).
node(74).
node(75).
node(76).
node(77).
node(78).
node(79).
node(80).
node(81).
node(82).
node(83).
node(84).
node(85).
node(86).
node(87).
node(88).
node(89).
node(90).
node(91).
node(92).
node(93).
node(94).
node(95).
node(96).
node(97).
node(98).
node(99).
node(100).
node(101).
node(102).
node(103).
node(104).
node(105).
node(106).
node(107).
node(108).
node(109).
node(110).
node(111).
node(112).
node(113).
node(114).
node(115).
node(116).
node(117).
node(118).
node(119).
node(120).
node(121).
node(122).
node(123).
node(124).
node(125).
node(126).
node(127).
node(128).
node(129).
node(130).
node(131).
node(132).
node(133).
node(134).
node(135).
node(136).
node(137).
node(138).
node(139).
node(140).
node(141).
node(142).
node(143).
node(144).
node(145).
node(146).
node(147).
node(148).
node(149).
node(150).
node(151).
node(152).
node(153).
node(154).
node(155).
node(156).
node(157).
node(158).
node(159).
node(160).
node(161).
node(162).
node(163).
node(164).
node(165).
node(166).
node(167).
node(168).
node(169).
node(170).
node(171).
node(172).
node(173).
node(174).
node(175).
node(176).
node(177).
node(178).
node(179).
node(180).
node(181).
node(182).
node(183).
node(184).
node(185).
node(186).
node(187).
node(188).
node(189).
node(190).
link(1,2).
link(1,3).
link(10,14).
link(10,15).
link(10,6).
link(100,101).
link(100,114).
link(100,115).
link(100,86).
link(100,87).
link(100,99).
link(101,100).
link(101,102).
link(101,115).
link(101,116).
link(101,87).
link(101,88).
link(102,101).
link(102,103).
link(102,116).
link(102,117).
link(102,88).
link(103,102).
link(103,104).
link(103,117).
link(103,118).
link(103,89).
link(104,103).
link(104,105).
link(104,118).
link(104,119).
link(104,91).
link(105,104).
link(105,119).
link(105,120).
link(105,91).
link(106,107).
link(106,121).
link(106,122).
link(106,92).
link(107,106).
link(107,108).
link(107,122).
link(107,123).
link(107,92).
link(107,93).
link(108,107).
link(108,109).
link(108,123).
link(108,124).
link(108,93).
link(108,94).
link(109,110).
link(109,124).
link(109,125).
link(109,94).
link(109,95).
link(11,12).
link(11,16).
link(11,17).
link(11,7).
link(110,109).
link(110,111).
link(110,125).
link(110,126).
link(110,95).
link(110,96).
link(111,110).
link(111,112).
link(111,126).
link(111,127).
link(111,96).
link(111,97).
link(112,111).
link(112,113).
link(112,127).
link(112,128).
link(112,97).
link(112,98).
link(113,112).
link(113,114).
link(113,128).
link(113,129).
link(113,98).
link(113,99).
link(114,100).
link(114,113).
link(114,115).
link(114,129).
link(114,130).
link(114,99).
link(115,100).
link(115,101).
link(115,114).
link(115,116).
link(115,130).
link(115,131).
link(116,101).
link(116,102).
link(116,115).
link(116,117).
link(116,131).
link(116,132).
link(117,103).
link(117,116).
link(117,118).
link(117,132).
link(117,133).
link(118,103).
link(118,104).
link(118,117).
link(118,119).
link(118,133).
link(118,134).
link(119,104).
link(119,105).
link(119,118).
link(119,120).
link(119,134).
link(119,135).
link(12,11).
link(12,13).
link(12,17).
link(12,18).
link(12,7).
link(12,8).
link(120,105).
link(120,119).
link(120,135).
link(121,106).
link(121,122).
link(121,137).
link(121,138).
link(122,106).
link(122,107).
link(122,121).
link(122,123).
link(122,138).
link(122,139).
link(123,107).
link(123,108).
link(123,122).
link(123,124).
link(123,139).
link(123,140).
link(124,108).
link(124,109).
link(124,140).
link(124,141).
link(125,109).
link(125,110).
link(125,124).
link(125,126).
link(125,141).
link(125,142).
link(126,110).
link(126,125).
link(126,127).
link(126,142).
link(127,111).
link(127,112).
link(127,126).
link(127,128).
link(127,143).
link(127,144).
link(128,112).
link(128,113).
link(128,127).
link(128,129).
link(128,144).
link(129,113).
link(129,114).
link(129,128).
link(129,130).
link(129,145).
link(129,146).
link(13,14).
link(13,18).
link(13,19).
link(13,8).
link(13,9).
link(130,114).
link(130,115).
link(130,129).
link(130,131).
link(130,147).
link(131,115).
link(131,116).
link(131,130).
link(131,132).
link(131,147).
link(131,148).
link(132,116).
link(132,117).
link(132,131).
link(132,133).
link(132,148).
link(132,149).
link(133,117).
link(133,118).
link(133,132).
link(133,134).
link(133,149).
link(133,150).
link(134,118).
link(134,119).
link(134,133).
link(134,150).
link(134,151).
link(135,119).
link(135,120).
link(135,134).
link(135,136).
link(135,151).
link(135,152).
link(136,120).
link(136,135).
link(136,152).
link(136,153).
link(137,121).
link(137,138).
link(137,154).
link(137,155).
link(138,121).
link(138,122).
link(138,137).
link(138,139).
link(138,155).
link(138,156).
link(139,122).
link(139,123).
link(139,138).
link(139,140).
link(139,156).
link(139,157).
link(14,10).
link(14,13).
link(14,15).
link(14,19).
link(14,20).
link(14,9).
link(140,123).
link(140,124).
link(140,139).
link(140,141).
link(140,157).
link(140,158).
link(141,124).
link(141,125).
link(141,140).
link(141,142).
link(141,158).
link(141,159).
link(142,125).
link(142,126).
link(142,141).
link(142,143).
link(142,159).
link(142,160).
link(143,126).
link(143,127).
link(143,142).
link(143,144).
link(143,160).
link(143,161).
link(144,127).
link(144,128).
link(144,143).
link(144,145).
link(144,161).
link(144,162).
link(145,128).
link(145,129).
link(145,144).
link(145,146).
link(145,162).
link(145,163).
link(146,129).
link(146,130).
link(146,145).
link(146,163).
link(146,164).
link(147,131).
link(147,146).
link(147,148).
link(147,164).
link(147,165).
link(148,131).
link(148,132).
link(148,147).
link(148,149).
link(148,165).
link(148,166).
link(149,132).
link(149,133).
link(149,148).
link(149,150).
link(149,166).
link(149,167).
link(15,10).
link(15,20).
link(15,21).
link(150,133).
link(150,134).
link(150,149).
link(150,151).
link(150,167).
link(150,168).
link(151,134).
link(151,135).
link(151,150).
link(151,152).
link(151,168).
link(151,169).
link(152,135).
link(152,136).
link(152,151).
link(152,153).
link(152,169).
link(152,170).
link(153,136).
link(153,152).
link(153,170).
link(153,171).
link(154,137).
link(154,155).
link(154,172).
link(154,173).
link(155,137).
link(155,138).
link(155,154).
link(155,156).
link(155,173).
link(155,174).
link(156,138).
link(156,139).
link(156,155).
link(156,157).
link(156,174).
link(156,175).
link(157,139).
link(157,140).
link(157,156).
link(157,158).
link(157,175).
link(157,176).
link(158,140).
link(158,141).
link(158,157).
link(158,176).
link(158,177).
link(159,141).
link(159,142).
link(159,158).
link(159,160).
link(159,177).
link(159,178).
link(16,11).
link(16,17).
link(16,22).
link(16,23).
link(160,143).
link(160,159).
link(160,161).
link(160,179).
link(161,143).
link(161,144).
link(161,160).
link(161,162).
link(161,179).
link(161,180).
link(162,144).
link(162,145).
link(162,161).
link(162,163).
link(162,180).
link(162,181).
link(163,145).
link(163,146).
link(163,162).
link(163,164).
link(163,181).
link(163,182).
link(164,146).
link(164,147).
link(164,163).
link(164,165).
link(164,182).
link(164,183).
link(165,147).
link(165,148).
link(165,164).
link(165,166).
link(165,183).
link(165,184).
link(166,148).
link(166,149).
link(166,165).
link(166,167).
link(166,184).
link(166,185).
link(167,149).
link(167,150).
link(167,166).
link(167,168).
link(167,185).
link(167,186).
link(168,150).
link(168,151).
link(168,167).
link(168,169).
link(168,186).
link(168,187).
link(169,152).
link(169,168).
link(169,170).
link(169,187).
link(169,188).
link(17,11).
link(17,12).
link(17,16).
link(17,18).
link(17,23).
link(17,24).
link(170,152).
link(170,153).
link(170,169).
link(170,171).
link(170,188).
link(170,189).
link(171,153).
link(171,170).
link(171,189).
link(171,190).
link(172,154).
link(172,173).
link(173,154).
link(173,155).
link(173,172).
link(173,174).
link(174,155).
link(174,156).
link(174,173).
link(174,175).
link(175,156).
link(175,157).
link(175,174).
link(175,176).
link(176,157).
link(176,158).
link(176,175).
link(176,177).
link(177,158).
link(177,159).
link(177,176).
link(177,178).
link(178,159).
link(178,160).
link(178,177).
link(178,179).
link(179,160).
link(179,178).
link(179,180).
link(18,12).
link(18,13).
link(18,17).
link(18,19).
link(18,24).
link(18,25).
link(180,161).
link(180,162).
link(180,179).
link(180,181).
link(181,162).
link(181,163).
link(181,180).
link(181,182).
link(182,163).
link(182,164).
link(182,181).
link(182,183).
link(183,164).
link(183,182).
link(183,184).
link(184,165).
link(184,166).
link(184,183).
link(184,185).
link(185,166).
link(185,167).
link(185,184).
link(185,186).
link(186,167).
link(186,168).
link(186,185).
link(186,187).
link(187,168).
link(187,169).
link(187,186).
link(187,188).
link(188,169).
link(188,170).
link(188,187).
link(188,189).
link(189,170).
link(189,171).
link(189,188).
link(189,190).
link(19,13).
link(19,14).
link(19,18).
link(19,20).
link(19,25).
link(19,26).
link(190,171).
link(190,189).
link(2,1).
link(2,3).
link(2,4).
link(2,5).
link(20,15).
link(20,19).
link(20,21).
link(20,26).
link(20,27).
link(21,15).
link(21,20).
link(21,27).
link(22,16).
link(22,29).
link(22,30).
link(23,16).
link(23,17).
link(23,22).
link(23,24).
link(23,30).
link(23,31).
link(24,17).
link(24,18).
link(24,23).
link(24,25).
link(24,31).
link(24,32).
link(25,18).
link(25,19).
link(25,24).
link(25,26).
link(25,32).
link(25,33).
link(26,19).
link(26,20).
link(26,25).
link(26,27).
link(26,33).
link(26,34).
link(27,21).
link(27,26).
link(27,28).
link(27,34).
link(27,35).
link(28,21).
link(28,27).
link(28,35).
link(28,36).
link(29,22).
link(29,30).
link(29,37).
link(29,38).
link(3,2).
link(3,5).
link(3,6).
link(30,22).
link(30,23).
link(30,29).
link(30,31).
link(30,38).
link(30,39).
link(31,23).
link(31,24).
link(31,30).
link(31,32).
link(31,39).
link(31,40).
link(32,24).
link(32,25).
link(32,31).
link(32,33).
link(32,41).
link(33,25).
link(33,26).
link(33,32).
link(33,34).
link(33,41).
link(33,42).
link(34,26).
link(34,27).
link(34,33).
link(34,35).
link(34,42).
link(34,43).
link(35,27).
link(35,28).
link(35,36).
link(35,43).
link(35,44).
link(36,28).
link(36,35).
link(36,44).
link(36,45).
link(37,29).
link(37,38).
link(37,46).
link(37,47).
link(38,29).
link(38,30).
link(38,37).
link(38,47).
link(38,48).
link(39,30).
link(39,31).
link(39,38).
link(39,40).
link(39,48).
link(39,49).
link(4,2).
link(4,5).
link(4,7).
link(4,8).
link(40,31).
link(40,32).
link(40,39).
link(40,41).
link(40,49).
link(40,50).
link(41,32).
link(41,33).
link(41,40).
link(41,42).
link(41,50).
link(41,51).
link(42,33).
link(42,34).
link(42,41).
link(42,43).
link(42,52).
link(43,35).
link(43,42).
link(43,44).
link(43,52).
link(43,53).
link(44,35).
link(44,36).
link(44,45).
link(44,53).
link(44,54).
link(45,36).
link(45,44).
link(45,54).
link(45,55).
link(46,37).
link(46,47).
link(46,56).
link(46,57).
link(47,37).
link(47,38).
link(47,46).
link(47,48).
link(47,57).
link(47,58).
link(48,38).
link(48,39).
link(48,47).
link(48,49).
link(48,58).
link(48,59).
link(49,39).
link(49,40).
link(49,48).
link(49,50).
link(49,59).
link(49,60).
link(5,2).
link(5,3).
link(5,4).
link(5,6).
link(5,8).
link(5,9).
link(50,40).
link(50,41).
link(50,49).
link(50,51).
link(50,60).
link(50,61).
link(51,41).
link(51,42).
link(51,50).
link(51,52).
link(51,61).
link(51,62).
link(52,42).
link(52,43).
link(52,51).
link(52,53).
link(52,62).
link(52,63).
link(53,43).
link(53,44).
link(53,52).
link(53,54).
link(53,64).
link(54,44).
link(54,45).
link(54,53).
link(54,55).
link(54,64).
link(54,65).
link(55,45).
link(55,54).
link(55,65).
link(55,66).
link(56,46).
link(56,57).
link(56,67).
link(56,68).
link(57,47).
link(57,56).
link(57,58).
link(57,68).
link(57,69).
link(58,47).
link(58,57).
link(58,59).
link(58,69).
link(58,70).
link(59,48).
link(59,49).
link(59,58).
link(59,60).
link(59,70).
link(59,71).
link(6,10).
link(6,3).
link(6,5).
link(6,9).
link(60,49).
link(60,50).
link(60,59).
link(60,61).
link(60,71).
link(60,72).
link(61,50).
link(61,51).
link(61,60).
link(61,62).
link(61,72).
link(61,73).
link(62,51).
link(62,52).
link(62,61).
link(62,63).
link(62,73).
link(62,74).
link(63,52).
link(63,53).
link(63,62).
link(63,64).
link(63,74).
link(63,75).
link(64,53).
link(64,54).
link(64,63).
link(64,65).
link(64,75).
link(64,76).
link(65,54).
link(65,55).
link(65,66).
link(65,76).
link(66,65).
link(66,77).
link(66,78).
link(67,56).
link(67,68).
link(67,80).
link(68,56).
link(68,57).
link(68,67).
link(68,69).
link(68,80).
link(68,81).
link(69,57).
link(69,58).
link(69,68).
link(69,70).
link(69,81).
link(69,82).
link(7,11).
link(7,12).
link(7,4).
link(7,8).
link(70,59).
link(70,69).
link(70,71).
link(70,82).
link(70,83).
link(71,59).
link(71,60).
link(71,70).
link(71,72).
link(71,83).
link(71,84).
link(72,60).
link(72,61).
link(72,71).
link(72,73).
link(72,84).
link(72,85).
link(73,61).
link(73,62).
link(73,72).
link(73,85).
link(73,86).
link(74,62).
link(74,63).
link(74,75).
link(74,87).
link(75,63).
link(75,64).
link(75,76).
link(75,87).
link(75,88).
link(76,64).
link(76,65).
link(76,75).
link(76,77).
link(76,88).
link(76,89).
link(77,65).
link(77,66).
link(77,76).
link(77,78).
link(77,89).
link(77,90).
link(78,66).
link(78,77).
link(78,90).
link(78,91).
link(79,67).
link(79,80).
link(79,92).
link(79,93).
link(8,12).
link(8,13).
link(8,4).
link(8,5).
link(8,7).
link(8,9).
link(80,67).
link(80,68).
link(80,79).
link(80,81).
link(80,93).
link(80,94).
link(81,68).
link(81,69).
link(81,80).
link(81,82).
link(81,94).
link(81,95).
link(82,69).
link(82,81).
link(82,83).
link(82,95).
link(82,96).
link(83,70).
link(83,71).
link(83,82).
link(83,84).
link(83,96).
link(83,97).
link(84,71).
link(84,72).
link(84,83).
link(84,85).
link(84,97).
link(84,98).
link(85,73).
link(85,84).
link(85,86).
link(85,98).
link(85,99).
link(86,100).
link(86,73).
link(86,74).
link(86,85).
link(86,87).
link(86,99).
link(87,100).
link(87,101).
link(87,74).
link(87,75).
link(87,86).
link(87,88).
link(88,101).
link(88,102).
link(88,75).
link(88,76).
link(88,87).
link(88,89).
link(89,102).
link(89,103).
link(89,77).
link(89,88).
link(89,90).
link(9,10).
link(9,13).
link(9,5).
link(9,6).
link(9,8).
link(90,103).
link(90,104).
link(90,77).
link(90,78).
link(90,89).
link(90,91).
link(91,104).
link(91,105).
link(91,78).
link(91,90).
link(92,106).
link(92,107).
link(92,79).
link(92,93).
link(93,107).
link(93,108).
link(93,79).
link(93,80).
link(93,92).
link(93,94).
link(94,108).
link(94,109).
link(94,80).
link(94,81).
link(94,93).
link(94,95).
link(95,109).
link(95,110).
link(95,81).
link(95,82).
link(95,94).
link(95,96).
link(96,110).
link(96,111).
link(96,82).
link(96,83).
link(96,95).
link(96,97).
link(97,111).
link(97,112).
link(97,83).
link(97,84).
link(97,96).
link(97,98).
link(98,112).
link(98,113).
link(98,84).
link(98,85).
link(98,97).
link(98,99).
link(99,100).
link(99,113).
link(99,114).
link(99,85).
link(99,86).
link(99,98).
