node(1).
node(2).
node(3).
node(4).
node(5).
node(6).
node(7).
node(8).
node(9).
node(10).
node(11).
node(12).
node(13).
node(14).
node(15).
node(16).
node(17).
node(18).
node(19).
node(20).
node(21).
node(22).
node(23).
node(24).
node(25).
node(26).
node(27).
node(28).
node(29).
node(30).
node(31).
node(32).
node(33).
node(34).
node(35).
node(36).
node(37).
node(38).
node(39).
node(40).
node(41).
node(42).
node(43).
node(44).
node(45).
node(46).
node(47).
node(48).
node(49).
node(50).
node(51).
node(52).
node(53).
node(54).
node(55).
node(56).
node(57).
node(58).
node(59).
node(60).
node(61).
node(62).
node(63).
node(64).
node(65).
node(66).
node(67).
node(68).
node(69).
node(70).
node(71).
node(72).
node(73).
node(74).
node(75).
node(76).
node(77).
node(78).
node(79).
node(80).
node(81).
node(82).
node(83).
node(84).
node(85).
node(86).
node(87).
node(88).
node(89).
node(90).
node(91).
node(92).
node(93).
node(94).
node(95).
node(96).
node(97).
node(98).
node(99).
node(100).
node(101).
node(102).
node(103).
node(104).
node(105).
node(106).
node(107).
node(108).
node(109).
node(110).
node(111).
node(112).
node(113).
node(114).
node(115).
node(116).
node(117).
node(118).
node(119).
node(120).
node(121).
node(122).
node(123).
node(124).
node(125).
node(126).
node(127).
node(128).
node(129).
node(130).
node(131).
node(132).
node(133).
node(134).
node(135).
node(136).
node(137).
node(138).
node(139).
node(140).
node(141).
node(142).
node(143).
node(144).
node(145).
node(146).
node(147).
node(148).
node(149).
node(150).
node(151).
node(152).
node(153).
node(154).
node(155).
node(156).
node(157).
node(158).
node(159).
node(160).
node(161).
node(162).
node(163).
node(164).
node(165).
node(166).
node(167).
node(168).
node(169).
node(170).
node(171).
node(172).
node(173).
node(174).
node(175).
node(176).
node(177).
node(178).
node(179).
node(180).
node(181).
node(182).
node(183).
node(184).
node(185).
node(186).
node(187).
node(188).
node(189).
node(190).
node(191).
node(192).
node(193).
node(194).
node(195).
node(196).
node(197).
node(198).
node(199).
node(200).
node(201).
node(202).
node(203).
node(204).
node(205).
node(206).
node(207).
node(208).
node(209).
node(210).
node(211).
node(212).
node(213).
node(214).
node(215).
node(216).
node(217).
node(218).
node(219).
node(220).
node(221).
node(222).
node(223).
node(224).
node(225).
node(226).
node(227).
node(228).
node(229).
node(230).
node(231).
node(232).
node(233).
node(234).
node(235).
node(236).
node(237).
node(238).
node(239).
node(240).
node(241).
node(242).
node(243).
node(244).
node(245).
node(246).
node(247).
node(248).
node(249).
node(250).
node(251).
node(252).
node(253).
node(254).
node(255).
node(256).
node(257).
node(258).
node(259).
node(260).
node(261).
node(262).
node(263).
node(264).
node(265).
node(266).
node(267).
node(268).
node(269).
node(270).
node(271).
node(272).
node(273).
node(274).
node(275).
node(276).
node(277).
node(278).
node(279).
node(280).
node(281).
node(282).
node(283).
node(284).
node(285).
node(286).
node(287).
node(288).
node(289).
node(290).
node(291).
node(292).
node(293).
node(294).
node(295).
node(296).
node(297).
node(298).
node(299).
node(300).
node(301).
node(302).
node(303).
node(304).
node(305).
node(306).
node(307).
node(308).
node(309).
node(310).
node(311).
node(312).
node(313).
node(314).
node(315).
node(316).
node(317).
node(318).
node(319).
node(320).
node(321).
node(322).
node(323).
node(324).
node(325).
node(326).
node(327).
node(328).
node(329).
node(330).
node(331).
node(332).
node(333).
node(334).
node(335).
node(336).
node(337).
node(338).
node(339).
node(340).
node(341).
node(342).
node(343).
node(344).
node(345).
node(346).
node(347).
node(348).
node(349).
node(350).
node(351).
node(352).
node(353).
node(354).
node(355).
node(356).
node(357).
node(358).
node(359).
node(360).
node(361).
node(362).
node(363).
node(364).
node(365).
node(366).
node(367).
node(368).
node(369).
node(370).
node(371).
node(372).
node(373).
node(374).
node(375).
node(376).
node(377).
node(378).
node(379).
node(380).
node(381).
node(382).
node(383).
node(384).
node(385).
node(386).
node(387).
node(388).
node(389).
node(390).
node(391).
node(392).
node(393).
node(394).
node(395).
node(396).
node(397).
node(398).
node(399).
node(400).
node(401).
node(402).
node(403).
node(404).
node(405).
link(1,2).
link(1,21).
link(1,22).
link(10,11).
link(10,30).
link(10,31).
link(10,9).
link(100,101).
link(100,124).
link(100,125).
link(100,76).
link(100,77).
link(100,99).
link(101,102).
link(101,125).
link(101,126).
link(101,77).
link(101,78).
link(102,103).
link(102,127).
link(102,78).
link(102,79).
link(103,102).
link(103,104).
link(103,127).
link(103,128).
link(103,79).
link(103,80).
link(104,103).
link(104,105).
link(104,128).
link(104,129).
link(104,80).
link(104,81).
link(105,104).
link(105,106).
link(105,129).
link(105,130).
link(105,81).
link(105,82).
link(106,105).
link(106,107).
link(106,130).
link(106,131).
link(106,82).
link(106,83).
link(107,106).
link(107,108).
link(107,131).
link(107,132).
link(107,83).
link(107,84).
link(108,107).
link(108,109).
link(108,132).
link(108,133).
link(108,84).
link(108,85).
link(109,108).
link(109,110).
link(109,133).
link(109,134).
link(109,85).
link(109,86).
link(11,12).
link(11,31).
link(110,109).
link(110,134).
link(110,135).
link(110,86).
link(111,112).
link(111,136).
link(111,137).
link(111,87).
link(112,111).
link(112,113).
link(112,138).
link(112,87).
link(112,88).
link(113,112).
link(113,114).
link(113,138).
link(113,139).
link(113,88).
link(113,89).
link(114,113).
link(114,115).
link(114,139).
link(114,140).
link(114,89).
link(114,90).
link(115,114).
link(115,116).
link(115,140).
link(115,141).
link(115,90).
link(115,91).
link(116,115).
link(116,117).
link(116,141).
link(116,91).
link(116,92).
link(117,116).
link(117,118).
link(117,142).
link(117,143).
link(117,92).
link(117,93).
link(118,117).
link(118,119).
link(118,143).
link(118,144).
link(118,93).
link(118,94).
link(119,118).
link(119,120).
link(119,144).
link(119,95).
link(12,11).
link(12,13).
link(12,32).
link(12,33).
link(120,119).
link(120,121).
link(120,145).
link(120,146).
link(120,95).
link(120,96).
link(121,120).
link(121,122).
link(121,146).
link(121,147).
link(121,96).
link(121,97).
link(122,121).
link(122,123).
link(122,147).
link(122,148).
link(122,97).
link(122,98).
link(123,122).
link(123,124).
link(123,149).
link(123,98).
link(123,99).
link(124,100).
link(124,123).
link(124,125).
link(124,149).
link(124,150).
link(124,99).
link(125,100).
link(125,101).
link(125,124).
link(125,126).
link(125,150).
link(125,151).
link(126,101).
link(126,102).
link(126,125).
link(126,127).
link(126,151).
link(127,102).
link(127,103).
link(127,126).
link(127,128).
link(128,103).
link(128,104).
link(128,127).
link(128,129).
link(128,153).
link(128,154).
link(129,128).
link(129,130).
link(129,154).
link(129,155).
link(13,12).
link(13,14).
link(13,33).
link(13,34).
link(130,105).
link(130,106).
link(130,129).
link(130,131).
link(130,155).
link(130,156).
link(131,106).
link(131,107).
link(131,130).
link(131,132).
link(131,156).
link(131,157).
link(132,107).
link(132,108).
link(132,131).
link(132,133).
link(132,157).
link(133,108).
link(133,109).
link(133,132).
link(133,134).
link(133,158).
link(133,159).
link(134,109).
link(134,110).
link(134,133).
link(134,135).
link(134,159).
link(134,160).
link(135,110).
link(135,134).
link(135,161).
link(136,111).
link(136,137).
link(136,162).
link(136,163).
link(137,111).
link(137,112).
link(137,136).
link(137,163).
link(137,164).
link(138,112).
link(138,113).
link(138,137).
link(138,139).
link(138,164).
link(138,165).
link(139,113).
link(139,114).
link(139,138).
link(139,140).
link(139,165).
link(139,166).
link(14,13).
link(14,15).
link(14,34).
link(14,35).
link(140,114).
link(140,115).
link(140,139).
link(140,141).
link(140,166).
link(140,167).
link(141,115).
link(141,116).
link(141,140).
link(141,142).
link(141,167).
link(141,168).
link(142,116).
link(142,117).
link(142,141).
link(142,143).
link(142,168).
link(142,169).
link(143,117).
link(143,118).
link(143,142).
link(143,144).
link(143,169).
link(143,170).
link(144,118).
link(144,119).
link(144,143).
link(144,145).
link(144,170).
link(144,171).
link(145,119).
link(145,120).
link(145,144).
link(145,146).
link(145,171).
link(146,121).
link(146,145).
link(146,147).
link(146,172).
link(146,173).
link(147,121).
link(147,122).
link(147,146).
link(147,148).
link(147,173).
link(147,174).
link(148,123).
link(148,149).
link(148,174).
link(148,175).
link(149,123).
link(149,124).
link(149,148).
link(149,150).
link(149,175).
link(149,176).
link(15,14).
link(15,16).
link(15,35).
link(15,36).
link(150,124).
link(150,125).
link(150,151).
link(150,176).
link(150,177).
link(151,126).
link(151,150).
link(151,152).
link(151,177).
link(151,178).
link(152,126).
link(152,127).
link(152,151).
link(152,153).
link(152,178).
link(152,179).
link(153,127).
link(153,128).
link(153,152).
link(153,154).
link(153,179).
link(153,180).
link(154,128).
link(154,129).
link(154,153).
link(154,155).
link(154,180).
link(155,129).
link(155,130).
link(155,154).
link(155,156).
link(155,181).
link(155,182).
link(156,130).
link(156,131).
link(156,155).
link(156,157).
link(156,182).
link(156,183).
link(157,131).
link(157,132).
link(157,156).
link(157,158).
link(157,183).
link(157,184).
link(158,132).
link(158,133).
link(158,157).
link(158,159).
link(158,184).
link(159,133).
link(159,134).
link(159,158).
link(159,160).
link(159,185).
link(159,186).
link(16,15).
link(16,17).
link(16,36).
link(16,37).
link(160,135).
link(160,159).
link(160,161).
link(160,186).
link(160,187).
link(161,135).
link(161,160).
link(161,187).
link(161,188).
link(162,136).
link(162,163).
link(162,189).
link(163,136).
link(163,137).
link(163,162).
link(163,164).
link(163,190).
link(163,191).
link(164,138).
link(164,163).
link(164,165).
link(164,191).
link(164,192).
link(165,138).
link(165,139).
link(165,166).
link(165,192).
link(165,193).
link(166,139).
link(166,140).
link(166,165).
link(166,167).
link(166,193).
link(166,194).
link(167,140).
link(167,141).
link(167,166).
link(167,168).
link(167,194).
link(167,195).
link(168,141).
link(168,142).
link(168,167).
link(168,169).
link(168,195).
link(168,196).
link(169,143).
link(169,168).
link(169,170).
link(169,196).
link(169,197).
link(17,16).
link(17,18).
link(17,37).
link(17,38).
link(170,143).
link(170,144).
link(170,169).
link(170,197).
link(170,198).
link(171,144).
link(171,145).
link(171,170).
link(171,172).
link(171,198).
link(172,145).
link(172,146).
link(172,171).
link(172,173).
link(172,199).
link(172,200).
link(173,146).
link(173,147).
link(173,172).
link(173,174).
link(173,200).
link(173,201).
link(174,147).
link(174,148).
link(174,173).
link(174,175).
link(174,201).
link(174,202).
link(175,148).
link(175,149).
link(175,174).
link(175,176).
link(175,202).
link(175,203).
link(176,150).
link(176,175).
link(176,177).
link(176,203).
link(177,150).
link(177,151).
link(177,176).
link(177,178).
link(177,204).
link(177,205).
link(178,151).
link(178,152).
link(178,177).
link(178,179).
link(178,205).
link(178,206).
link(179,152).
link(179,153).
link(179,178).
link(179,180).
link(179,206).
link(179,207).
link(18,17).
link(18,19).
link(18,39).
link(180,153).
link(180,154).
link(180,179).
link(180,181).
link(180,207).
link(180,208).
link(181,154).
link(181,155).
link(181,182).
link(181,208).
link(181,209).
link(182,155).
link(182,156).
link(182,181).
link(182,183).
link(182,209).
link(182,210).
link(183,156).
link(183,157).
link(183,182).
link(183,184).
link(183,210).
link(183,211).
link(184,157).
link(184,158).
link(184,183).
link(184,185).
link(184,211).
link(185,158).
link(185,159).
link(185,184).
link(185,186).
link(185,212).
link(185,213).
link(186,159).
link(186,160).
link(186,185).
link(186,187).
link(186,213).
link(186,214).
link(187,160).
link(187,161).
link(187,186).
link(187,188).
link(187,214).
link(187,215).
link(188,161).
link(188,187).
link(188,215).
link(188,216).
link(189,162).
link(189,190).
link(189,217).
link(189,218).
link(19,18).
link(19,20).
link(19,40).
link(190,162).
link(190,163).
link(190,189).
link(190,191).
link(190,218).
link(190,219).
link(191,163).
link(191,164).
link(191,190).
link(191,192).
link(191,219).
link(191,220).
link(192,164).
link(192,165).
link(192,191).
link(192,193).
link(192,220).
link(192,221).
link(193,165).
link(193,166).
link(193,192).
link(193,194).
link(193,221).
link(193,222).
link(194,167).
link(194,193).
link(194,195).
link(194,222).
link(194,223).
link(195,167).
link(195,168).
link(195,194).
link(195,196).
link(195,223).
link(196,168).
link(196,169).
link(196,195).
link(196,197).
link(196,224).
link(196,225).
link(197,169).
link(197,170).
link(197,196).
link(197,198).
link(197,225).
link(198,170).
link(198,171).
link(198,197).
link(198,199).
link(198,226).
link(198,227).
link(199,171).
link(199,172).
link(199,198).
link(199,200).
link(199,227).
link(199,228).
link(2,1).
link(2,3).
link(20,19).
link(20,40).
link(20,41).
link(200,172).
link(200,173).
link(200,199).
link(200,201).
link(200,228).
link(200,229).
link(201,173).
link(201,200).
link(201,202).
link(201,229).
link(201,230).
link(202,174).
link(202,175).
link(202,201).
link(202,203).
link(202,230).
link(202,231).
link(203,175).
link(203,176).
link(203,202).
link(203,204).
link(203,231).
link(203,232).
link(204,176).
link(204,177).
link(204,203).
link(204,205).
link(204,232).
link(204,233).
link(205,177).
link(205,178).
link(205,204).
link(205,206).
link(205,233).
link(205,234).
link(206,178).
link(206,179).
link(206,205).
link(206,207).
link(206,234).
link(206,235).
link(207,179).
link(207,180).
link(207,206).
link(207,208).
link(207,235).
link(207,236).
link(208,180).
link(208,181).
link(208,207).
link(208,209).
link(208,236).
link(208,237).
link(209,181).
link(209,182).
link(209,208).
link(209,210).
link(209,237).
link(209,238).
link(21,1).
link(21,42).
link(210,182).
link(210,183).
link(210,209).
link(210,211).
link(210,238).
link(210,239).
link(211,183).
link(211,184).
link(211,210).
link(211,212).
link(211,239).
link(211,240).
link(212,184).
link(212,185).
link(212,211).
link(212,213).
link(212,240).
link(212,241).
link(213,186).
link(213,212).
link(213,214).
link(213,241).
link(213,242).
link(214,186).
link(214,187).
link(214,213).
link(214,215).
link(214,243).
link(215,187).
link(215,188).
link(215,214).
link(215,216).
link(215,243).
link(215,244).
link(216,188).
link(216,215).
link(216,244).
link(216,245).
link(217,189).
link(217,218).
link(217,246).
link(217,247).
link(218,189).
link(218,190).
link(218,217).
link(218,219).
link(218,247).
link(218,248).
link(219,190).
link(219,191).
link(219,218).
link(219,220).
link(219,248).
link(219,249).
link(22,1).
link(22,2).
link(22,21).
link(22,23).
link(22,43).
link(22,44).
link(220,191).
link(220,192).
link(220,219).
link(220,221).
link(220,249).
link(221,192).
link(221,193).
link(221,222).
link(221,250).
link(221,251).
link(222,193).
link(222,194).
link(222,223).
link(222,251).
link(222,252).
link(223,194).
link(223,222).
link(223,224).
link(223,252).
link(223,253).
link(224,196).
link(224,223).
link(224,225).
link(224,253).
link(224,254).
link(225,196).
link(225,197).
link(225,224).
link(225,226).
link(225,254).
link(225,255).
link(226,197).
link(226,198).
link(226,225).
link(226,227).
link(226,255).
link(226,256).
link(227,198).
link(227,199).
link(227,226).
link(227,228).
link(227,256).
link(227,257).
link(228,227).
link(228,229).
link(228,258).
link(229,200).
link(229,201).
link(229,228).
link(229,258).
link(229,259).
link(23,2).
link(23,22).
link(23,3).
link(23,44).
link(23,45).
link(230,201).
link(230,202).
link(230,229).
link(230,231).
link(230,259).
link(230,260).
link(231,203).
link(231,230).
link(231,260).
link(231,261).
link(232,203).
link(232,204).
link(232,231).
link(232,233).
link(232,261).
link(232,262).
link(233,204).
link(233,205).
link(233,232).
link(233,234).
link(233,262).
link(233,263).
link(234,205).
link(234,206).
link(234,233).
link(234,235).
link(234,263).
link(234,264).
link(235,206).
link(235,207).
link(235,234).
link(235,236).
link(235,264).
link(235,265).
link(236,207).
link(236,208).
link(236,235).
link(236,237).
link(236,265).
link(236,266).
link(237,208).
link(237,209).
link(237,236).
link(237,238).
link(237,266).
link(237,267).
link(238,209).
link(238,210).
link(238,237).
link(238,239).
link(238,267).
link(238,268).
link(239,210).
link(239,211).
link(239,238).
link(239,240).
link(239,268).
link(239,269).
link(24,23).
link(24,25).
link(24,3).
link(24,4).
link(24,46).
link(240,211).
link(240,212).
link(240,241).
link(240,269).
link(240,270).
link(241,212).
link(241,213).
link(241,240).
link(241,242).
link(241,270).
link(241,271).
link(242,213).
link(242,214).
link(242,241).
link(242,243).
link(242,271).
link(243,214).
link(243,215).
link(243,242).
link(243,244).
link(243,272).
link(244,215).
link(244,216).
link(244,243).
link(244,245).
link(244,274).
link(245,216).
link(245,244).
link(245,274).
link(245,275).
link(246,217).
link(246,247).
link(246,276).
link(246,277).
link(247,217).
link(247,218).
link(247,248).
link(247,277).
link(247,278).
link(248,218).
link(248,219).
link(248,249).
link(248,278).
link(248,279).
link(249,219).
link(249,220).
link(249,248).
link(249,250).
link(249,279).
link(249,280).
link(25,4).
link(25,46).
link(25,47).
link(25,5).
link(250,220).
link(250,221).
link(250,249).
link(250,251).
link(250,280).
link(250,281).
link(251,221).
link(251,222).
link(251,250).
link(251,252).
link(251,282).
link(252,222).
link(252,223).
link(252,251).
link(252,253).
link(252,282).
link(252,283).
link(253,223).
link(253,224).
link(253,252).
link(253,254).
link(253,283).
link(253,284).
link(254,224).
link(254,225).
link(254,253).
link(254,284).
link(254,285).
link(255,225).
link(255,226).
link(255,254).
link(255,256).
link(255,285).
link(255,286).
link(256,226).
link(256,227).
link(256,255).
link(256,257).
link(256,286).
link(256,287).
link(257,227).
link(257,228).
link(257,256).
link(257,287).
link(257,288).
link(258,228).
link(258,257).
link(258,259).
link(258,288).
link(258,289).
link(259,229).
link(259,230).
link(259,258).
link(259,260).
link(259,289).
link(26,27).
link(26,47).
link(26,48).
link(26,6).
link(260,230).
link(260,231).
link(260,259).
link(260,261).
link(260,290).
link(260,291).
link(261,231).
link(261,232).
link(261,260).
link(261,262).
link(261,291).
link(261,292).
link(262,232).
link(262,261).
link(262,263).
link(262,292).
link(263,233).
link(263,234).
link(263,262).
link(263,264).
link(263,293).
link(263,294).
link(264,234).
link(264,235).
link(264,263).
link(264,294).
link(264,295).
link(265,235).
link(265,236).
link(265,264).
link(265,266).
link(265,295).
link(265,296).
link(266,236).
link(266,237).
link(266,265).
link(266,267).
link(266,296).
link(267,237).
link(267,238).
link(267,266).
link(267,268).
link(267,297).
link(267,298).
link(268,238).
link(268,239).
link(268,267).
link(268,269).
link(268,298).
link(268,299).
link(269,239).
link(269,240).
link(269,268).
link(269,270).
link(269,299).
link(269,300).
link(27,26).
link(27,28).
link(27,48).
link(27,49).
link(27,7).
link(270,240).
link(270,241).
link(270,269).
link(270,271).
link(270,300).
link(270,301).
link(271,241).
link(271,242).
link(271,270).
link(271,272).
link(271,302).
link(272,242).
link(272,243).
link(272,271).
link(272,273).
link(272,302).
link(272,303).
link(273,243).
link(273,244).
link(273,274).
link(273,303).
link(273,304).
link(274,244).
link(274,245).
link(274,273).
link(274,275).
link(274,304).
link(274,305).
link(275,245).
link(275,274).
link(275,305).
link(275,306).
link(276,246).
link(276,277).
link(276,307).
link(276,308).
link(277,246).
link(277,247).
link(277,276).
link(277,278).
link(277,308).
link(277,309).
link(278,247).
link(278,248).
link(278,277).
link(278,279).
link(278,309).
link(278,310).
link(279,248).
link(279,249).
link(279,278).
link(279,280).
link(279,310).
link(279,311).
link(28,27).
link(28,29).
link(28,49).
link(28,7).
link(28,8).
link(280,249).
link(280,279).
link(280,281).
link(280,311).
link(280,312).
link(281,250).
link(281,251).
link(281,280).
link(281,282).
link(281,312).
link(281,313).
link(282,251).
link(282,252).
link(282,281).
link(282,283).
link(282,313).
link(282,314).
link(283,252).
link(283,282).
link(283,284).
link(283,314).
link(283,315).
link(284,253).
link(284,254).
link(284,283).
link(284,285).
link(284,315).
link(284,316).
link(285,254).
link(285,255).
link(285,284).
link(285,286).
link(285,317).
link(286,255).
link(286,256).
link(286,285).
link(286,287).
link(286,317).
link(286,318).
link(287,256).
link(287,257).
link(287,286).
link(287,288).
link(287,318).
link(287,319).
link(288,257).
link(288,258).
link(288,287).
link(288,289).
link(288,319).
link(288,320).
link(289,258).
link(289,259).
link(289,288).
link(289,290).
link(289,320).
link(29,28).
link(29,30).
link(29,50).
link(29,51).
link(29,8).
link(290,259).
link(290,260).
link(290,289).
link(290,291).
link(290,321).
link(290,322).
link(291,260).
link(291,261).
link(291,290).
link(291,292).
link(291,323).
link(292,261).
link(292,262).
link(292,291).
link(292,293).
link(292,323).
link(292,324).
link(293,262).
link(293,294).
link(293,324).
link(293,325).
link(294,263).
link(294,293).
link(294,295).
link(294,325).
link(294,326).
link(295,264).
link(295,265).
link(295,294).
link(295,296).
link(295,326).
link(295,327).
link(296,265).
link(296,266).
link(296,295).
link(296,297).
link(296,327).
link(296,328).
link(297,266).
link(297,296).
link(297,298).
link(297,328).
link(297,329).
link(298,267).
link(298,268).
link(298,297).
link(298,299).
link(298,329).
link(298,330).
link(299,268).
link(299,269).
link(299,298).
link(299,300).
link(299,331).
link(3,2).
link(3,23).
link(3,24).
link(3,4).
link(30,10).
link(30,29).
link(30,31).
link(30,51).
link(30,52).
link(30,9).
link(300,269).
link(300,270).
link(300,299).
link(300,301).
link(300,331).
link(300,332).
link(301,270).
link(301,300).
link(301,302).
link(301,332).
link(301,333).
link(302,271).
link(302,272).
link(302,333).
link(302,334).
link(303,272).
link(303,273).
link(303,302).
link(303,304).
link(303,334).
link(304,273).
link(304,274).
link(304,303).
link(304,305).
link(304,335).
link(304,336).
link(305,274).
link(305,275).
link(305,304).
link(305,306).
link(305,336).
link(305,337).
link(306,275).
link(306,305).
link(306,337).
link(306,338).
link(307,276).
link(307,308).
link(307,339).
link(307,340).
link(308,276).
link(308,277).
link(308,307).
link(308,309).
link(308,341).
link(309,277).
link(309,278).
link(309,308).
link(309,310).
link(309,341).
link(309,342).
link(31,10).
link(31,11).
link(31,30).
link(31,32).
link(31,52).
link(31,53).
link(310,279).
link(310,311).
link(310,342).
link(310,343).
link(311,279).
link(311,310).
link(311,312).
link(311,343).
link(311,344).
link(312,281).
link(312,311).
link(312,344).
link(312,345).
link(313,281).
link(313,282).
link(313,312).
link(313,314).
link(313,345).
link(313,346).
link(314,282).
link(314,283).
link(314,313).
link(314,315).
link(314,346).
link(314,347).
link(315,283).
link(315,284).
link(315,314).
link(315,316).
link(315,347).
link(315,348).
link(316,284).
link(316,285).
link(316,315).
link(316,317).
link(316,348).
link(316,349).
link(317,285).
link(317,286).
link(317,316).
link(317,318).
link(317,349).
link(317,350).
link(318,286).
link(318,287).
link(318,317).
link(318,319).
link(318,350).
link(318,351).
link(319,288).
link(319,351).
link(319,352).
link(32,11).
link(32,12).
link(32,31).
link(32,33).
link(32,53).
link(32,54).
link(320,288).
link(320,289).
link(320,319).
link(320,321).
link(320,352).
link(320,353).
link(321,289).
link(321,290).
link(321,320).
link(321,322).
link(321,353).
link(321,354).
link(322,290).
link(322,321).
link(322,323).
link(322,354).
link(323,291).
link(323,292).
link(323,322).
link(323,324).
link(323,355).
link(323,356).
link(324,292).
link(324,293).
link(324,323).
link(324,325).
link(324,356).
link(324,357).
link(325,293).
link(325,294).
link(325,324).
link(325,326).
link(325,358).
link(326,294).
link(326,295).
link(326,325).
link(326,358).
link(326,359).
link(327,295).
link(327,296).
link(327,326).
link(327,328).
link(327,360).
link(328,296).
link(328,297).
link(328,327).
link(328,329).
link(328,360).
link(328,361).
link(329,297).
link(329,298).
link(329,328).
link(329,330).
link(329,361).
link(329,362).
link(33,12).
link(33,13).
link(33,32).
link(33,34).
link(33,54).
link(33,55).
link(330,298).
link(330,299).
link(330,329).
link(330,331).
link(330,362).
link(330,363).
link(331,299).
link(331,300).
link(331,330).
link(331,332).
link(331,363).
link(331,364).
link(332,300).
link(332,301).
link(332,331).
link(332,333).
link(332,364).
link(332,365).
link(333,301).
link(333,302).
link(333,332).
link(333,334).
link(333,365).
link(333,366).
link(334,302).
link(334,303).
link(334,333).
link(334,335).
link(334,366).
link(334,367).
link(335,303).
link(335,304).
link(335,334).
link(335,336).
link(335,367).
link(335,368).
link(336,304).
link(336,305).
link(336,335).
link(336,337).
link(336,368).
link(336,369).
link(337,305).
link(337,306).
link(337,336).
link(337,338).
link(337,369).
link(337,370).
link(338,337).
link(338,370).
link(338,371).
link(339,307).
link(339,340).
link(339,372).
link(339,373).
link(34,13).
link(34,14).
link(34,33).
link(34,35).
link(34,55).
link(34,56).
link(340,307).
link(340,308).
link(340,339).
link(340,341).
link(340,373).
link(340,374).
link(341,308).
link(341,309).
link(341,340).
link(341,374).
link(341,375).
link(342,309).
link(342,310).
link(342,341).
link(342,343).
link(342,375).
link(342,376).
link(343,310).
link(343,311).
link(343,342).
link(343,344).
link(343,376).
link(343,377).
link(344,311).
link(344,343).
link(344,345).
link(344,377).
link(344,378).
link(345,312).
link(345,313).
link(345,344).
link(345,346).
link(345,378).
link(345,379).
link(346,313).
link(346,314).
link(346,345).
link(346,347).
link(346,379).
link(346,380).
link(347,314).
link(347,315).
link(347,346).
link(347,348).
link(347,380).
link(347,381).
link(348,315).
link(348,316).
link(348,347).
link(348,349).
link(348,381).
link(348,382).
link(349,316).
link(349,317).
link(349,348).
link(349,350).
link(349,382).
link(349,383).
link(35,15).
link(35,34).
link(35,36).
link(35,56).
link(35,57).
link(350,317).
link(350,318).
link(350,349).
link(350,351).
link(350,383).
link(350,384).
link(351,318).
link(351,319).
link(351,350).
link(351,352).
link(351,384).
link(351,385).
link(352,319).
link(352,320).
link(352,351).
link(352,353).
link(352,385).
link(352,386).
link(353,320).
link(353,321).
link(353,354).
link(353,386).
link(353,387).
link(354,321).
link(354,322).
link(354,353).
link(354,355).
link(354,387).
link(355,322).
link(355,323).
link(355,354).
link(355,356).
link(355,388).
link(356,323).
link(356,324).
link(356,355).
link(356,357).
link(356,389).
link(356,390).
link(357,324).
link(357,325).
link(357,356).
link(357,358).
link(357,390).
link(357,391).
link(358,325).
link(358,326).
link(358,359).
link(358,391).
link(358,392).
link(359,326).
link(359,327).
link(359,358).
link(359,360).
link(359,392).
link(359,393).
link(36,15).
link(36,16).
link(36,35).
link(36,37).
link(36,57).
link(36,58).
link(360,327).
link(360,328).
link(360,359).
link(360,361).
link(360,393).
link(360,394).
link(361,328).
link(361,329).
link(361,360).
link(361,362).
link(361,394).
link(361,395).
link(362,330).
link(362,361).
link(362,363).
link(362,395).
link(362,396).
link(363,330).
link(363,331).
link(363,362).
link(363,364).
link(363,396).
link(363,397).
link(364,331).
link(364,332).
link(364,363).
link(364,365).
link(364,397).
link(364,398).
link(365,332).
link(365,333).
link(365,364).
link(365,366).
link(365,398).
link(365,399).
link(366,333).
link(366,334).
link(366,365).
link(366,367).
link(366,399).
link(366,400).
link(367,334).
link(367,335).
link(367,366).
link(367,368).
link(367,400).
link(367,401).
link(368,335).
link(368,336).
link(368,367).
link(368,369).
link(368,401).
link(368,402).
link(369,336).
link(369,337).
link(369,368).
link(369,370).
link(369,402).
link(369,403).
link(37,16).
link(37,17).
link(37,36).
link(37,58).
link(37,59).
link(370,337).
link(370,338).
link(370,369).
link(370,371).
link(370,403).
link(370,404).
link(371,370).
link(371,404).
link(371,405).
link(372,339).
link(372,373).
link(373,339).
link(373,340).
link(373,372).
link(373,374).
link(374,340).
link(374,373).
link(374,375).
link(375,341).
link(375,342).
link(375,376).
link(376,342).
link(376,343).
link(376,375).
link(376,377).
link(377,343).
link(377,344).
link(377,376).
link(377,378).
link(378,344).
link(378,345).
link(378,377).
link(378,379).
link(379,345).
link(379,346).
link(379,378).
link(379,380).
link(38,17).
link(38,18).
link(38,37).
link(38,39).
link(38,59).
link(38,60).
link(380,346).
link(380,347).
link(380,379).
link(380,381).
link(381,347).
link(381,348).
link(381,380).
link(382,348).
link(382,349).
link(382,381).
link(383,349).
link(383,350).
link(383,382).
link(383,384).
link(384,350).
link(384,351).
link(384,383).
link(384,385).
link(385,352).
link(385,384).
link(385,386).
link(386,352).
link(386,353).
link(386,385).
link(387,353).
link(387,354).
link(387,386).
link(387,388).
link(388,354).
link(388,355).
link(388,387).
link(388,389).
link(389,355).
link(389,356).
link(389,390).
link(39,18).
link(39,19).
link(39,38).
link(39,40).
link(39,61).
link(390,356).
link(390,357).
link(390,389).
link(390,391).
link(391,357).
link(391,390).
link(391,392).
link(392,358).
link(392,359).
link(392,391).
link(393,359).
link(393,360).
link(393,392).
link(393,394).
link(394,360).
link(394,361).
link(394,393).
link(394,395).
link(395,361).
link(395,362).
link(395,394).
link(395,396).
link(396,362).
link(396,363).
link(396,395).
link(396,397).
link(397,363).
link(397,364).
link(397,396).
link(397,398).
link(398,364).
link(398,365).
link(398,397).
link(399,365).
link(399,366).
link(399,398).
link(399,400).
link(4,25).
link(4,3).
link(4,5).
link(40,19).
link(40,20).
link(40,39).
link(40,41).
link(40,62).
link(400,366).
link(400,367).
link(400,399).
link(400,401).
link(401,367).
link(401,368).
link(401,400).
link(401,402).
link(402,401).
link(402,403).
link(403,369).
link(403,370).
link(403,404).
link(404,370).
link(404,371).
link(404,403).
link(404,405).
link(405,371).
link(405,404).
link(41,20).
link(41,40).
link(41,62).
link(41,63).
link(42,21).
link(42,43).
link(42,64).
link(42,65).
link(43,21).
link(43,22).
link(43,42).
link(43,44).
link(43,65).
link(43,66).
link(44,22).
link(44,23).
link(44,43).
link(44,45).
link(45,24).
link(45,44).
link(45,46).
link(45,67).
link(45,68).
link(46,24).
link(46,25).
link(46,45).
link(46,47).
link(46,68).
link(46,69).
link(47,25).
link(47,26).
link(47,46).
link(47,48).
link(47,69).
link(47,70).
link(48,26).
link(48,27).
link(48,47).
link(48,49).
link(48,71).
link(49,27).
link(49,28).
link(49,48).
link(49,50).
link(49,71).
link(49,72).
link(5,25).
link(5,26).
link(5,4).
link(5,6).
link(50,28).
link(50,29).
link(50,49).
link(50,73).
link(51,29).
link(51,50).
link(51,52).
link(51,73).
link(51,74).
link(52,30).
link(52,31).
link(52,51).
link(52,53).
link(52,75).
link(53,31).
link(53,32).
link(53,52).
link(53,75).
link(53,76).
link(54,32).
link(54,33).
link(54,53).
link(54,55).
link(54,76).
link(54,77).
link(55,33).
link(55,54).
link(55,56).
link(55,77).
link(55,78).
link(56,34).
link(56,35).
link(56,55).
link(56,57).
link(56,78).
link(56,79).
link(57,35).
link(57,56).
link(57,58).
link(57,79).
link(57,80).
link(58,36).
link(58,37).
link(58,57).
link(58,59).
link(58,80).
link(58,81).
link(59,37).
link(59,38).
link(59,58).
link(59,60).
link(59,81).
link(59,82).
link(6,26).
link(6,27).
link(6,5).
link(6,7).
link(60,38).
link(60,59).
link(60,61).
link(60,82).
link(60,83).
link(61,39).
link(61,40).
link(61,62).
link(61,84).
link(62,40).
link(62,41).
link(62,61).
link(62,63).
link(62,85).
link(63,41).
link(63,62).
link(63,85).
link(63,86).
link(64,42).
link(64,65).
link(64,87).
link(64,88).
link(65,42).
link(65,64).
link(65,66).
link(65,88).
link(65,89).
link(66,43).
link(66,44).
link(66,65).
link(66,67).
link(66,89).
link(66,90).
link(67,44).
link(67,45).
link(67,66).
link(67,68).
link(67,90).
link(67,91).
link(68,45).
link(68,67).
link(68,69).
link(68,91).
link(68,92).
link(69,46).
link(69,47).
link(69,68).
link(69,70).
link(69,92).
link(69,93).
link(7,27).
link(7,28).
link(7,6).
link(7,8).
link(70,47).
link(70,48).
link(70,69).
link(70,71).
link(70,93).
link(70,94).
link(71,48).
link(71,49).
link(71,72).
link(71,94).
link(71,95).
link(72,49).
link(72,50).
link(72,71).
link(72,73).
link(72,95).
link(72,96).
link(73,50).
link(73,51).
link(73,72).
link(73,74).
link(73,96).
link(73,97).
link(74,51).
link(74,52).
link(74,75).
link(74,97).
link(74,98).
link(75,52).
link(75,53).
link(75,74).
link(75,76).
link(75,98).
link(75,99).
link(76,100).
link(76,53).
link(76,54).
link(76,77).
link(76,99).
link(77,100).
link(77,101).
link(77,54).
link(77,55).
link(77,76).
link(77,78).
link(78,101).
link(78,55).
link(78,56).
link(78,77).
link(78,79).
link(79,102).
link(79,103).
link(79,56).
link(79,57).
link(79,78).
link(79,80).
link(8,28).
link(8,29).
link(8,7).
link(8,9).
link(80,103).
link(80,104).
link(80,57).
link(80,58).
link(80,79).
link(80,81).
link(81,104).
link(81,105).
link(81,58).
link(81,59).
link(81,80).
link(81,82).
link(82,105).
link(82,106).
link(82,59).
link(82,60).
link(82,81).
link(82,83).
link(83,106).
link(83,107).
link(83,60).
link(83,61).
link(83,82).
link(83,84).
link(84,107).
link(84,108).
link(84,61).
link(84,62).
link(84,83).
link(84,85).
link(85,108).
link(85,109).
link(85,62).
link(85,63).
link(85,84).
link(85,86).
link(86,109).
link(86,110).
link(86,63).
link(86,85).
link(87,111).
link(87,64).
link(87,88).
link(88,112).
link(88,113).
link(88,64).
link(88,65).
link(89,113).
link(89,114).
link(89,65).
link(89,66).
link(89,88).
link(89,90).
link(9,10).
link(9,29).
link(9,30).
link(9,8).
link(90,114).
link(90,115).
link(90,66).
link(90,67).
link(90,89).
link(90,91).
link(91,115).
link(91,116).
link(91,67).
link(91,68).
link(91,90).
link(91,92).
link(92,116).
link(92,117).
link(92,68).
link(92,69).
link(92,91).
link(92,93).
link(93,117).
link(93,118).
link(93,69).
link(93,70).
link(93,92).
link(93,94).
link(94,118).
link(94,119).
link(94,70).
link(94,71).
link(94,93).
link(94,95).
link(95,119).
link(95,120).
link(95,71).
link(95,72).
link(95,94).
link(95,96).
link(96,120).
link(96,121).
link(96,72).
link(96,73).
link(96,95).
link(96,97).
link(97,121).
link(97,122).
link(97,73).
link(97,74).
link(97,96).
link(97,98).
link(98,122).
link(98,123).
link(98,74).
link(98,75).
link(98,97).
link(98,99).
link(99,100).
link(99,123).
link(99,124).
link(99,75).
link(99,76).
link(99,98).
