node(1).
node(10).
node(100).
node(101).
node(102).
node(103).
node(104).
node(105).
node(106).
node(107).
node(108).
node(109).
node(11).
node(110).
node(111).
node(112).
node(113).
node(114).
node(115).
node(116).
node(117).
node(118).
node(119).
node(12).
node(120).
node(121).
node(122).
node(123).
node(124).
node(125).
node(126).
node(127).
node(128).
node(129).
node(13).
node(130).
node(131).
node(132).
node(133).
node(134).
node(135).
node(136).
node(137).
node(138).
node(139).
node(14).
node(140).
node(141).
node(142).
node(143).
node(144).
node(145).
node(146).
node(147).
node(148).
node(149).
node(15).
node(150).
node(151).
node(152).
node(153).
node(154).
node(155).
node(156).
node(157).
node(158).
node(159).
node(16).
node(160).
node(161).
node(162).
node(163).
node(164).
node(165).
node(166).
node(167).
node(168).
node(169).
node(17).
node(170).
node(171).
node(172).
node(173).
node(174).
node(175).
node(176).
node(177).
node(178).
node(179).
node(18).
node(180).
node(19).
node(2).
node(20).
node(21).
node(22).
node(23).
node(24).
node(25).
node(26).
node(27).
node(28).
node(29).
node(3).
node(30).
node(31).
node(32).
node(33).
node(34).
node(35).
node(36).
node(37).
node(38).
node(39).
node(4).
node(40).
node(41).
node(42).
node(43).
node(44).
node(45).
node(46).
node(47).
node(48).
node(49).
node(5).
node(50).
node(51).
node(52).
node(53).
node(54).
node(55).
node(56).
node(57).
node(58).
node(59).
node(6).
node(60).
node(61).
node(62).
node(63).
node(64).
node(65).
node(66).
node(67).
node(68).
node(69).
node(7).
node(70).
node(71).
node(72).
node(73).
node(74).
node(75).
node(76).
node(77).
node(78).
node(79).
node(8).
node(80).
node(81).
node(82).
node(83).
node(84).
node(85).
node(86).
node(87).
node(88).
node(89).
node(9).
node(90).
node(91).
node(92).
node(93).
node(94).
node(95).
node(96).
node(97).
node(98).
node(99).
link(1,2).
link(1,7).
link(10,11).
link(10,16).
link(10,9).
link(100,101).
link(100,118).
link(100,82).
link(101,100).
link(101,102).
link(101,119).
link(101,83).
link(102,101).
link(102,103).
link(102,120).
link(102,84).
link(103,102).
link(103,104).
link(103,121).
link(103,85).
link(104,103).
link(104,105).
link(104,122).
link(104,86).
link(105,104).
link(105,106).
link(105,123).
link(105,87).
link(106,105).
link(106,107).
link(106,124).
link(106,88).
link(107,106).
link(107,108).
link(107,89).
link(108,107).
link(108,126).
link(108,90).
link(109,110).
link(109,127).
link(109,91).
link(11,10).
link(11,12).
link(11,5).
link(110,109).
link(110,111).
link(110,128).
link(110,92).
link(111,110).
link(111,112).
link(111,129).
link(111,93).
link(112,111).
link(112,113).
link(112,130).
link(112,94).
link(113,112).
link(113,114).
link(113,131).
link(113,95).
link(114,113).
link(114,115).
link(114,132).
link(114,96).
link(115,114).
link(115,116).
link(115,133).
link(115,97).
link(116,115).
link(116,117).
link(116,134).
link(116,98).
link(117,116).
link(117,118).
link(117,135).
link(117,99).
link(118,100).
link(118,117).
link(118,119).
link(119,101).
link(119,118).
link(119,120).
link(119,137).
link(12,11).
link(12,18).
link(12,6).
link(120,102).
link(120,119).
link(120,121).
link(120,138).
link(121,103).
link(121,120).
link(121,122).
link(121,139).
link(122,104).
link(122,121).
link(122,123).
link(122,140).
link(123,105).
link(123,122).
link(123,124).
link(123,141).
link(124,106).
link(124,123).
link(124,125).
link(124,142).
link(125,107).
link(125,126).
link(125,143).
link(126,108).
link(126,125).
link(126,144).
link(127,109).
link(127,128).
link(128,110).
link(128,127).
link(128,129).
link(129,111).
link(129,128).
link(129,130).
link(13,7).
link(130,112).
link(130,131).
link(131,113).
link(131,130).
link(131,132).
link(132,114).
link(132,131).
link(132,133).
link(133,115).
link(133,132).
link(133,134).
link(133,145).
link(134,116).
link(134,133).
link(134,135).
link(134,146).
link(135,117).
link(135,134).
link(135,136).
link(135,147).
link(136,118).
link(136,135).
link(136,137).
link(136,148).
link(137,119).
link(137,136).
link(137,138).
link(137,149).
link(138,120).
link(138,137).
link(138,139).
link(138,150).
link(139,121).
link(139,138).
link(139,140).
link(14,13).
link(14,15).
link(14,20).
link(14,8).
link(140,122).
link(140,139).
link(140,141).
link(141,123).
link(141,140).
link(142,124).
link(142,141).
link(142,143).
link(143,125).
link(143,142).
link(143,144).
link(144,126).
link(144,143).
link(145,133).
link(145,146).
link(146,134).
link(146,145).
link(146,147).
link(146,152).
link(147,135).
link(147,146).
link(147,148).
link(147,153).
link(148,136).
link(148,147).
link(148,149).
link(148,154).
link(149,137).
link(149,148).
link(149,150).
link(149,155).
link(15,21).
link(15,9).
link(150,138).
link(150,149).
link(150,156).
link(151,145).
link(151,157).
link(152,146).
link(152,151).
link(152,153).
link(152,158).
link(153,147).
link(153,152).
link(153,154).
link(153,159).
link(154,148).
link(154,153).
link(154,155).
link(154,160).
link(155,154).
link(155,156).
link(155,161).
link(156,150).
link(156,155).
link(157,151).
link(157,158).
link(157,163).
link(158,152).
link(158,157).
link(158,159).
link(158,164).
link(159,153).
link(159,158).
link(159,160).
link(159,165).
link(16,10).
link(16,15).
link(16,17).
link(160,154).
link(160,159).
link(160,161).
link(160,166).
link(161,155).
link(161,160).
link(161,167).
link(162,156).
link(162,161).
link(162,168).
link(163,157).
link(163,164).
link(163,169).
link(164,158).
link(164,163).
link(164,165).
link(164,170).
link(165,159).
link(165,164).
link(165,166).
link(165,171).
link(166,160).
link(166,165).
link(166,167).
link(166,172).
link(167,161).
link(167,166).
link(167,168).
link(167,173).
link(168,162).
link(168,167).
link(168,174).
link(169,163).
link(169,170).
link(169,175).
link(17,11).
link(17,16).
link(17,18).
link(17,23).
link(170,169).
link(170,171).
link(170,176).
link(171,165).
link(171,170).
link(171,172).
link(171,177).
link(172,166).
link(172,171).
link(172,173).
link(172,178).
link(173,167).
link(173,172).
link(173,174).
link(173,179).
link(174,168).
link(174,173).
link(174,180).
link(175,176).
link(176,170).
link(176,175).
link(176,177).
link(177,171).
link(177,176).
link(178,172).
link(178,177).
link(178,179).
link(179,173).
link(179,178).
link(179,180).
link(18,12).
link(18,17).
link(18,24).
link(180,174).
link(180,179).
link(19,13).
link(19,20).
link(19,25).
link(2,1).
link(2,3).
link(2,8).
link(20,14).
link(20,19).
link(20,21).
link(20,26).
link(21,15).
link(21,20).
link(21,22).
link(21,27).
link(22,16).
link(22,23).
link(22,28).
link(23,17).
link(23,22).
link(23,24).
link(23,29).
link(24,18).
link(24,23).
link(24,30).
link(25,19).
link(25,26).
link(25,31).
link(26,20).
link(26,25).
link(26,27).
link(26,32).
link(27,21).
link(27,26).
link(27,28).
link(27,33).
link(28,22).
link(28,27).
link(28,29).
link(28,34).
link(29,23).
link(29,30).
link(29,35).
link(3,2).
link(3,4).
link(3,9).
link(30,24).
link(30,29).
link(30,36).
link(31,25).
link(31,32).
link(31,43).
link(32,26).
link(32,31).
link(32,33).
link(32,44).
link(33,27).
link(33,32).
link(33,34).
link(33,45).
link(34,28).
link(34,33).
link(34,35).
link(34,46).
link(35,29).
link(35,34).
link(35,36).
link(35,47).
link(36,30).
link(36,48).
link(37,38).
link(37,55).
link(38,39).
link(38,56).
link(39,38).
link(39,40).
link(39,57).
link(4,10).
link(4,3).
link(4,5).
link(40,39).
link(40,41).
link(40,58).
link(41,40).
link(41,42).
link(41,59).
link(42,41).
link(42,43).
link(42,60).
link(43,31).
link(43,42).
link(43,44).
link(43,61).
link(44,32).
link(44,43).
link(44,45).
link(44,62).
link(45,33).
link(45,44).
link(45,46).
link(45,63).
link(46,34).
link(46,45).
link(46,47).
link(46,64).
link(47,35).
link(47,46).
link(47,48).
link(47,65).
link(48,36).
link(48,47).
link(48,49).
link(48,66).
link(49,48).
link(49,50).
link(49,67).
link(5,11).
link(5,4).
link(5,6).
link(50,49).
link(50,51).
link(50,68).
link(51,50).
link(51,52).
link(51,69).
link(52,51).
link(52,53).
link(52,70).
link(53,52).
link(53,54).
link(53,71).
link(54,53).
link(54,72).
link(55,37).
link(55,56).
link(55,73).
link(56,38).
link(56,55).
link(56,57).
link(56,74).
link(57,39).
link(57,56).
link(57,58).
link(57,75).
link(58,57).
link(58,59).
link(58,76).
link(59,41).
link(59,58).
link(59,60).
link(59,77).
link(6,12).
link(6,5).
link(60,59).
link(60,61).
link(61,43).
link(61,60).
link(61,62).
link(61,79).
link(62,44).
link(62,61).
link(62,63).
link(62,80).
link(63,45).
link(63,62).
link(63,64).
link(63,81).
link(64,46).
link(64,63).
link(64,65).
link(65,47).
link(65,64).
link(65,66).
link(65,83).
link(66,48).
link(66,65).
link(66,67).
link(66,84).
link(67,49).
link(67,66).
link(67,68).
link(67,85).
link(68,50).
link(68,67).
link(68,69).
link(68,86).
link(69,51).
link(69,68).
link(69,70).
link(69,87).
link(7,1).
link(7,8).
link(70,52).
link(70,69).
link(70,71).
link(70,88).
link(71,53).
link(71,70).
link(71,72).
link(71,89).
link(72,54).
link(72,71).
link(72,90).
link(73,55).
link(73,74).
link(73,91).
link(74,56).
link(74,73).
link(74,75).
link(74,92).
link(75,57).
link(75,76).
link(75,93).
link(76,58).
link(76,75).
link(76,94).
link(77,59).
link(77,76).
link(77,78).
link(77,95).
link(78,60).
link(78,77).
link(78,79).
link(78,96).
link(79,61).
link(79,78).
link(79,80).
link(79,97).
link(8,14).
link(8,2).
link(8,7).
link(8,9).
link(80,79).
link(80,81).
link(80,98).
link(81,63).
link(81,80).
link(81,82).
link(81,99).
link(82,100).
link(82,64).
link(82,81).
link(82,83).
link(83,101).
link(83,65).
link(83,82).
link(83,84).
link(84,102).
link(84,66).
link(84,83).
link(84,85).
link(85,103).
link(85,67).
link(85,84).
link(85,86).
link(86,68).
link(86,85).
link(86,87).
link(87,69).
link(87,86).
link(87,88).
link(88,106).
link(88,70).
link(88,87).
link(88,89).
link(89,107).
link(89,71).
link(89,88).
link(9,10).
link(9,15).
link(9,3).
link(9,8).
link(90,108).
link(90,72).
link(90,89).
link(91,109).
link(91,73).
link(91,92).
link(92,110).
link(92,74).
link(92,91).
link(92,93).
link(93,111).
link(93,75).
link(93,92).
link(93,94).
link(94,112).
link(94,76).
link(94,93).
link(94,95).
link(95,113).
link(95,77).
link(95,94).
link(95,96).
link(96,114).
link(96,78).
link(96,95).
link(96,97).
link(97,115).
link(97,79).
link(97,96).
link(97,98).
link(98,116).
link(98,80).
link(98,99).
link(99,117).
link(99,81).
link(99,98).
