arg(1..7346).
att(6301,1429).
att(6835,6591).
att(497,5323).
att(1514,1692).
att(25,2396).
att(5294,3668).
att(1269,395).
att(2545,532).
att(3646,554).
att(7241,4833).
att(2153,4342).
att(5009,1402).
att(3739,617).
att(5994,2750).
att(3132,4230).
att(4921,5102).
att(5964,6180).
att(637,2409).
att(1350,412).
att(2854,1235).
att(6524,4591).
att(5724,7140).
att(3236,4741).
att(5532,1649).
att(2648,3807).
att(1673,7075).
att(6240,3311).
att(828,6899).
att(4661,6610).
att(1720,1873).
att(6463,308).
att(5855,3896).
att(4768,1936).
att(2628,4899).
att(2007,1180).
att(227,6660).
att(1472,1563).
att(3665,4008).
att(7326,4396).
att(4978,1813).
att(5439,4060).
att(3959,2265).
att(2279,6951).
att(6661,4352).
att(2635,5107).
att(3355,6552).
att(5590,2894).
att(6772,2849).
att(284,43).
att(3040,6949).
att(6442,1095).
att(3189,5851).
att(4582,1566).
att(2632,1660).
att(2027,7320).
att(4507,6839).
att(5442,4758).
att(2020,6176).
att(6007,5572).
att(1961,6679).
att(212,5830).
att(7006,4998).
att(6216,5466).
att(6855,6580).
att(5326,4633).
att(446,3337).
att(4471,5907).
att(5547,5963).
att(6362,3864).
att(5168,6066).
att(4575,2370).
att(2727,3025).
att(5262,5446).
att(6613,3366).
att(1125,5486).
att(455,6345).
att(585,1139).
att(2633,2338).
att(1631,4552).
att(4959,3404).
att(5719,120).
att(6816,5129).
att(4087,3726).
att(3762,3429).
att(1766,5822).
att(86,4428).
att(1893,2517).
att(5583,2370).
att(4483,1932).
att(3116,2551).
att(5545,6573).
att(5040,2182).
att(235,4672).
att(3243,1237).
att(388,6250).
att(5295,3203).
att(318,2936).
att(5647,4686).
att(2994,3439).
att(2115,992).
att(3118,5572).
att(6998,3042).
att(7039,2212).
att(5171,5544).
att(4129,5328).
att(801,834).
att(4199,1772).
att(5704,4636).
att(4445,5821).
att(3211,3306).
att(6839,1687).
att(6538,1808).
att(3155,5019).
att(6693,6436).
att(7249,6734).
att(4709,4690).
att(33,2272).
att(2441,2940).
att(2836,4687).
att(5012,617).
att(1878,7124).
att(721,4166).
att(6063,1756).
att(5613,2811).
att(5213,6894).
att(5304,2262).
att(952,6328).
att(2442,6981).
att(6695,2186).
att(4363,2063).
att(7157,1923).
att(1492,1448).
att(4881,6000).
att(4700,1008).
att(3590,1634).
att(5421,2380).
att(7110,1071).
att(4865,2518).
att(5222,6868).
att(6280,3484).
att(3870,6285).
att(470,1361).
att(5779,6505).
att(2242,5606).
att(1082,3052).
att(1504,2377).
att(2568,3370).
att(225,1031).
att(6711,4087).
att(5194,2584).
att(3085,6276).
att(2922,6885).
att(3535,6511).
att(1145,3607).
att(4268,5711).
att(5928,6397).
att(927,4387).
att(5234,2769).
att(2864,4932).
att(4674,1158).
att(6943,5621).
att(5713,3087).
att(2749,1989).
att(4928,968).
att(4065,2694).
att(4515,708).
att(5319,1972).
att(6798,398).
att(6151,7076).
att(4080,3919).
att(915,4614).
att(1337,5030).
att(1075,3452).
att(819,5304).
att(435,891).
att(4139,4474).
att(4788,2780).
att(2861,6475).
att(2024,1536).
att(1363,1485).
att(727,6124).
att(6438,5701).
att(3620,2350).
att(2124,3202).
att(2034,3117).
att(2306,5787).
att(1684,5565).
att(387,6014).
att(6,2586).
att(1979,3847).
att(2873,7055).
att(4800,2092).
att(6272,7266).
att(6442,3256).
att(5049,5873).
att(6165,3688).
att(754,4053).
att(7341,5527).
att(1974,270).
att(4578,557).
att(2646,7345).
att(5751,6547).
att(4345,5090).
att(159,248).
att(755,7182).
att(4391,370).
att(1562,7220).
att(6565,6148).
att(6800,860).
att(6488,7237).
att(894,4344).
att(5854,5888).
att(4840,4382).
att(6936,4633).
att(550,1014).
att(6244,4517).
att(1539,6911).
att(3448,782).
att(2875,1179).
att(6518,1874).
att(3998,4028).
att(5357,2176).
att(4884,6866).
att(1407,7327).
att(573,3181).
att(2369,5544).
att(809,3957).
att(4414,490).
att(4545,6634).
att(6808,1545).
att(5593,7125).
att(823,3276).
att(5173,5971).
att(6338,6535).
att(2614,4520).
att(3455,5259).
att(2081,4156).
att(5611,4422).
att(3932,1921).
att(2120,7023).
att(4863,5197).
att(3532,3858).
att(5183,3124).
att(7183,1865).
att(5951,3856).
att(6349,3508).
att(1276,3722).
att(4679,5925).
att(5214,4421).
att(4075,7342).
att(2194,3524).
att(2222,1207).
att(5438,2956).
att(2046,2683).
att(1252,4348).
att(6730,1060).
att(4947,4833).
att(2994,299).
att(5697,6107).
att(4637,4940).
att(6796,3267).
att(4927,1788).
att(2707,4546).
att(4920,927).
att(664,2343).
att(6115,5479).
att(1635,220).
att(582,2578).
att(5529,5783).
att(5425,5531).
att(5200,5746).
att(5386,3077).
att(3508,6349).
att(316,2981).
att(2584,5194).
att(6590,6955).
att(7045,5587).
att(6472,3962).
att(3706,6975).
att(3989,1441).
att(2311,1258).
att(1347,6740).
att(5360,1077).
att(3858,1861).
att(1843,4192).
att(7193,1668).
att(3658,5504).
att(4812,6938).
att(3891,6214).
att(6766,5098).
att(51,4698).
att(1190,6303).
att(5708,4376).
att(2492,3142).
att(6028,1270).
att(4209,6351).
att(5846,4484).
att(1554,214).
att(3170,3739).
att(3450,6898).
att(6057,1976).
att(2731,2998).
att(732,6212).
att(4154,3122).
att(3513,6546).
att(4590,1092).
att(71,702).
att(3114,2145).
att(3190,562).
att(3396,2255).
att(2417,1485).
att(5882,3507).
att(1624,4406).
att(6761,5532).
att(3498,3323).
att(6252,5871).
att(1358,4725).
att(3938,997).
att(3292,2530).
att(3299,149).
att(3343,1418).
att(6256,1819).
att(302,2272).
att(5588,4389).
att(5199,6366).
att(2987,4578).
att(2888,5432).
att(4050,507).
att(180,1221).
att(4405,3132).
att(4551,3488).
att(3257,561).
att(7284,3060).
att(1515,2480).
att(1139,6818).
att(3693,5158).
att(7246,4182).
att(2246,372).
att(5307,190).
att(3694,3527).
att(4901,1592).
att(4118,817).
att(7135,1107).
att(6504,51).
att(3237,1367).
att(5718,2803).
att(3632,678).
att(6331,1467).
att(3423,2375).
att(2079,430).
att(561,3257).
att(3042,6998).
att(5573,6233).
att(294,6373).
att(4516,385).
att(1537,2765).
att(5506,1627).
att(4395,3234).
att(35,1400).
att(4123,6008).
att(6075,667).
att(5761,6212).
att(4388,3984).
att(6639,4745).
att(5103,3070).
att(2291,6873).
att(4306,5816).
att(5236,6263).
att(4011,2210).
att(2359,6932).
att(3203,3575).
att(614,4015).
att(1942,3006).
att(4843,967).
att(930,6073).
att(6312,2845).
att(555,5013).
att(2348,1580).
att(6479,4279).
att(6033,185).
att(412,1350).
att(6316,4609).
att(7133,6403).
att(1429,1020).
att(2008,2154).
att(5465,2103).
att(7042,5638).
att(1168,5317).
att(3333,821).
att(888,5256).
att(123,3631).
att(4267,2018).
att(4468,4398).
att(5127,3384).
att(7328,7088).
att(480,4298).
att(2270,385).
att(2090,3657).
att(3022,3632).
att(1700,1913).
att(4390,4969).
att(6755,2428).
att(151,2593).
att(6885,5495).
att(687,6011).
att(6496,665).
att(1708,2417).
att(7181,3914).
att(1857,596).
att(828,4117).
att(5652,3030).
att(4113,6408).
att(3228,2668).
att(6159,6313).
att(6333,5223).
att(6701,6051).
att(4532,5767).
att(3386,3501).
att(3465,726).
att(552,7271).
att(886,774).
att(1108,2837).
att(2066,2989).
att(6602,1604).
att(358,1938).
att(5774,3697).
att(646,2340).
att(2355,1496).
att(2192,2385).
att(4929,760).
att(5472,49).
att(4118,4257).
att(4190,6700).
att(3887,6794).
att(5805,1281).
att(1601,3794).
att(3221,3761).
att(7074,1688).
att(759,630).
att(722,4384).
att(3080,767).
att(3781,2476).
att(3476,4179).
att(5560,2048).
att(1908,6664).
att(1103,3450).
att(3459,5143).
att(6583,382).
att(1537,7335).
att(2904,2997).
att(522,6387).
att(777,761).
att(4457,2077).
att(6742,5196).
att(4261,2774).
att(2842,6842).
att(2060,6656).
att(940,2285).
att(6288,6021).
att(291,2429).
att(1467,4443).
att(1373,3279).
att(6649,4768).
att(5904,58).
att(7179,1784).
att(2215,3156).
att(418,7313).
att(7173,2150).
att(4669,1907).
att(7134,6225).
att(7247,746).
att(5398,6838).
att(6114,5708).
att(964,5235).
att(3617,3446).
att(442,5658).
att(2,6760).
att(2458,5165).
att(5765,2447).
att(537,7173).
att(1356,917).
att(4881,3368).
att(3323,3498).
att(6934,6326).
att(4221,5222).
att(6497,1071).
att(914,1493).
att(931,5579).
att(1973,1259).
att(4920,6646).
att(3011,4849).
att(1485,2417).
att(5508,5267).
att(587,4574).
att(6046,475).
att(6861,6102).
att(1932,4483).
att(947,792).
att(1197,5277).
att(4548,2184).
att(3113,5705).
att(5463,6286).
att(3021,502).
att(5462,4616).
att(2499,4286).
att(5813,3226).
att(3919,3379).
att(4874,3475).
att(3862,4456).
att(6723,7160).
att(4360,4611).
att(2219,2772).
att(4483,6444).
att(2503,4280).
att(2786,2203).
att(3983,2017).
att(1227,5943).
att(2622,2026).
att(1077,5360).
att(3773,4237).
att(1206,2493).
att(3163,4783).
att(5681,7165).
att(2705,4951).
att(1564,286).
att(2753,342).
att(5085,5471).
att(6003,4743).
att(1213,2252).
att(547,2737).
att(5297,6713).
att(6342,1325).
att(3935,3357).
att(6111,6636).
att(2814,6667).
att(2127,7296).
att(4079,1920).
att(779,5203).
att(3703,1645).
att(503,2979).
att(7286,802).
att(3828,6131).
att(4049,4037).
att(3269,1433).
att(4650,92).
att(6096,425).
att(2577,1447).
att(670,454).
att(5612,5067).
att(5748,5145).
att(1421,2392).
att(4472,6845).
att(4841,7030).
att(361,3465).
att(3727,4242).
att(6435,7139).
att(1508,3929).
att(667,6075).
att(2003,5342).
att(5231,7309).
att(2789,7253).
att(4353,904).
att(1825,5460).
att(4619,3319).
att(1202,6583).
att(5451,545).
att(5586,5630).
att(5914,779).
att(6662,2354).
att(1729,6523).
att(7213,1870).
att(4278,3872).
att(4092,5470).
att(3901,5719).
att(6446,3522).
att(1476,5535).
att(1325,4715).
att(7294,1511).
att(1109,3018).
att(5555,2978).
att(3662,5159).
att(4346,5184).
att(2977,1801).
att(412,2470).
att(3550,6341).
att(6243,4215).
att(2142,2553).
att(4279,6479).
att(5067,5612).
att(2655,2211).
att(1077,5756).
att(391,6082).
att(821,3333).
att(2880,166).
att(1582,2714).
att(5520,4870).
att(1182,1085).
att(3415,5276).
att(6509,5126).
att(5397,3898).
att(3690,2720).
att(5399,3356).
att(263,919).
att(6574,6929).
att(753,5620).
att(7334,6167).
att(4037,4049).
att(3500,5604).
att(4936,5664).
att(828,5353).
att(5267,5508).
att(6785,1159).
att(5848,940).
att(613,2032).
att(2551,2229).
att(1738,5824).
att(2305,559).
att(7013,6254).
att(6537,3560).
att(424,3105).
att(6836,4966).
att(1089,3037).
att(6740,1475).
att(853,1996).
att(3986,2513).
att(6417,1176).
att(456,2273).
att(6121,6364).
att(2631,7306).
att(1529,4886).
att(4516,3096).
att(2280,1819).
att(6742,723).
att(4802,2796).
att(2951,3470).
att(4110,6698).
att(6864,2051).
att(5663,3366).
att(2510,5026).
att(3330,5408).
att(6135,7096).
att(2970,7343).
att(6830,4581).
att(3233,3177).
att(4486,1490).
att(6436,271).
att(2867,6435).
att(2896,4799).
att(4673,1337).
att(6916,927).
att(5181,6222).
att(4520,2108).
att(756,1223).
att(5806,2790).
att(4911,1013).
att(275,3175).
att(1189,7001).
att(5623,65).
att(1087,4127).
att(96,5547).
att(5012,4323).
att(5835,3650).
att(2645,5080).
att(6920,6444).
att(5742,1866).
att(53,2177).
att(4147,6808).
att(5820,3633).
att(1918,2550).
att(2289,6178).
att(2286,7044).
att(5988,3651).
att(3232,2675).
att(4934,893).
att(5152,1500).
att(1926,5048).
att(7001,335).
att(226,6190).
att(6619,1530).
att(371,7216).
att(1267,1884).
att(6954,5598).
att(841,2908).
att(3209,6207).
att(3308,5543).
att(5140,2367).
att(2730,532).
att(7045,3534).
att(1524,1064).
att(3692,5886).
att(5191,157).
att(605,6622).
att(6294,3916).
att(3700,3443).
att(6385,1909).
att(3634,3092).
att(5925,4679).
att(6207,3209).
att(529,5248).
att(4301,5538).
att(5374,1751).
att(5182,3285).
att(6348,1787).
att(4041,1363).
att(2667,2725).
att(3924,6862).
att(4300,1705).
att(6455,1178).
att(3550,3708).
att(1238,1083).
att(1669,3071).
att(2772,2219).
att(4820,568).
att(3605,3376).
att(394,5678).
att(1555,4785).
att(4730,3056).
att(1004,3573).
att(5271,447).
att(19,6242).
att(4963,2835).
att(2301,7326).
att(3514,39).
att(340,3528).
att(2252,1213).
att(6318,6754).
att(6541,3708).
att(7333,4437).
att(619,3272).
att(5787,2306).
att(1818,6924).
att(5611,5013).
att(3506,6788).
att(2113,4429).
att(2639,7053).
att(2661,5916).
att(7128,6134).
att(3634,930).
att(5081,3869).
att(717,1570).
att(5574,2353).
att(1221,4696).
att(1440,2792).
att(4027,1587).
att(2607,2742).
att(3841,2535).
att(5427,6047).
att(2052,2384).
att(5078,864).
att(6172,1167).
att(6671,4316).
att(4400,4900).
att(3465,4099).
att(1980,7053).
att(4110,2908).
att(1340,4400).
att(5418,4141).
att(5332,1153).
att(1089,5415).
att(3997,4675).
att(1647,490).
att(5312,5582).
att(256,6326).
att(938,3434).
att(1477,5012).
att(3350,6889).
att(7229,1159).
att(6298,4086).
att(1562,627).
att(4255,3190).
att(2575,6554).
att(4119,2695).
att(6857,2946).
att(6937,160).
att(4773,2281).
att(2306,2139).
att(1970,3273).
att(336,4133).
att(207,3769).
att(5981,6814).
att(940,5848).
att(2715,1292).
att(6746,1077).
att(2472,4050).
att(4904,4009).
att(6679,1911).
att(3217,3756).
att(21,1157).
att(6687,3530).
att(6497,2414).
att(5105,5574).
att(4505,4523).
att(2268,1523).
att(5193,650).
att(5366,807).
att(477,1784).
att(5029,1076).
att(1352,4820).
att(4049,306).
att(3314,625).
att(623,4225).
att(5544,5171).
att(4512,4614).
att(1825,4268).
att(5343,5768).
att(2854,7114).
att(6039,1412).
att(6091,4518).
att(2766,4426).
att(6135,2590).
att(7343,1159).
att(5652,2209).
att(265,573).
att(4350,5956).
att(1702,6522).
att(5139,4026).
att(2691,2750).
att(4049,2357).
att(3324,3445).
att(4675,1985).
att(4993,6480).
att(2134,6287).
att(2536,6407).
att(2078,3020).
att(6036,4058).
att(4331,2796).
att(5674,2185).
att(6811,5571).
att(3288,4350).
att(147,1769).
att(2068,623).
att(3158,3638).
att(53,6470).
att(5904,5659).
att(2257,4703).
att(4337,4198).
att(7046,6367).
att(1033,220).
att(5621,5565).
att(1751,1806).
att(5674,3332).
att(4606,5132).
att(5765,2658).
att(6780,2432).
att(1659,6530).
att(2608,1365).
att(2000,1758).
att(6026,3864).
att(4178,7157).
att(1372,3696).
att(1295,7285).
att(5731,385).
att(2432,4933).
att(7011,1018).
att(4735,4272).
att(4339,1685).
att(5662,1121).
att(2499,511).
att(5483,2041).
att(4184,444).
att(2370,4575).
att(6401,187).
att(1456,4261).
att(3620,162).
att(5538,71).
att(5841,6584).
att(6250,388).
att(7227,2737).
att(6324,2757).
att(370,6012).
att(2880,4736).
att(730,7048).
att(4957,3626).
att(553,6693).
att(3813,3956).
att(2614,6519).
att(2800,4811).
att(666,5788).
att(3393,4603).
att(6494,6925).
att(3794,6567).
att(6092,2758).
att(4027,2550).
att(2515,7020).
att(920,5684).
att(5604,3500).
att(1758,6451).
att(1453,3843).
att(3838,1832).
att(3190,6005).
att(5695,2678).
att(1882,987).
att(6992,6486).
att(4044,2747).
att(746,3255).
att(4317,3775).
att(6214,3891).
att(603,6652).
att(4726,6299).
att(5268,5582).
att(1531,2643).
att(2613,1138).
att(804,3650).
att(2520,6939).
att(6489,1986).
att(1311,6044).
att(5196,6742).
att(4702,6635).
att(2087,134).
att(3360,2790).
att(7178,6991).
att(799,5334).
att(947,1566).
att(5273,3469).
att(384,3457).
att(6102,6861).
att(1571,499).
att(4929,1791).
att(218,4232).
att(96,4659).
att(2335,6899).
att(1000,3050).
att(1931,7053).
att(6849,5822).
att(1255,2440).
att(6314,3835).
att(4864,3257).
att(5323,5272).
att(1576,3669).
att(785,4389).
att(4218,4289).
att(2647,3829).
att(6709,1730).
att(7094,4366).
att(2360,6543).
att(1817,5521).
att(351,6069).
att(6420,1001).
att(6939,3223).
att(114,4184).
att(4587,3820).
att(3115,1248).
att(1464,6744).
att(2369,6296).
att(1374,1201).
att(6653,4402).
att(4459,20).
att(6017,6497).
att(6911,1539).
att(4898,3824).
att(6191,4322).
att(6509,2351).
att(1732,6213).
att(5260,5217).
att(7160,4239).
att(2713,2945).
att(6350,1867).
att(1642,6524).
att(5838,6231).
att(4568,2162).
att(253,1073).
att(5710,2741).
att(1373,266).
att(5419,6004).
att(499,3574).
att(1721,6963).
att(3287,2960).
att(741,5651).
att(746,6029).
att(5622,1756).
att(2006,406).
att(5092,2873).
att(6490,3580).
att(746,6486).
att(1580,6852).
att(4010,3404).
att(288,6138).
att(518,3341).
att(5407,887).
att(5448,3407).
att(6497,6017).
att(3944,1208).
att(1884,7196).
att(2086,6254).
att(6185,6648).
att(5196,4196).
att(6572,4465).
att(2524,504).
att(2220,7204).
att(2405,6904).
att(3298,2505).
att(996,2405).
att(3536,674).
att(5040,4463).
att(3912,4721).
att(6631,2283).
att(1685,4339).
att(7188,2012).
att(6625,1679).
att(6997,5276).
att(296,4683).
att(2637,5175).
att(566,2192).
att(1798,3503).
att(2411,2507).
att(7263,4021).
att(1105,7046).
att(6383,2011).
att(5664,5828).
att(1868,3920).
att(3601,1389).
att(5322,858).
att(4477,6703).
att(240,2809).
att(5833,678).
att(3638,6248).
att(4218,2457).
att(592,5230).
att(1551,3619).
att(2036,5826).
att(1532,4111).
att(3061,3932).
att(3166,1915).
att(4830,4960).
att(3465,361).
att(3193,5038).
att(3764,2308).
att(1236,6445).
att(5592,800).
att(4389,6814).
att(3494,2179).
att(856,1464).
att(6860,2276).
att(4432,2735).
att(191,3566).
att(4443,1170).
att(5133,6444).
att(6717,177).
att(2543,5097).
att(1232,6140).
att(2426,3727).
att(6571,5208).
att(7298,6266).
att(3499,4262).
att(2429,291).
att(814,810).
att(5782,3950).
att(7269,313).
att(513,5136).
att(3438,3772).
att(6009,5688).
att(788,4243).
att(5641,3426).
att(5073,6282).
att(6015,2574).
att(7112,5727).
att(6092,2146).
att(5933,1085).
att(4924,6339).
att(3622,28).
att(105,3699).
att(4974,1163).
att(5967,3553).
att(7212,7036).
att(601,2676).
att(1019,3339).
att(4391,2362).
att(1737,943).
att(7229,4659).
att(6946,144).
att(3296,28).
att(4674,6861).
att(1366,1112).
att(4570,4934).
att(2765,5962).
att(1539,3186).
att(1317,883).
att(928,4511).
att(334,4664).
att(1802,7090).
att(216,6721).
att(6890,3300).
att(1771,72).
att(4822,3416).
att(5543,3308).
att(6427,3923).
att(3225,3855).
att(1048,6656).
att(3636,1578).
att(1284,1457).
att(4966,6836).
att(510,153).
att(2154,243).
att(5555,1478).
att(1200,1526).
att(6951,4617).
att(6961,1522).
att(3508,6322).
att(1711,459).
att(7145,1624).
att(1532,487).
att(6110,2940).
att(4316,6671).
att(4980,7146).
att(844,4313).
att(7180,5617).
att(2722,3978).
att(4257,264).
att(6570,3739).
att(4036,5945).
att(1510,5876).
att(5024,5727).
att(2104,1633).
att(6309,3711).
att(1004,4112).
att(6328,531).
att(7009,6899).
att(1582,3031).
att(6758,620).
att(3541,4532).
att(5723,7148).
att(6333,6182).
att(4790,2053).
att(898,6841).
att(227,3783).
att(4229,3321).
att(7304,2700).
att(7270,5918).
att(1715,4938).
att(6522,5493).
att(2310,2015).
att(3424,4706).
att(4319,200).
att(6427,3236).
att(3622,1216).
att(2284,866).
att(5875,2687).
att(4995,1984).
att(450,2471).
att(2891,1701).
att(6952,1080).
att(4630,3585).
att(4174,6735).
att(2134,1631).
att(5305,3102).
att(5476,1746).
att(6130,588).
att(3878,1800).
att(1016,7117).
att(902,699).
att(3517,5817).
att(2061,544).
att(7276,938).
att(6323,3848).
att(3699,1768).
att(4008,3665).
att(5741,4641).
att(5993,3043).
att(3643,4814).
att(2442,4984).
att(6606,4790).
att(4830,3130).
att(3548,6530).
att(6468,1587).
att(880,4844).
att(5131,5878).
att(1872,792).
att(89,1334).
att(1596,3156).
att(2277,2916).
att(5671,1385).
att(3319,5019).
att(6371,3811).
att(3777,5720).
att(2403,1211).
att(585,7043).
att(3134,6049).
att(4420,5707).
att(2226,4856).
att(5812,2105).
att(4786,1062).
att(4271,5596).
att(1755,656).
att(6564,864).
att(1937,6097).
att(540,2872).
att(2670,2526).
att(3229,2993).
att(379,4810).
att(1306,3816).
att(5159,3284).
att(5815,201).
att(2176,5350).
att(1143,2450).
att(4925,1295).
att(415,4470).
att(4015,614).
att(270,1974).
att(1000,785).
att(6866,4884).
att(7054,838).
att(273,2804).
att(3602,4171).
att(5458,6624).
att(4460,3746).
att(4970,5886).
att(1985,3815).
att(6338,1631).
att(4507,2677).
att(5542,227).
att(3303,808).
att(965,6524).
att(1108,3824).
att(2701,2352).
att(1798,5701).
att(1823,5341).
att(4470,415).
att(699,3539).
att(2540,635).
att(1843,195).
att(5888,1475).
att(3036,3549).
att(587,2445).
att(1219,454).
att(6838,1906).
att(5721,6281).
att(7169,3818).
att(4096,4910).
att(4089,1786).
att(4415,5643).
att(3745,3146).
att(2804,273).
att(3053,3416).
att(2502,4770).
att(2292,1545).
att(7022,3898).
att(3796,5495).
att(5980,2434).
att(4183,1160).
att(5559,261).
att(7168,521).
att(5288,2036).
att(215,4773).
att(1276,3166).
att(4509,839).
att(2417,3760).
att(2979,1297).
att(6062,39).
att(1034,902).
att(852,5368).
att(6571,6821).
att(5164,3977).
att(39,6943).
att(3783,5851).
att(6218,2098).
att(2096,4245).
att(4726,7068).
att(6889,3350).
att(3291,3442).
att(2385,2192).
att(3758,2518).
att(5390,4158).
att(1732,2976).
att(4494,7035).
att(2673,5422).
att(2170,5623).
att(1940,2771).
att(1239,1494).
att(4170,2712).
att(920,1119).
att(5699,1482).
att(3746,3882).
att(1868,1240).
att(1296,6779).
att(1120,5266).
att(7019,3314).
att(5175,1780).
att(272,3640).
att(4567,6819).
att(6477,4283).
att(4272,4766).
att(5930,740).
att(474,6734).
att(3368,4881).
att(1639,3494).
att(3583,1742).
att(5541,2790).
att(569,3918).
att(800,4256).
att(5195,5771).
att(378,3255).
att(2390,2175).
att(3325,6865).
att(4018,2304).
att(5262,6310).
att(6806,289).
att(1797,3675).
att(2849,800).
att(5626,566).
att(6059,6436).
att(6436,6693).
att(6145,731).
att(2537,457).
att(4232,218).
att(5725,242).
att(6102,5159).
att(1162,3124).
att(5136,2160).
att(3869,1372).
att(3135,2732).
att(4466,1764).
att(7044,2286).
att(6739,1506).
att(5348,2357).
att(1017,7215).
att(3812,2001).
att(5642,986).
att(3976,730).
att(1340,225).
att(6959,7241).
att(366,6069).
att(4990,4824).
att(924,642).
att(2801,6892).
att(1245,744).
att(3122,4154).
att(2852,1775).
att(3411,6086).
att(1862,4977).
att(2641,1579).
att(2859,3515).
att(6106,2637).
att(380,5338).
att(4536,2345).
att(3953,3431).
att(439,590).
att(746,2426).
att(6597,2037).
att(4876,3389).
att(4989,6428).
att(2551,290).
att(5911,103).
att(996,6671).
att(6241,5852).
att(1039,5750).
att(4565,3399).
att(3903,3043).
att(908,2391).
att(6606,4490).
att(4174,6454).
att(4787,597).
att(670,3636).
att(3253,1438).
att(6467,159).
att(418,6808).
att(365,4119).
att(5116,3423).
att(5601,4006).
att(1760,6799).
att(4579,5272).
att(2483,1369).
att(3947,6156).
att(6338,4225).
att(5824,729).
att(2139,2306).
att(3452,3418).
att(5957,790).
att(1986,6489).
att(4773,215).
att(919,3378).
att(949,6923).
att(6517,137).
att(2807,5564).
att(5882,6017).
att(1274,6695).
att(7249,5907).
att(6495,631).
att(4526,5942).
att(5244,5362).
att(6203,5273).
att(2819,2362).
att(3769,5576).
att(1895,2032).
att(1871,6409).
att(6419,3336).
att(4089,722).
att(1945,2480).
att(5076,2840).
att(3394,2353).
att(557,4578).
att(1053,7270).
att(3467,6305).
att(3141,1779).
att(3771,3087).
att(2831,1259).
att(3000,6379).
att(651,3842).
att(1913,1700).
att(1233,1680).
att(6601,7098).
att(2957,6322).
att(79,3364).
att(177,2141).
att(6523,7150).
att(6123,5483).
att(5727,5024).
att(988,2889).
att(672,5356).
att(4408,2649).
att(1235,3507).
att(4402,7006).
att(5352,6456).
att(2689,7263).
att(4365,4420).
att(1631,3098).
att(6539,3782).
att(1490,3382).
att(833,6719).
att(1905,4801).
att(2750,2691).
att(958,2753).
att(400,2009).
att(5516,4455).
att(1605,5189).
att(6716,6673).
att(818,2988).
att(5511,3491).
att(1390,4872).
att(5827,3042).
att(3344,973).
att(312,3198).
att(7080,3374).
att(4691,734).
att(2627,2808).
att(3388,1166).
att(1872,1892).
att(3798,877).
att(4965,7219).
att(4961,1025).
att(5611,1829).
att(387,7251).
att(3099,6083).
att(7162,2747).
att(4367,1773).
att(5393,3127).
att(483,5174).
att(7300,4469).
att(2137,5878).
att(4447,5782).
att(7202,5754).
att(44,5682).
att(6689,6626).
att(7187,7093).
att(4269,5213).
att(174,5289).
att(6881,1644).
att(3034,3756).
att(2676,601).
att(5734,1236).
att(1051,2773).
att(1208,4330).
att(7086,2865).
att(1822,974).
att(2923,143).
att(2191,2276).
att(3267,3986).
att(5350,2176).
att(2535,1807).
att(3163,4044).
att(2775,7255).
att(4607,121).
att(7036,1845).
att(951,1690).
att(2119,3718).
att(2215,5801).
att(4659,5235).
att(4954,2167).
att(5327,2008).
att(2589,6338).
att(3523,668).
att(4166,721).
att(2311,5175).
att(3916,2047).
att(2863,5348).
att(4075,1257).
att(5602,6447).
att(3260,1149).
att(1095,4603).
att(2529,4677).
att(3817,2421).
att(2521,453).
att(2556,5509).
att(3491,6832).
att(3739,6444).
att(4897,1313).
att(4496,3107).
att(4016,5962).
att(4052,7208).
att(3404,4959).
att(1770,4515).
att(870,3320).
att(488,3761).
att(5868,2452).
att(3255,4719).
att(6238,6568).
att(322,6728).
att(2232,1580).
att(5303,1159).
att(3200,4350).
att(6691,2148).
att(1313,7246).
att(2719,463).
att(2118,3272).
att(574,6627).
att(1178,3228).
att(2154,4714).
att(6653,4319).
att(845,1298).
att(3749,1247).
att(3558,4873).
att(4749,6869).
att(3402,3825).
att(1164,4093).
att(2112,850).
att(4420,5126).
att(843,6030).
att(120,5719).
att(482,7279).
att(2280,4847).
att(1547,6174).
att(2782,7104).
att(4113,1344).
att(373,2035).
att(2343,664).
att(6679,4834).
att(5570,1489).
att(3443,5423).
att(1961,2306).
att(3241,5006).
att(5147,2932).
att(1805,3376).
att(4099,361).
att(1242,3329).
att(3737,3666).
att(4750,1234).
att(6125,6609).
att(216,861).
att(729,104).
att(1842,1962).
att(24,893).
att(2655,7187).
att(2042,4871).
att(2155,2503).
att(5544,6188).
att(4244,5185).
att(4967,591).
att(6987,2592).
att(680,2278).
att(1163,875).
att(4972,4843).
att(2832,7041).
att(6157,5237).
att(6728,322).
att(4251,20).
att(3177,4004).
att(6399,2467).
att(6924,5151).
att(1397,298).
att(3606,3800).
att(6706,4242).
att(6456,4142).
att(3295,7004).
att(6168,6327).
att(5618,5468).
att(4609,1415).
att(345,438).
att(1511,2868).
att(4519,5082).
att(6933,3131).
att(1902,5528).
att(590,439).
att(2600,3154).
att(1578,3753).
att(5926,1177).
att(3490,1753).
att(2224,3251).
att(1596,4870).
att(3552,2170).
att(4649,6514).
att(3325,3176).
att(4626,2821).
att(245,3742).
att(5409,3710).
att(6986,4430).
att(2532,6227).
att(5637,3246).
att(1375,5594).
att(352,4107).
att(634,5354).
att(2867,3723).
att(7006,4738).
att(1503,2992).
att(6852,1426).
att(781,6833).
att(5863,3913).
att(3727,6706).
att(3611,4849).
att(4868,4067).
att(1127,980).
att(5321,4199).
att(1043,6144).
att(282,2049).
att(6040,5364).
att(4603,3393).
att(6599,2583).
att(6466,817).
att(5273,219).
att(2438,4323).
att(6178,626).
att(5021,3625).
att(4348,1252).
att(5873,5049).
att(2944,6229).
att(1690,5639).
att(45,3317).
att(1927,2607).
att(3074,4124).
att(5745,184).
att(7177,6856).
att(7098,6601).
att(4991,508).
att(2951,3750).
att(95,3084).
att(787,5333).
att(939,6264).
att(4141,5418).
att(3166,1276).
att(2685,3501).
att(1475,5888).
att(4673,5670).
att(6157,212).
att(3205,3133).
att(2071,3151).
att(5868,6635).
att(6705,1087).
att(2928,605).
att(6867,6056).
att(5228,5730).
att(6332,6634).
att(744,1245).
att(1264,1299).
att(521,5430).
att(3831,4363).
att(5754,5764).
att(6342,2911).
att(401,857).
att(1404,1040).
att(2423,4023).
att(4335,2207).
att(106,5375).
att(1777,5080).
att(375,6603).
att(282,5786).
att(3089,6217).
att(2690,3312).
att(6061,4985).
att(7274,3782).
att(106,4190).
att(5454,3060).
att(1324,4580).
att(3173,171).
att(430,1933).
att(6882,2413).
att(1299,1528).
att(1107,7135).
att(6088,289).
att(3051,5732).
att(4187,541).
att(6122,2178).
att(3864,6026).
att(5320,5709).
att(6953,6750).
att(882,3064).
att(121,4783).
att(1802,3003).
att(5263,3900).
att(6935,1893).
att(1575,6545).
att(904,2233).
att(78,2698).
att(4737,4340).
att(7097,5603).
att(1313,4897).
att(2894,2749).
att(775,117).
att(3064,882).
att(6653,3970).
att(7127,80).
att(5638,7042).
att(111,5000).
att(4429,913).
att(6151,6248).
att(3076,4285).
att(437,369).
att(7027,963).
att(4165,5769).
att(7059,4295).
att(1178,6427).
att(5104,6381).
att(2452,4274).
att(3260,2529).
att(5926,3511).
att(1728,2481).
att(844,4361).
att(3202,2124).
att(2919,5355).
att(4437,7333).
att(1470,4289).
att(1455,4566).
att(7037,5448).
att(4225,1070).
att(1797,760).
att(354,4730).
att(2352,2701).
att(2847,6915).
att(103,5911).
att(2735,4432).
att(1216,3622).
att(1376,7017).
att(3719,173).
att(252,1189).
att(1124,6010).
att(2073,4958).
att(5419,5124).
att(3516,4382).
att(2854,5401).
att(1499,2534).
att(1334,89).
att(6444,7049).
att(1507,5519).
att(5255,6205).
att(7284,3408).
att(1261,6696).
att(685,1716).
att(4479,3887).
att(1382,4943).
att(3207,6153).
att(6365,2377).
att(166,2723).
att(7026,2214).
att(6067,2848).
att(1038,414).
att(1872,1925).
att(331,1442).
att(335,6241).
att(4609,2799).
att(6351,4209).
att(2448,3520).
att(1876,5044).
att(6275,2143).
att(5846,5892).
att(779,2478).
att(769,3861).
att(850,2112).
att(3570,2874).
att(7088,1776).
att(4245,2096).
att(1848,1210).
att(3281,690).
att(3906,168).
att(5387,2199).
att(4000,2109).
att(5775,4231).
att(739,2983).
att(5498,4084).
att(1314,3385).
att(2053,6507).
att(1686,3598).
att(6077,6136).
att(1833,431).
att(4135,2904).
att(1850,2290).
att(2925,4228).
att(6263,3612).
att(3366,1806).
att(4511,4795).
att(2718,3661).
att(23,5468).
att(7112,6375).
att(2505,3298).
att(5443,795).
att(7337,820).
att(1349,1639).
att(3610,256).
att(2528,1680).
att(6221,5880).
att(2840,6104).
att(4181,3871).
att(6243,6491).
att(3644,2672).
att(4594,878).
att(3431,3953).
att(3534,6920).
att(795,3195).
att(6453,1944).
att(3089,4905).
att(2934,4586).
att(2827,3877).
att(1908,736).
att(5045,2912).
att(617,2438).
att(2217,962).
att(5405,6886).
att(6814,3236).
att(5395,1336).
att(100,5523).
att(4357,2527).
att(6102,5868).
att(7332,1830).
att(1409,5095).
att(4058,6036).
att(191,3551).
att(773,3678).
att(4508,1146).
att(6383,5497).
att(4641,5741).
att(1600,710).
att(2793,6459).
att(325,1849).
att(3842,651).
att(3789,3662).
att(6929,2823).
att(4317,1371).
att(5694,4497).
att(4197,3882).
att(5889,3086).
att(3383,2491).
att(2415,1582).
att(5914,6337).
att(2376,1988).
att(3098,1631).
att(227,2272).
att(5681,2790).
att(4648,5441).
att(984,6014).
att(268,2732).
att(1191,6090).
att(2044,5635).
att(2067,5370).
att(668,3523).
att(3839,3955).
att(6612,2478).
att(186,6989).
att(6445,6825).
att(3571,1070).
att(2649,2208).
att(2932,5147).
att(2789,3315).
att(1452,4188).
att(7250,687).
att(975,6050).
att(405,1079).
att(6976,6813).
att(4578,2987).
att(2198,1169).
att(6090,4400).
att(6395,7130).
att(3718,2119).
att(364,6370).
att(802,7065).
att(6919,4778).
att(3955,4146).
att(5796,232).
att(7073,4987).
att(5577,155).
att(1709,2023).
att(566,5852).
att(3928,5996).
att(279,1838).
att(1648,1345).
att(6291,3837).
att(1488,4597).
att(4111,2157).
att(2849,6772).
att(3768,2303).
att(1567,2758).
att(1453,760).
att(5402,2907).
att(7205,871).
att(7343,3097).
att(837,994).
att(3344,3835).
att(5996,3928).
att(2098,6218).
att(6584,2195).
att(1118,860).
att(6801,4064).
att(891,435).
att(2914,1254).
att(5310,1651).
att(5498,3214).
att(5797,2168).
att(6531,5462).
att(2957,4334).
att(5415,6034).
att(526,4995).
att(4495,143).
att(3383,5369).
att(1954,6436).
att(4715,1325).
att(4535,3954).
att(2886,500).
att(193,2858).
att(5310,3083).
att(7113,2870).
att(719,4615).
att(2927,6751).
att(802,7286).
att(2757,5658).
att(415,1822).
att(1149,4807).
att(2306,454).
att(5076,2860).
att(4803,3112).
att(7190,3250).
att(610,2382).
att(1545,4702).
att(877,594).
att(5898,6147).
att(870,3429).
att(5351,1856).
att(1848,3284).
att(2637,6861).
att(6201,748).
att(2601,787).
att(4373,5177).
att(5379,4303).
att(2067,1782).
att(5861,7047).
att(2292,4147).
att(4905,6472).
att(2586,2082).
att(612,2219).
att(2189,3790).
att(6469,6850).
att(5964,677).
att(459,7123).
att(6567,3794).
att(5471,5296).
att(4598,4636).
att(5383,1287).
att(4934,4570).
att(3113,2201).
att(3633,213).
att(7291,494).
att(1332,4804).
att(4974,2364).
att(1952,5753).
att(465,5068).
att(869,5461).
att(2997,5302).
att(4057,6855).
att(6025,3999).
att(5981,7242).
att(520,827).
att(2441,5536).
att(7295,6725).
att(5497,6383).
att(6809,2384).
att(5780,6022).
att(4521,3064).
att(3129,5648).
att(2680,5728).
att(1236,5734).
att(1075,3333).
att(3610,5286).
att(5416,2193).
att(1429,6301).
att(2443,932).
att(3569,5900).
att(3473,3303).
att(5017,2677).
att(990,6340).
att(3824,17).
att(2165,6630).
att(1996,1438).
att(3304,5537).
att(6015,1374).
att(5400,104).
att(5701,1798).
att(1911,454).
att(1854,3990).
att(4799,2896).
att(903,6570).
att(3661,5336).
att(3754,1929).
att(5729,3775).
att(571,6321).
att(5949,6595).
att(6359,2200).
att(6407,5611).
att(1849,5640).
att(3662,1473).
att(3632,3022).
att(615,1171).
att(1063,6380).
att(3732,1710).
att(5604,3722).
att(2799,4609).
att(7091,5421).
att(6150,5795).
att(6395,4001).
att(3003,2547).
att(5024,5762).
att(1614,6962).
att(3635,5443).
att(5847,5955).
att(2122,2373).
att(1949,515).
att(6641,5417).
att(3769,6611).
att(6366,5199).
att(6977,5884).
att(4197,3208).
att(5370,116).
att(5080,2645).
att(2132,5402).
att(2924,3252).
att(3271,4304).
att(6954,3460).
att(1942,1679).
att(2248,556).
att(5194,3981).
att(523,5589).
att(6980,4727).
att(3264,5477).
att(2248,5511).
att(1554,35).
att(379,2485).
att(3883,1759).
att(5803,2523).
att(4451,2794).
att(4340,2284).
att(2169,729).
att(1540,6562).
att(1599,4235).
att(6587,3854).
att(833,5084).
att(2993,3229).
att(7277,1444).
att(3824,229).
att(3235,7034).
att(153,700).
att(6113,4234).
att(1820,3417).
att(6165,1525).
att(977,268).
att(2863,5745).
att(3586,4645).
att(548,297).
att(1147,5220).
att(7069,1262).
att(3017,6060).
att(3753,670).
att(2717,2688).
att(5332,5454).
att(7296,2127).
att(4776,6079).
att(6255,2623).
att(4738,554).
att(3174,6336).
att(5598,4888).
att(4243,788).
att(3967,6825).
att(2768,3321).
att(4013,3428).
att(3320,3637).
att(2295,7222).
att(1657,4133).
att(4400,1340).
att(4078,5330).
att(5886,7258).
att(4310,5698).
att(5356,672).
att(1998,5515).
att(1376,1557).
att(1621,953).
att(6358,2066).
att(4939,5494).
att(382,3838).
att(1484,1565).
att(2531,5240).
att(3410,4245).
att(6736,4186).
att(1973,4084).
att(5974,5097).
att(1443,1809).
att(670,3603).
att(3256,5869).
att(3678,3467).
att(4234,6113).
att(5033,5049).
att(4576,612).
att(6830,2884).
att(7343,1137).
att(2493,3623).
att(2737,547).
att(2296,3414).
att(242,2573).
att(4571,152).
att(159,6467).
att(2834,5628).
att(5764,5754).
att(2257,5364).
att(3807,4423).
att(1523,4242).
att(1179,2875).
att(3261,4865).
att(1730,1877).
att(4227,290).
att(5574,5105).
att(3474,7344).
att(5189,4827).
att(2059,330).
att(2408,4151).
att(4847,2280).
att(83,5809).
att(6793,168).
att(6743,6113).
att(1200,3523).
att(741,1475).
att(3123,1719).
att(621,6104).
att(3120,5711).
att(1195,995).
att(4650,3714).
att(6050,4304).
att(2623,6255).
att(5556,1198).
att(6224,3665).
att(7268,5564).
att(6354,3803).
att(6576,2776).
att(4688,1867).
att(6069,351).
att(1751,5374).
att(479,336).
att(3454,139).
att(2572,2163).
att(995,1195).
att(5008,2775).
att(7293,956).
att(4722,6896).
att(4554,250).
att(6377,698).
att(1621,4632).
att(115,2826).
att(361,4862).
att(3736,5043).
att(1226,1139).
att(156,2759).
att(4994,7172).
att(4011,2293).
att(5945,2130).
att(4997,7126).
att(1188,1774).
att(2221,4585).
att(1914,683).
att(6913,1134).
att(6562,1540).
att(3878,4361).
att(3424,6404).
att(2028,6837).
att(509,6179).
att(1762,5293).
att(6222,5446).
att(4005,536).
att(5927,6566).
att(6892,2801).
att(3691,4827).
att(1680,2528).
att(1215,3874).
att(1498,1547).
att(925,4368).
att(137,2470).
att(2401,5181).
att(4342,2153).
att(3651,6482).
att(1168,5498).
att(2431,7126).
att(6831,278).
att(483,2700).
att(631,6495).
att(6406,4438).
att(4394,2342).
att(441,3484).
att(967,4843).
att(7057,2999).
att(936,4213).
att(4965,6993).
att(1268,6950).
att(7310,467).
att(3854,6587).
att(432,3152).
att(6409,2011).
att(6922,6378).
att(1323,2090).
att(7080,5895).
att(3309,1956).
att(6981,1200).
att(5609,5163).
att(3403,4572).
att(5218,6879).
att(3986,3267).
att(4710,3026).
att(828,7009).
att(5671,6775).
att(2712,4170).
att(6912,2735).
att(3547,604).
att(962,7202).
att(5038,3854).
att(4566,1455).
att(917,1356).
att(5167,4643).
att(3559,1022).
att(818,1203).
att(1450,3514).
att(2481,1728).
att(610,4243).
att(2237,6554).
att(4529,3756).
att(2485,2734).
att(3561,432).
att(6393,7075).
att(6328,952).
att(7259,2721).
att(1327,924).
att(542,2433).
att(3722,225).
att(4140,3921).
att(1824,7198).
att(6383,3981).
att(1055,3142).
att(4588,7152).
att(4971,5002).
att(2953,4109).
att(3932,3061).
att(3510,6123).
att(6332,6967).
att(29,1557).
att(7132,6271).
att(3444,169).
att(438,3479).
att(6522,1702).
att(405,7299).
att(7189,2955).
att(4529,3034).
att(1561,3526).
att(6145,5235).
att(6623,5970).
att(4257,4118).
att(4229,6155).
att(2590,6135).
att(4311,2324).
att(974,1822).
att(4820,5603).
att(3789,5042).
att(6993,4965).
att(2446,4797).
att(3751,564).
att(4708,1242).
att(7191,1593).
att(4703,2257).
att(2189,1691).
att(4334,4429).
att(2735,6912).
att(3915,3634).
att(6168,4759).
att(2399,4460).
att(5489,2223).
att(4938,1715).
att(4884,3889).
att(5997,4719).
att(3850,4146).
att(6551,1742).
att(1430,6216).
att(7033,2028).
att(2699,3051).
att(6493,3236).
att(73,3249).
att(4623,1300).
att(6635,1196).
att(5067,6842).
att(4460,1095).
att(4499,650).
att(4053,6338).
att(3575,1865).
att(7179,7108).
att(1095,6535).
att(2928,6715).
att(4739,7087).
att(2544,3435).
att(1084,5003).
att(4376,2337).
att(2485,6213).
att(2799,6891).
att(457,2537).
att(3105,424).
att(5422,2500).
att(1760,2179).
att(69,7313).
att(5424,4888).
att(2662,2881).
att(1703,1261).
att(3671,1327).
att(6071,3446).
att(155,5577).
att(557,4035).
att(2098,1749).
att(246,4219).
att(2604,5127).
att(3300,6890).
att(6241,335).
att(4302,6416).
att(6877,4865).
att(4912,4381).
att(6889,6527).
att(1272,4811).
att(4911,2029).
att(6258,4167).
att(3124,1162).
att(7102,7083).
att(261,5559).
att(4312,2300).
att(4927,5185).
att(6747,7079).
att(6767,864).
att(2584,4244).
att(5219,5639).
att(2282,719).
att(4159,6259).
att(2740,3876).
att(5153,2832).
att(6065,5204).
att(6527,6889).
att(5299,4374).
att(2589,1932).
att(5912,5203).
att(5302,2368).
att(6346,584).
att(2221,3681).
att(4171,3602).
att(307,739).
att(945,3844).
att(6061,4384).
att(7111,4399).
att(109,3364).
att(1743,3126).
att(2899,6266).
att(6538,5362).
att(13,5414).
att(7104,842).
att(3801,3933).
att(2917,6391).
att(4277,3307).
att(5680,599).
att(4678,113).
att(2932,2326).
att(4617,3339).
att(3521,3864).
att(4472,5913).
att(4469,7300).
att(4091,4782).
att(4038,1417).
att(2673,106).
att(3995,2080).
att(6498,5645).
att(6627,574).
att(3147,287).
att(6862,3924).
att(5579,6608).
att(2261,3538).
att(1558,5602).
att(3038,5153).
att(588,6130).
att(3015,6888).
att(3422,5159).
att(1093,4264).
att(6254,7013).
att(863,145).
att(3642,5551).
att(7304,2951).
att(7197,1269).
att(5168,1934).
att(1150,4112).
att(2778,6493).
att(5839,7213).
att(5614,3229).
att(5455,4681).
att(2094,7018).
att(4944,6589).
att(2047,3566).
att(2298,111).
att(7182,755).
att(3808,6548).
att(5822,1766).
att(6494,2011).
att(6878,4845).
att(6677,660).
att(7058,3456).
att(5086,1643).
att(5840,7257).
att(4836,1176).
att(3274,6722).
att(4560,7074).
att(6857,6966).
att(5977,3568).
att(306,2291).
att(2465,2822).
att(2686,3224).
att(4402,6653).
att(6927,1631).
att(192,2011).
att(5129,6816).
att(2244,4857).
att(5669,3572).
att(6136,6077).
att(2953,3716).
att(3722,5604).
att(5986,6478).
att(509,3594).
att(540,4525).
att(6966,6857).
att(6851,5724).
att(2148,6691).
att(4707,2643).
att(1877,1730).
att(823,3789).
att(5860,2783).
att(3553,900).
att(7063,4212).
att(3867,3378).
att(4163,3629).
att(6606,1297).
att(3148,7213).
att(2293,1667).
att(5272,5323).
att(6429,2734).
att(670,317).
att(3744,6738).
att(1574,2525).
att(912,3707).
att(6352,1387).
att(7185,1226).
att(6502,1696).
att(301,2335).
att(4138,5700).
att(2394,5866).
att(2123,7209).
att(2358,3562).
att(6190,2298).
att(2414,5321).
att(3997,6049).
att(5109,2045).
att(1073,253).
att(5636,6434).
att(728,4948).
att(5883,3679).
att(6798,1152).
att(1935,4521).
att(1985,4675).
att(4376,5708).
att(2981,3519).
att(7229,2164).
att(4358,25).
att(666,60).
att(831,4392).
att(6507,2053).
att(7016,4150).
att(2049,282).
att(5421,6304).
att(4705,6045).
att(1568,3979).
att(6163,2419).
att(5094,6859).
att(6756,3722).
att(5038,3193).
att(3970,289).
att(6873,2291).
att(3977,5164).
att(2299,2128).
att(1865,7183).
att(2192,566).
att(6119,2201).
att(3140,2126).
att(2003,1101).
att(2976,1732).
att(1297,1221).
att(232,5796).
att(5381,3051).
att(3810,6617).
att(6273,5148).
att(10,4500).
att(3962,2112).
att(3641,6753).
att(166,2880).
att(4023,2459).
att(6900,2002).
att(1571,1418).
att(3780,3818).
att(4794,2682).
att(5382,3485).
att(3540,4350).
att(5351,7125).
att(5500,4546).
att(4214,6639).
att(1687,4348).
att(3523,680).
att(2274,4413).
att(2844,193).
att(4268,1825).
att(5270,5836).
att(3146,4832).
att(4860,7103).
att(1975,309).
att(899,664).
att(2667,4458).
att(4791,2710).
att(6722,393).
att(4027,1918).
att(1172,1804).
att(3356,3148).
att(206,6972).
att(2009,3569).
att(3142,1055).
att(4665,6997).
att(2597,7068).
att(3649,4480).
att(3167,2992).
att(5032,2726).
att(1997,6540).
att(845,5100).
att(2304,5568).
att(1959,6764).
att(994,837).
att(3725,501).
att(5605,5804).
att(1053,3086).
att(3846,3421).
att(7254,5154).
att(1401,6613).
att(1423,7095).
att(5405,3840).
att(1254,4950).
att(581,2239).
att(7136,4755).
att(2685,5995).
att(7217,79).
att(2287,6247).
att(6923,949).
att(1049,5627).
att(2026,4729).
att(6734,5094).
att(4811,2800).
att(3032,3502).
att(6747,4045).
att(7067,2890).
att(5089,5258).
att(5140,3539).
att(4733,5729).
att(6000,5187).
att(286,1564).
att(3862,1000).
att(5966,3297).
att(7220,3127).
att(4823,1681).
att(1631,2589).
att(1884,1267).
att(2677,6954).
att(5901,2356).
att(2529,6278).
att(3823,6733).
att(7157,4178).
att(652,939).
att(1046,5392).
att(2611,1786).
att(700,2097).
att(1084,5547).
att(3348,4908).
att(4686,1308).
att(851,3907).
att(3232,2044).
att(4077,824).
att(531,6328).
att(6146,5899).
att(321,2997).
att(6906,1099).
att(5843,185).
att(6046,4022).
att(6933,2956).
att(1898,2849).
att(4478,5534).
att(3080,946).
att(4748,2245).
att(376,1586).
att(1544,7143).
att(5491,6081).
att(5569,4134).
att(2846,7289).
att(4497,6755).
att(28,3296).
att(3679,634).
att(3853,4140).
att(1505,4645).
att(2958,617).
att(1112,6423).
att(5871,6628).
att(2415,5747).
att(6249,3362).
att(1029,3252).
att(1173,4329).
att(2229,2551).
att(1196,3367).
att(6198,3256).
att(4702,418).
att(389,3283).
att(6886,5405).
att(2495,1574).
att(1012,4477).
att(2689,6902).
att(4575,3934).
att(4198,1757).
att(7010,2139).
att(4803,6975).
att(1427,3621).
att(5224,2415).
att(2131,247).
att(5192,203).
att(3429,870).
att(2442,3851).
att(84,136).
att(2272,33).
att(64,5031).
att(5920,6778).
att(5868,6102).
att(2959,3146).
att(2144,6391).
att(746,4206).
att(1054,7171).
att(7241,6959).
att(4230,797).
att(729,3340).
att(791,1841).
att(1041,3685).
att(1111,859).
att(670,2814).
att(2747,7162).
att(4626,5636).
att(4704,2942).
att(3019,5546).
att(1480,383).
att(5274,6197).
att(7071,1671).
att(7019,252).
att(5175,7193).
att(1297,4254).
att(4951,2705).
att(6786,1688).
att(4244,953).
att(5016,2362).
att(3761,488).
att(6118,4284).
att(6386,219).
att(293,975).
att(4567,3150).
att(3456,5254).
att(2396,25).
att(7070,5488).
att(6776,6493).
att(1266,4258).
att(2757,6324).
att(3839,5205).
att(2836,6271).
att(1432,1695).
att(4679,3068).
att(5193,2554).
att(2270,5527).
att(2047,3916).
att(6490,3806).
att(4977,6720).
att(5560,4871).
att(2665,2980).
att(6346,4539).
att(3949,5252).
att(4795,3213).
att(6480,2019).
att(6514,3806).
att(1777,1568).
att(6756,1147).
att(4705,4891).
att(3682,5184).
att(157,1694).
att(6551,5186).
att(3893,4431).
att(5896,6739).
att(1977,4017).
att(6966,1400).
att(2980,5733).
att(5787,3532).
att(4930,609).
att(4616,319).
att(2051,5793).
att(5027,5533).
att(7109,7321).
att(709,906).
att(4945,1695).
att(6562,3239).
att(2664,1735).
att(240,4485).
att(3123,2545).
att(359,5566).
att(6058,6945).
att(289,6088).
att(3806,6514).
att(6378,2419).
att(6609,6125).
att(346,4540).
att(7271,3138).
att(3144,6325).
att(2404,4777).
att(6650,4301).
att(2302,5431).
att(6525,2971).
att(6018,5117).
att(6868,4439).
att(3784,5262).
att(4669,1212).
att(2356,5901).
att(6326,6934).
att(496,198).
att(6664,1908).
att(6791,2322).
att(2998,4844).
att(5676,5745).
att(3877,5606).
att(2842,1526).
att(388,4824).
att(5083,7142).
att(1477,2179).
att(5600,834).
att(5172,1381).
att(2009,400).
att(4315,1699).
att(167,1193).
att(2371,2820).
att(3684,24).
att(5852,6241).
att(5666,2165).
att(3218,3245).
att(2700,7304).
att(4239,4540).
att(3879,3130).
att(854,4416).
att(1924,6668).
att(1685,908).
att(805,4378).
att(3889,4884).
att(6734,2637).
att(112,2950).
att(2497,4169).
att(2995,7287).
att(2037,6597).
att(2874,5392).
att(562,3190).
att(7312,2659).
att(4446,4751).
att(6638,6700).
att(761,6863).
att(3785,1330).
att(3530,6687).
att(236,6512).
att(3882,7140).
att(4713,6682).
att(5099,6710).
att(2474,3049).
att(273,5467).
att(2102,1107).
att(3034,1672).
att(3548,2235).
att(551,2904).
att(12,591).
att(936,2423).
att(2335,3718).
att(1866,2232).
att(954,2899).
att(830,7057).
att(6972,4101).
att(124,1896).
att(2144,6103).
att(93,4523).
att(135,7226).
att(7066,4562).
att(6784,3588).
att(6412,1361).
att(1281,3525).
att(3476,5929).
att(2464,6120).
att(3722,1276).
att(397,3551).
att(6444,5133).
att(1870,7213).
att(7075,1673).
att(4358,3035).
att(7143,761).
att(4351,5256).
att(6372,6102).
att(4130,4533).
att(3215,3730).
att(4632,1349).
att(6246,4022).
att(6232,6611).
att(2520,87).
att(5744,6097).
att(4740,6021).
att(4694,5730).
att(943,1737).
att(3245,3218).
att(6002,1880).
att(4497,5694).
att(2241,7307).
att(1995,6413).
att(57,3953).
att(7089,259).
att(3888,4425).
att(4928,5082).
att(4512,6752).
att(1419,1309).
att(6024,6225).
att(3342,2511).
att(7049,3232).
att(841,6136).
att(5417,6641).
att(6968,2473).
att(4730,354).
att(2732,4686).
att(2536,489).
att(4632,1816).
att(3083,5310).
att(2090,6048).
att(5762,812).
att(6616,3719).
att(3814,5766).
att(6578,2017).
att(4540,4239).
att(5276,6997).
att(6859,4911).
att(2223,5444).
att(3722,569).
att(1585,6346).
att(2929,5693).
att(2323,4976).
att(7041,2832).
att(7239,4007).
att(4941,1215).
att(3468,1857).
att(7143,1218).
att(7150,4687).
att(106,2152).
att(7292,2888).
att(1080,6952).
att(5058,2523).
att(4807,1149).
att(4285,3076).
att(7247,4206).
att(5330,2323).
att(7105,1390).
att(4525,5201).
att(6615,1342).
att(1932,1857).
att(2989,113).
att(558,3289).
att(4913,1086).
att(7074,4560).
att(1909,4676).
att(2055,4683).
att(3923,6427).
att(4453,5707).
att(65,5623).
att(3625,3991).
att(7105,2334).
att(2637,5042).
att(7124,7027).
att(1610,2038).
att(2111,429).
att(5160,7155).
att(6902,2689).
att(5070,1718).
att(343,1945).
att(2869,4343).
att(1021,4199).
att(4458,355).
att(2210,4011).
att(5375,106).
att(6658,4958).
att(1370,6699).
att(1356,4543).
att(113,2989).
att(327,897).
att(6918,5411).
att(5114,1078).
att(6419,2838).
att(3266,2186).
att(1235,2854).
att(1810,1973).
att(5428,1508).
att(606,624).
att(1630,6925).
att(4196,5567).
att(6018,3081).
att(4790,2979).
att(3970,200).
att(117,775).
att(2522,1536).
att(3309,392).
att(7323,536).
att(1294,4734).
att(5868,3069).
att(556,6826).
att(7231,1565).
att(7249,6707).
att(4169,2497).
att(898,5331).
att(3003,1802).
att(4629,6672).
att(2376,3506).
att(6402,2138).
att(1656,6946).
att(5140,6517).
att(1717,7330).
att(3606,378).
att(6983,6093).
att(6160,956).
att(4133,3921).
att(6693,553).
att(6498,6364).
att(1063,572).
att(1449,2739).
att(6301,7345).
att(4213,936).
att(1800,3878).
att(2621,6360).
att(6340,6645).
att(6557,1516).
att(118,3968).
att(5099,1408).
att(5530,5852).
att(516,3842).
att(1117,738).
att(6449,3012).
att(1588,7050).
att(931,5970).
att(4142,6693).
att(4301,3691).
att(1372,3869).
att(6047,5427).
att(7262,5433).
att(3020,2078).
att(5486,1125).
att(3161,5210).
att(6602,6651).
att(3868,6288).
att(5792,1262).
att(6819,4567).
att(358,3616).
att(997,3938).
att(564,3751).
att(196,6236).
att(3183,2225).
att(7068,2597).
att(492,3457).
att(3982,7256).
att(2471,450).
att(1353,276).
att(5758,4766).
att(3956,3813).
att(2651,5255).
att(3939,265).
att(3352,685).
att(6782,7229).
att(956,6160).
att(6510,4969).
att(3069,5868).
att(3980,6350).
att(1126,2278).
att(3639,6293).
att(6013,3155).
att(388,1670).
att(5639,5219).
att(2095,475).
att(2764,3145).
att(3663,6461).
att(6075,1509).
att(3289,4821).
att(501,3725).
att(3297,294).
att(2725,4560).
att(1175,4950).
att(3012,6449).
att(7115,5971).
att(4348,1687).
att(7116,296).
att(1736,3481).
att(7020,2515).
att(6293,1888).
att(3587,746).
att(4605,2037).
att(2413,4797).
att(3075,89).
att(4521,1935).
att(3385,6805).
att(605,2928).
att(3657,3591).
att(6512,2567).
att(1338,6553).
att(6732,5008).
att(5423,3443).
att(2559,4561).
att(280,2460).
att(206,5741).
att(3786,2486).
att(2944,1458).
att(110,3700).
att(3498,2669).
att(291,6415).
att(376,1231).
att(2306,2814).
att(6818,2933).
att(4344,1659).
att(4688,3875).
att(6659,5817).
att(4981,7085).
att(6734,3069).
att(1876,6402).
att(7014,5229).
att(953,1621).
att(4659,96).
att(5133,4927).
att(2462,5989).
att(3433,1029).
att(4344,418).
att(4888,5174).
att(505,4001).
att(1595,1937).
att(618,6174).
att(7222,2295).
att(834,5600).
att(3265,2902).
att(1231,6390).
att(545,5394).
att(817,6466).
att(1986,5259).
att(7235,6187).
att(4253,3664).
att(6847,149).
att(3946,4179).
att(7290,3629).
att(5120,5759).
att(3376,3605).
att(3297,5966).
att(5229,7014).
att(4389,5509).
att(3760,1831).
att(3207,4385).
att(6967,6332).
att(5364,2257).
att(1560,2218).
att(5434,695).
att(2306,3858).
att(4103,6736).
att(6875,7260).
att(2603,5393).
att(4838,4393).
att(4814,130).
att(1045,5903).
att(1761,4558).
att(6622,1622).
att(7084,7052).
att(4817,1423).
att(505,4099).
att(3880,4404).
att(515,6711).
att(6861,2637).
att(4294,2062).
att(7316,5853).
att(3405,2883).
att(5347,1512).
att(247,4409).
att(4154,3130).
att(2030,6080).
att(1131,5041).
att(3275,6760).
att(193,2844).
att(674,6385).
att(2858,193).
att(116,5370).
att(6518,3674).
att(3079,258).
att(1195,603).
att(5492,1469).
att(6035,2180).
att(5432,3165).
att(4877,3290).
att(464,681).
att(452,1739).
att(5897,3802).
att(1241,3292).
att(4039,3141).
att(3579,2497).
att(4149,4280).
att(3943,6039).
att(4726,2926).
att(2557,1790).
att(1851,5808).
att(3371,1527).
att(1639,4355).
att(1549,5385).
att(4263,6922).
att(104,729).
att(595,7183).
att(855,7140).
att(5254,2841).
att(525,5022).
att(4777,3504).
att(372,2246).
att(3555,2810).
att(2423,936).
att(5151,6924).
att(5539,6778).
att(6843,1586).
att(6901,1799).
att(5694,2428).
att(6702,549).
att(3073,5510).
att(3203,5295).
att(1194,6700).
att(5176,3710).
att(6573,5545).
att(2857,4645).
att(1176,4836).
att(2470,137).
att(1275,6012).
att(2744,6299).
att(3066,3449).
att(261,5303).
att(3886,1286).
att(5484,5398).
att(4975,2871).
att(2116,4917).
att(4000,1283).
att(1419,6289).
att(384,1740).
att(4382,4840).
att(5989,2462).
att(3703,5429).
att(4360,2459).
att(1628,122).
att(6233,5275).
att(732,3583).
att(52,1385).
att(4049,1991).
att(522,3069).
att(2369,815).
att(6953,836).
att(290,2551).
att(1307,5783).
att(5853,7316).
att(6460,3738).
att(2318,58).
att(6313,6159).
att(3596,4141).
att(2608,2818).
att(7206,2469).
att(5144,3960).
att(3301,1320).
att(3556,2334).
att(5706,4627).
att(7159,3945).
att(1516,2743).
att(1074,1603).
att(2185,4216).
att(2803,4093).
att(2321,3646).
att(3193,5092).
att(2088,6895).
att(3010,7325).
att(2784,2053).
att(6394,4663).
att(3976,6899).
att(3701,4559).
att(5888,1585).
att(4796,4380).
att(1295,4925).
att(5461,4608).
att(1123,5243).
att(665,6496).
att(766,570).
att(3108,3600).
att(1382,1699).
att(5709,6912).
att(6469,3581).
att(5216,4292).
att(5505,1291).
att(6157,1828).
att(2037,4605).
att(6064,1127).
att(7043,1439).
att(1687,6839).
att(1958,2930).
att(4267,457).
att(3852,1538).
att(932,1907).
att(6845,4472).
att(233,3038).
att(3833,998).
att(136,2072).
att(132,1278).
att(247,405).
att(1637,3594).
att(1750,4956).
att(3212,4522).
att(4392,6472).
att(7030,2253).
att(307,2862).
att(7071,2792).
att(1133,3963).
att(1809,160).
att(1748,589).
att(2477,1402).
att(1064,127).
att(5360,538).
att(6444,4483).
att(896,6105).
att(6097,3616).
att(1612,199).
att(4070,7055).
att(6260,6815).
att(1421,2313).
att(7265,726).
att(7258,4775).
att(3484,441).
att(2486,3786).
att(2673,6823).
att(4334,2173).
att(4719,3255).
att(3469,5273).
att(6235,4006).
att(3464,5381).
att(4778,6919).
att(3092,3634).
att(1052,6094).
att(5248,529).
att(5297,5372).
att(3765,3308).
att(6190,7).
att(4430,6986).
att(2990,5687).
att(5942,4526).
att(3694,3862).
att(2961,3243).
att(2545,3123).
att(4259,6454).
att(392,2617).
att(5515,1998).
att(4741,3992).
att(1695,553).
att(4628,6872).
att(2362,4391).
att(4943,6675).
att(4613,1008).
att(3728,1137).
att(3054,4321).
att(6180,3067).
att(6726,1134).
att(6573,768).
att(5601,411).
att(560,3866).
att(1352,3993).
att(1279,1584).
att(6329,6117).
att(6083,3099).
att(751,3698).
att(1122,4903).
att(1978,2300).
att(1638,2156).
att(4303,5379).
att(3803,6354).
att(2395,3897).
att(5577,6965).
att(5589,2260).
att(4515,1770).
att(3795,4701).
att(3755,724).
att(5263,2021).
att(2961,2666).
att(5560,4295).
att(3630,5452).
att(1137,6871).
att(6853,3722).
att(1103,5425).
att(1138,6609).
att(473,4020).
att(4976,5361).
att(7171,1513).
att(496,3773).
att(4383,263).
att(2778,7242).
att(2042,4792).
att(817,4118).
att(6814,5981).
att(3637,4449).
att(2278,3242).
att(1437,2556).
att(3682,3613).
att(1631,6927).
att(1881,3531).
att(1120,5624).
att(6558,4097).
att(4192,1890).
att(923,2779).
att(5174,2700).
att(288,4750).
att(3357,5105).
att(913,1311).
att(702,71).
att(5371,4008).
att(6603,1946).
att(2950,112).
att(6152,6708).
att(338,6643).
att(714,4902).
att(5920,4173).
att(2064,7248).
att(5944,4596).
att(1970,3906).
att(5278,2435).
att(4069,3358).
att(2675,1639).
att(4086,3503).
att(7047,5861).
att(916,1994).
att(5897,6784).
att(2606,2253).
att(6309,2679).
att(270,3210).
att(3179,4506).
att(895,6158).
att(5551,1487).
att(3069,7313).
att(4622,6801).
att(516,3904).
att(370,4391).
att(7174,6891).
att(5345,3114).
att(718,2384).
att(1100,3188).
att(360,4312).
att(2475,2526).
att(2102,1237).
att(6665,1260).
att(4652,5941).
att(1220,6780).
att(1526,2228).
att(3604,1716).
att(5343,1346).
att(5733,5930).
att(953,4244).
att(5548,2829).
att(3029,6261).
att(1125,5117).
att(5729,4733).
att(2065,5235).
att(4304,3271).
att(2712,5308).
att(3213,3647).
att(2821,5624).
att(4336,6585).
att(5931,5568).
att(3741,3205).
att(3784,6310).
att(4059,1346).
att(2992,3167).
att(5588,1806).
att(1917,2229).
att(6973,5550).
att(3816,2339).
att(6998,1975).
att(6753,5313).
att(4042,2631).
att(6184,727).
att(450,6366).
att(2206,5630).
att(4542,2713).
att(3326,982).
att(7319,6637).
att(1631,1932).
att(6443,878).
att(4819,7316).
att(87,2520).
att(2445,243).
att(6271,2836).
att(3607,1145).
att(2049,6621).
att(3174,5775).
att(4026,5318).
att(7034,3235).
att(2525,1574).
att(6134,7128).
att(7266,6272).
att(1479,3497).
att(1649,6670).
att(2006,4712).
att(812,3700).
att(6580,234).
att(457,4267).
att(4237,601).
att(5672,4621).
att(2539,5422).
att(7313,680).
att(1227,1155).
att(6579,5693).
att(6711,6161).
att(6357,6217).
att(7190,2504).
att(535,5068).
att(3180,7209).
att(6156,6437).
att(2210,6221).
att(5693,2929).
att(3597,4273).
att(4093,1164).
att(7235,1591).
att(168,6793).
att(3581,1765).
att(5590,5502).
att(3758,913).
att(6955,367).
att(2081,6030).
att(6134,1701).
att(248,6137).
att(6984,3938).
att(3968,3793).
att(4720,2507).
att(4619,1646).
att(3430,7234).
att(6820,1178).
att(5142,2538).
att(4981,6141).
att(3263,5062).
att(3236,2749).
att(1443,5431).
att(4483,2551).
att(1060,4707).
att(4223,5710).
att(5379,3609).
att(2849,1898).
att(3180,5514).
att(5915,2238).
att(6675,4943).
att(2401,3809).
att(2278,6161).
att(5403,7297).
att(1247,4818).
att(5983,1901).
att(4511,928).
att(3589,5307).
att(1302,551).
att(6325,3144).
att(6944,2674).
att(1355,4895).
att(4359,3017).
att(5537,3304).
att(1305,1785).
att(7125,5593).
att(4533,2937).
att(5340,5982).
att(2383,1813).
att(29,1387).
att(1544,2772).
att(2415,5224).
att(6876,2461).
att(6750,552).
att(2962,1811).
att(4340,4737).
att(1276,5862).
att(3288,6330).
att(257,6915).
att(6245,5635).
att(7098,4360).
att(4001,6395).
att(5055,4412).
att(2808,3688).
att(3851,2442).
att(5464,2508).
att(5373,3412).
att(1525,3088).
att(3443,3700).
att(133,5268).
att(5063,1671).
att(2969,3458).
att(4584,506).
att(7176,976).
att(2501,3834).
att(3249,73).
att(6104,2840).
att(1842,2599).
att(7316,4819).
att(760,4929).
att(4791,1803).
att(2713,4542).
att(102,2852).
att(1160,4183).
att(924,6592).
att(1340,4577).
att(1190,4434).
att(153,5759).
att(5963,4659).
att(4314,5335).
att(556,4834).
att(5672,1542).
att(988,444).
att(5962,4016).
att(744,5563).
att(5903,1045).
att(2228,7295).
att(6336,3174).
att(4728,4165).
att(7167,1568).
att(6992,2426).
att(2872,4979).
att(2580,3538).
att(125,4418).
att(718,6809).
att(5404,6356).
att(3628,5999).
att(885,3506).
att(4173,5920).
att(4266,7214).
att(6457,1491).
att(3043,3903).
att(914,1902).
att(4719,3821).
att(1524,5872).
att(6155,4229).
att(3401,6579).
att(4455,1245).
att(2100,5271).
att(2626,3369).
att(1672,707).
att(464,56).
att(6012,575).
att(6354,4063).
att(3873,1893).
att(5917,3908).
att(2214,7026).
att(5087,3957).
att(1659,5094).
att(287,6085).
att(2822,353).
att(6620,4152).
att(1044,2525).
att(5258,5089).
att(4,2978).
att(3204,5911).
att(4131,1869).
att(6951,2279).
att(1902,914).
att(328,5465).
att(5417,5170).
att(6363,5697).
att(3897,3264).
att(3098,5114).
att(3236,4811).
att(2515,2375).
att(1277,3951).
att(2134,4210).
att(1114,4297).
att(4244,2584).
att(727,6184).
att(3167,1503).
att(5627,3483).
att(3733,1967).
att(82,3355).
att(454,1219).
att(6029,6486).
att(4861,154).
att(5330,1154).
att(173,3719).
att(4671,1780).
att(4361,844).
att(6372,6861).
att(2562,5607).
att(259,7089).
att(1875,7239).
att(1846,3022).
att(2595,1760).
att(5619,6866).
att(6635,4702).
att(1025,4961).
att(4322,7017).
att(279,7194).
att(5809,5125).
att(340,7203).
att(1911,670).
att(684,2818).
att(3675,1797).
att(3475,4874).
att(2243,5056).
att(5451,2552).
att(2434,5829).
att(563,76).
att(1147,6756).
att(1162,5093).
att(3687,2387).
att(2074,50).
att(4120,3780).
att(675,63).
att(7232,1495).
att(1152,6798).
att(1944,6988).
att(5062,3263).
att(5,5053).
att(1290,779).
att(1256,1824).
att(6486,746).
att(6585,5208).
att(3232,7049).
att(6444,1349).
att(3224,3473).
att(2936,3988).
att(7253,2789).
att(1899,1460).
att(90,1037).
att(759,1328).
att(7195,6360).
att(3365,411).
att(655,3826).
att(2274,2761).
att(1069,1416).
att(3317,45).
att(3556,571).
att(3533,2121).
att(4254,6505).
att(7115,4140).
att(5519,1507).
att(5530,6372).
att(4723,2307).
att(2560,1755).
att(1200,6981).
att(3433,6725).
att(1502,2609).
att(687,3726).
att(27,4122).
att(4140,7115).
att(7234,3430).
att(3837,6291).
att(7346,7315).
att(5006,2336).
att(4682,3288).
att(5188,3886).
att(7209,2123).
att(1158,4674).
att(1386,131).
att(5184,4346).
att(1139,585).
att(431,4290).
att(3809,7193).
att(3647,3213).
att(1468,5069).
att(4913,957).
att(1234,5281).
att(3104,3546).
att(5955,6854).
att(3790,2189).
att(5790,7081).
att(6056,3534).
att(2853,1502).
att(1775,1987).
att(3160,3883).
att(6861,4674).
att(6153,5542).
att(4339,5329).
att(1602,3293).
att(67,3492).
att(5697,6363).
att(106,2673).
att(5004,5053).
att(476,5631).
att(1654,1136).
att(5772,5206).
att(2870,3704).
att(4854,5928).
att(1989,2749).
att(5329,3564).
att(4793,6116).
att(4021,7263).
att(15,1128).
att(5710,4223).
att(4212,7063).
att(2087,6822).
att(4042,5835).
att(6474,2095).
att(4501,4100).
att(1031,3184).
att(1015,4956).
att(4306,2070).
att(2269,6175).
att(4816,2355).
att(7134,5045).
att(2729,5316).
att(1557,247).
att(1841,791).
att(5279,2788).
att(4969,4390).
att(3033,2652).
att(3088,1525).
att(2123,6959).
att(4659,261).
att(5194,6383).
att(1298,845).
att(2551,4483).
att(5750,1039).
att(22,4592).
att(565,1697).
att(5794,4478).
att(6661,4220).
att(3442,3291).
att(2519,3382).
att(3253,5610).
att(729,2169).
att(4014,5001).
att(487,3974).
att(6957,2472).
att(7156,5233).
att(2972,1514).
att(293,3724).
att(228,6964).
att(122,1941).
att(5558,4205).
att(3915,2538).
att(5084,833).
att(100,1934).
att(7099,4205).
att(2622,6313).
att(3816,2781).
att(4918,785).
att(1416,1069).
att(2081,5204).
att(5363,2028).
att(49,5472).
att(4028,6038).
att(5762,5024).
att(320,6458).
att(583,7105).
att(494,7291).
att(4303,3771).
att(6734,474).
att(3685,4994).
att(5756,1077).
att(1621,2584).
att(6697,806).
att(7182,2940).
att(5208,6571).
att(3766,3058).
att(5969,2192).
att(124,3617).
att(2556,6456).
att(172,2754).
att(2677,5884).
att(4990,7155).
att(444,5421).
att(7237,6488).
att(4010,668).
att(5551,591).
att(5375,6513).
att(4166,5865).
att(2914,4583).
att(2707,7081).
att(2894,5590).
att(847,4128).
att(7178,202).
att(3504,4777).
att(988,2080).
att(5716,2440).
att(4157,4479).
att(2161,6479).
att(3927,179).
att(5328,4129).
att(372,3390).
att(5718,6416).
att(893,4934).
att(1559,815).
att(818,102).
att(3066,3168).
att(5108,5724).
att(5627,1049).
att(5384,5858).
att(2048,5560).
att(1159,1084).
att(6475,512).
att(1018,357).
att(7021,5557).
att(2075,2136).
att(3627,5255).
att(2427,5608).
att(5157,99).
att(4385,5834).
att(6711,1900).
att(2753,958).
att(5175,3998).
att(7066,1472).
att(1743,2570).
att(5886,4970).
att(4677,3381).
att(682,344).
att(7281,4700).
att(2852,3853).
att(1016,5874).
att(3439,6640).
att(5954,2089).
att(2265,4772).
att(3724,805).
att(2848,6067).
att(3130,3879).
att(1128,15).
att(1945,343).
att(1209,6012).
att(165,806).
att(4240,285).
att(6338,2589).
att(407,1365).
att(6940,6090).
att(5111,3234).
att(669,2614).
att(2044,7331).
att(4612,496).
att(144,6946).
att(4473,1497).
att(5783,1307).
att(2136,2075).
att(2210,7340).
att(7341,2117).
att(7089,6915).
att(1920,5218).
att(1701,2891).
att(3397,3164).
att(6065,4292).
att(6556,4442).
att(2768,1424).
att(3230,3841).
att(6748,1056).
att(4561,1947).
att(2856,4115).
att(6885,2263).
att(2971,6525).
att(510,6680).
att(5138,3096).
att(247,7040).
att(5380,3165).
att(6504,5924).
att(2812,2418).
att(6915,7089).
att(425,6096).
att(6389,6384).
att(4087,2029).
att(2759,3989).
att(5800,1165).
att(3236,6493).
att(163,4349).
att(7337,6451).
att(2285,3216).
att(4183,3431).
att(5536,7321).
att(7036,7212).
att(665,7158).
att(2018,5749).
att(2051,6864).
att(3031,1582).
att(4863,7008).
att(3834,6757).
att(4333,3554).
att(6087,3671).
att(1631,5692).
att(4983,1399).
att(7103,4860).
att(766,1375).
att(4515,7122).
att(2834,655).
att(6484,5035).
att(4137,2560).
att(5683,6833).
att(3803,7285).
att(7314,6129).
att(2917,2879).
att(3343,1615).
att(4965,6691).
att(6418,3510).
att(6229,2944).
att(4343,2869).
att(5265,6179).
att(5159,2267).
att(6456,1432).
att(3758,2173).
att(3774,2234).
att(5261,4043).
att(3952,7101).
att(752,4534).
att(6430,34).
att(1825,1040).
att(344,1420).
att(6920,3534).
att(2771,3281).
att(1464,1464).
att(7027,7124).
att(144,4398).
att(5925,1121).
att(6447,1092).
att(7067,6981).
att(7205,2621).
att(3704,2010).
att(6925,1630).
att(780,3865).
att(6172,955).
att(815,2670).
att(3055,2125).
att(422,4517).
att(4667,5356).
att(7002,5976).
att(5936,2091).
att(7266,3347).
att(1402,2477).
att(1080,6993).
att(1703,6512).
att(5754,7202).
att(5775,3174).
att(275,5864).
att(5025,6292).
att(5420,2707).
att(5406,1240).
att(1436,6952).
att(2818,2608).
att(2084,2866).
att(2405,996).
att(4565,6584).
att(7291,6098).
att(4483,1857).
att(915,4641).
att(976,334).
att(3438,7274).
att(2402,6940).
att(1750,4319).
att(2478,6612).
att(696,6210).
att(6931,1901).
att(397,141).
att(6426,5875).
att(2382,2855).
att(4053,4305).
att(6859,5094).
att(3137,541).
att(1932,3422).
att(1960,5993).
att(2166,4170).
att(1405,2093).
att(2714,1951).
att(5613,1057).
att(6964,75).
att(4779,6294).
att(5583,3037).
att(3331,3192).
att(6793,1048).
att(1140,3893).
att(3820,4721).
att(6597,1393).
att(468,462).
att(3081,5950).
att(5677,4646).
att(4056,5251).
att(1990,2188).
att(5485,6299).
att(6956,1456).
att(6363,2423).
att(676,2708).
att(1627,7188).
att(7248,2064).
att(1196,4147).
att(6839,3466).
att(809,2835).
att(4659,4047).
att(1345,1462).
att(1578,3159).
att(3380,2974).
att(4044,978).
att(2210,1967).
att(872,3873).
att(6164,2686).
att(1237,6211).
att(4286,2499).
att(3856,5951).
att(1528,4361).
att(6822,195).
att(4195,3951).
att(6264,990).
att(1735,2664).
att(2837,1528).
att(4402,2036).
att(3546,3104).
att(1252,6577).
att(6699,1370).
att(484,4374).
att(859,1111).
att(7192,3137).
att(6048,2090).
att(6205,5255).
att(4681,5455).
att(2201,3113).
att(5557,7021).
att(6840,7136).
att(4642,1181).
att(3175,275).
att(2218,1560).
att(5425,1103).
att(864,3260).
att(5971,7115).
att(6231,5838).
att(3168,3928).
att(7285,1295).
att(4325,5477).
att(4630,143).
att(4222,4145).
att(6697,4100).
att(7321,7109).
att(814,2344).
att(336,479).
att(5041,1131).
att(3635,5998).
att(1387,4391).
att(4696,2400).
att(1167,4980).
att(6954,5707).
att(2948,1057).
att(1178,7167).
att(5693,6579).
att(653,6508).
att(5896,4199).
att(5427,5523).
att(3283,1694).
att(2505,4526).
att(5254,1872).
att(217,7035).
att(3515,3171).
att(6921,6163).
att(3176,4397).
att(3770,3185).
att(4017,7310).
att(4444,2813).
att(5651,741).
att(1210,2779).
att(1112,1366).
att(3241,815).
att(3950,2597).
att(5219,6095).
att(2362,4533).
att(4236,598).
att(2760,2188).
att(6461,3663).
att(5732,671).
att(6119,6665).
att(5402,2132).
att(2597,3950).
att(3238,6231).
att(6174,1547).
att(1412,6039).
att(2674,1723).
att(5730,5228).
att(5061,4598).
att(2394,5000).
att(2455,2625).
att(596,1857).
att(6076,2720).
att(3756,4529).
att(4565,923).
att(4377,4003).
att(2518,3758).
att(3532,1861).
att(4068,2487).
att(6052,4762).
att(4563,3484).
att(2419,6163).
att(7335,6068).
att(2875,527).
att(4552,428).
att(6705,5477).
att(323,6944).
att(4843,4972).
att(2062,4294).
att(2460,280).
att(6372,2637).
att(7289,2846).
att(2114,5132).
att(3409,7130).
att(5817,4161).
att(6284,1616).
att(4401,689).
att(6452,4780).
att(2770,4620).
att(3360,2084).
att(2588,5961).
att(1681,4078).
att(6123,5487).
att(4203,5376).
att(2476,3781).
att(5553,6689).
att(5474,1916).
att(6169,4418).
att(922,3678).
att(3002,6883).
att(6222,5181).
att(5952,4622).
att(2236,6330).
att(3298,5893).
att(2581,5798).
att(3616,5650).
att(2743,1516).
att(6788,1650).
att(2225,3183).
att(1045,3019).
att(6794,3887).
att(5970,931).
att(544,2061).
att(1223,756).
att(5525,3399).
att(3867,4485).
att(3014,552).
att(2524,6464).
att(959,2331).
att(4702,2637).
att(4753,1126).
att(3579,3852).
att(3522,3350).
att(3460,6778).
att(1690,951).
att(6203,6386).
att(2033,4274).
att(4970,211).
att(2142,6117).
att(4987,4915).
att(4456,3862).
att(3458,6705).
att(6711,5348).
att(2401,2550).
att(6432,4602).
att(1022,1577).
att(6224,3286).
att(3097,7343).
att(5282,5560).
att(5029,4069).
att(7344,6732).
att(6494,4540).
att(7302,3759).
att(5834,295).
att(6796,7156).
att(2884,6503).
att(484,4143).
att(5408,3330).
att(1662,2016).
att(4729,97).
att(4701,3795).
att(2716,5220).
att(4185,4829).
att(4346,4158).
att(1366,1288).
att(7267,4077).
att(4889,1431).
att(5299,442).
att(6589,4631).
att(1557,3983).
att(4086,6298).
att(6137,1575).
att(1676,5298).
att(4299,25).
att(1767,2198).
att(2278,1126).
att(6379,3858).
att(2468,5842).
att(3059,1727).
att(7028,1042).
att(5502,4811).
att(3462,729).
att(5554,7245).
att(716,5547).
att(4711,3998).
att(3614,5033).
att(542,3584).
att(5583,4624).
att(682,706).
att(3008,5344).
att(803,4251).
att(1969,6019).
att(4003,786).
att(3934,5569).
att(2163,2572).
att(5388,4697).
att(3450,6979).
att(6424,4111).
att(847,2482).
att(1056,6748).
att(406,2006).
att(2024,1036).
att(1260,6665).
att(6392,2479).
att(5210,3161).
att(1536,2522).
att(4750,288).
att(1578,3636).
att(4895,3912).
att(1499,1965).
att(4604,799).
att(5459,636).
att(3050,1000).
att(751,4121).
att(5932,1611).
att(4094,4667).
att(2317,2580).
att(5416,165).
att(5528,1233).
att(5795,6150).
att(3849,6997).
att(5757,6632).
att(3349,2227).
att(2957,3288).
att(5724,1697).
att(927,6916).
att(1555,1943).
att(6147,5898).
att(4235,1534).
att(3512,3453).
att(1454,1637).
att(1072,179).
att(7152,4588).
att(1742,6551).
att(4166,3048).
att(5181,3758).
att(5858,5384).
att(7249,2051).
att(6296,2369).
att(6220,1474).
att(3494,1639).
att(7204,6379).
att(5990,5965).
att(2011,6494).
att(3696,929).
att(4837,3680).
att(1137,7343).
att(4546,2707).
att(5043,2682).
att(3750,2951).
att(2879,763).
att(3800,3606).
att(281,189).
att(4944,6497).
att(6533,1817).
att(966,2506).
att(4638,2199).
att(3358,4069).
att(1385,52).
att(377,5978).
att(4100,4501).
att(2705,2901).
att(1061,2230).
att(1415,4609).
att(6444,6920).
att(1341,1319).
att(4046,281).
att(157,5191).
att(488,1312).
att(1205,5211).
att(476,5481).
att(5178,3055).
att(3011,68).
att(3957,809).
att(5292,5051).
att(3392,605).
att(2236,3200).
att(7287,2995).
att(4499,5780).
att(7255,6393).
att(4149,2938).
att(2053,4790).
att(6052,2662).
att(6584,4565).
att(3662,4749).
att(2102,6211).
att(3338,1161).
att(3293,2159).
att(876,2676).
att(1328,2911).
att(6684,5207).
att(3963,1133).
att(5212,3122).
att(6282,2417).
att(5262,3784).
att(7290,519).
att(5986,3624).
att(3604,2203).
att(822,5191).
att(1768,3699).
att(385,2270).
att(2205,2013).
att(564,1746).
att(6797,4671).
att(5633,5796).
att(5051,5292).
att(1210,5159).
att(6371,5921).
att(5527,2270).
att(366,968).
att(3398,3226).
att(6184,1930).
att(1590,3238).
att(4206,3821).
att(221,6859).
att(1181,4642).
att(2518,4027).
att(466,4582).
att(2574,6015).
att(3276,823).
att(1747,4176).
att(7113,1632).
att(2326,2918).
att(1394,1560).
att(1376,1900).
att(1083,4262).
att(6213,2485).
att(4696,1221).
att(2696,6115).
att(2025,1776).
att(1660,2879).
att(1458,2944).
att(6832,2082).
att(2947,5525).
att(680,7313).
att(2036,3970).
att(4276,6884).
att(4147,2292).
att(2336,67).
att(1541,6794).
att(1409,2841).
att(5153,3038).
att(2933,6818).
att(4433,2870).
att(1237,3921).
att(6775,5671).
att(3091,199).
att(2045,5109).
att(2955,3655).
att(2543,1991).
att(723,390).
att(3720,5657).
att(2951,7304).
att(2159,5619).
att(2488,4061).
att(3705,465).
att(3660,2247).
att(2731,5125).
att(1869,4922).
att(6670,5961).
att(3653,3521).
att(353,6359).
att(536,4005).
att(1651,5554).
att(6667,2814).
att(2959,338).
att(7029,3642).
att(554,4738).
att(3494,6066).
att(1234,62).
att(5852,6106).
att(2370,5004).
att(2850,55).
att(3037,1089).
att(367,6955).
att(4204,3705).
att(2811,5613).
att(6533,5857).
att(6988,1944).
att(3390,5791).
att(46,5440).
att(5661,5131).
att(857,401).
att(6290,7232).
att(4669,3034).
att(5035,6484).
att(22,4786).
att(2285,940).
att(1558,6055).
att(6162,70).
att(5958,4839).
att(5047,4049).
att(379,4459).
att(524,2307).
att(4018,6016).
att(644,4820).
att(5269,5535).
att(195,1843).
att(5159,3422).
att(1728,5044).
att(2825,594).
att(6256,3194).
att(3852,1956).
att(3979,1568).
att(14,7192).
att(5976,7002).
att(6248,3638).
att(3773,4687).
att(3678,922).
att(1159,6785).
att(6829,5943).
att(2675,3752).
att(3069,1659).
att(6029,5096).
att(4111,7058).
att(7209,1354).
att(4996,4497).
att(2696,7308).
att(6412,5017).
att(6598,2954).
att(5606,2242).
att(4776,1024).
att(5561,738).
att(1546,5573).
att(1639,1587).
att(6996,1693).
att(4330,4307).
att(6417,4168).
att(716,4659).
att(4798,864).
att(5439,3846).
att(6633,5679).
att(4864,241).
att(4980,5369).
att(7177,4487).
att(166,257).
att(2649,517).
att(2910,6215).
att(6612,3206).
att(1064,1524).
att(335,7001).
att(2823,6929).
att(1551,5394).
att(1732,2485).
att(2350,149).
att(5887,5211).
att(4861,4570).
att(4604,4424).
att(776,2050).
att(1871,6694).
att(3778,6947).
att(288,1607).
att(461,6236).
att(6494,1631).
att(5247,469).
att(2032,613).
att(6099,4662).
att(5217,5260).
att(2878,4764).
att(149,6847).
att(2021,7221).
att(2961,3369).
att(6573,6301).
att(5079,2188).
att(3913,5863).
att(6528,5616).
att(6590,4120).
att(292,5174).
att(4973,455).
att(5096,2797).
att(6608,3136).
att(2792,7071).
att(2736,698).
att(6741,1793).
att(5170,1306).
att(3862,3694).
att(7299,6907).
att(2645,4527).
att(5313,6753).
att(6178,2289).
att(6909,6033).
att(5934,5167).
att(6086,4871).
att(1896,3601).
att(5909,5449).
att(3286,2378).
att(5939,597).
att(5874,4338).
att(2859,2906).
att(5871,1198).
att(1239,2418).
att(732,468).
att(4002,822).
att(5259,3455).
att(2894,2569).
att(2890,3567).
att(1414,4927).
att(6096,1731).
att(496,2777).
att(609,4930).
att(5793,1264).
att(1023,1513).
att(3542,269).
att(1878,5567).
att(2002,913).
att(1264,5793).
att(6324,1829).
att(6263,5236).
att(1542,6063).
att(871,7205).
att(4827,7222).
att(5404,2081).
att(6166,4866).
att(2173,2957).
att(311,6037).
att(2070,5736).
att(7268,180).
att(1414,2889).
att(7072,437).
att(2557,1806).
att(4106,6160).
att(6049,3997).
att(4625,3100).
att(824,1929).
att(1401,5663).
att(6056,5497).
att(5148,6273).
att(6441,7137).
att(3282,5340).
att(5082,4519).
att(5759,5120).
att(7343,5155).
att(5446,5262).
att(199,3091).
att(1839,3373).
att(5522,2349).
att(4361,3878).
att(6622,605).
att(1469,4942).
att(1598,3596).
att(5015,1631).
att(2406,5496).
att(5878,5131).
att(3900,1066).
att(2356,2571).
att(3992,3197).
att(993,2333).
att(274,6459).
att(2742,1904).
att(4969,6510).
att(987,2014).
att(3608,1915).
att(6080,2030).
att(4565,5159).
att(1234,4750).
att(1832,2804).
att(6577,1278).
att(6300,3451).
att(620,6758).
att(4365,5424).
att(864,2406).
att(2703,2278).
att(6758,4445).
att(6489,5481).
att(4063,6354).
att(80,2566).
att(5231,7008).
att(3978,6295).
att(7161,6221).
att(1399,6494).
att(688,4468).
att(6824,1117).
att(2643,4707).
att(1972,5319).
att(223,386).
att(2245,4748).
att(4225,6338).
att(1900,987).
att(5054,2360).
att(2380,5421).
att(694,4577).
att(5146,7165).
att(6085,287).
att(670,3753).
att(2895,3459).
att(1431,4889).
att(4565,3422).
att(1914,3611).
att(6939,2520).
att(860,6800).
att(467,4720).
att(4153,2885).
att(3359,864).
att(1530,6619).
att(1631,2134).
att(6713,2529).
att(1895,4859).
att(7214,4266).
att(3881,3726).
att(4083,3396).
att(5048,1926).
att(975,2102).
att(1383,1954).
att(655,5290).
att(6492,4998).
att(5143,4647).
att(478,1582).
att(353,2822).
att(4087,2703).
att(5941,4652).
att(6612,629).
att(3464,3956).
att(4318,7064).
att(6632,3388).
att(3591,6356).
att(4427,300).
att(4848,6575).
att(261,4506).
att(4886,1529).
att(6450,662).
att(6843,1623).
att(6548,3808).
att(598,4256).
att(2333,5265).
att(4774,6287).
att(883,1317).
att(3851,6721).
att(2697,3683).
att(1713,1862).
att(5075,3181).
att(7079,652).
att(1349,2675).
att(4076,7244).
att(6557,6410).
att(183,4476).
att(1681,4823).
att(3255,746).
att(501,4191).
att(698,2736).
att(5112,1516).
att(7225,667).
att(5666,622).
att(4479,4157).
att(1789,4276).
att(2504,7190).
att(5218,1920).
att(4264,1093).
att(5429,4823).
att(2625,2455).
att(5600,2594).
att(1679,6625).
att(2980,2665).
att(4455,5984).
att(1267,3277).
att(5663,1401).
att(2560,7060).
att(6474,4056).
att(2303,3768).
att(4798,2698).
att(6828,247).
att(104,5400).
att(1271,352).
att(7298,2112).
att(4053,172).
att(6861,6372).
att(5512,3563).
att(1191,669).
att(1967,2243).
att(5885,458).
att(3600,921).
att(173,3236).
att(392,3309).
att(622,5666).
att(559,2950).
att(1796,5195).
att(1526,5837).
att(3963,5147).
att(2915,5791).
att(1612,4150).
att(2576,7185).
att(7317,2383).
att(6506,1357).
att(6219,5283).
att(982,3326).
att(6783,2197).
att(3503,1798).
att(1620,835).
att(1932,74).
att(6630,2165).
att(1356,1833).
att(5998,3280).
att(797,4230).
att(6513,6).
att(887,1153).
att(4033,4143).
att(3846,5908).
att(1825,1666).
att(169,3444).
att(4312,360).
att(3479,402).
att(627,1562).
att(6071,16).
att(887,5407).
att(4792,2042).
att(4747,7038).
att(4606,6355).
att(626,37).
att(1961,4834).
att(1838,7144).
att(7088,588).
att(7085,3275).
att(6900,3258).
att(6704,2970).
att(2945,2713).
att(4196,5196).
att(3687,1178).
att(7197,263).
att(6865,3325).
att(4736,2880).
att(1071,7110).
att(5780,4499).
att(2401,6222).
att(3631,2308).
att(6866,5619).
att(6586,1846).
att(4882,4781).
att(204,1141).
att(5880,6221).
att(5012,2595).
att(4427,4648).
att(3614,5415).
att(5705,2072).
att(5983,4125).
att(5774,5076).
att(4297,1114).
att(2792,1440).
att(6283,4424).
att(1165,5800).
att(136,84).
att(198,1528).
att(2170,3552).
att(984,5647).
att(6871,1137).
att(919,6795).
att(5213,4269).
att(5337,3342).
att(2909,1188).
att(4672,235).
att(1852,2612).
att(2508,5464).
att(5208,6585).
att(1748,5752).
att(4134,5569).
att(5785,1838).
att(1223,1939).
att(3093,3461).
att(6662,1324).
att(1697,565).
att(149,2350).
att(2723,796).
att(1677,228).
att(5844,3481).
att(656,787).
att(4757,3535).
att(5767,1734).
att(3906,1970).
att(1420,6779).
att(4172,163).
att(5954,4680).
att(4508,1108).
att(7245,1415).
att(1217,6526).
att(4199,1021).
att(338,446).
att(1803,5575).
att(5189,1605).
att(7049,2675).
att(408,5609).
att(2334,3556).
att(7245,5554).
att(3518,4019).
att(6382,1320).
att(6617,636).
att(2802,926).
att(1701,6134).
att(2787,1324).
att(277,6344).
att(3124,5183).
att(4677,2529).
att(1557,6828).
att(1693,6996).
att(2357,5348).
att(3343,3626).
att(418,6734).
att(5306,3133).
att(4598,5061).
att(1475,5316).
att(7233,4372).
att(1001,697).
att(2300,1978).
att(6907,7299).
att(607,5288).
att(5163,5609).
att(7343,2970).
att(3210,5113).
att(2866,2084).
att(6516,2075).
att(4569,3767).
att(2424,7200).
att(20,4459).
att(1288,3400).
att(4876,446).
att(6264,939).
att(1070,4225).
att(2834,645).
att(308,6463).
att(924,1327).
att(6885,3454).
att(907,839).
att(4584,5862).
att(5477,6705).
att(400,7080).
att(7079,6747).
att(5523,6569).
att(6138,1035).
att(7199,5951).
att(3643,3411).
att(2293,1306).
att(2172,2952).
att(7296,3840).
att(2629,5).
att(7340,2836).
att(5665,6148).
att(3156,4555).
att(5784,1291).
att(277,5635).
att(2374,5227).
att(3798,1329).
att(1650,6788).
att(2630,1486).
att(3250,448).
att(4873,7224).
att(4921,2660).
att(3745,7008).
att(2307,524).
att(5101,6125).
att(4368,1265).
att(2864,1611).
att(6036,3869).
att(631,5478).
att(389,6872).
att(2772,1544).
att(962,2217).
att(1014,5957).
att(5100,5300).
att(7279,482).
att(3063,3318).
att(1303,2272).
att(4008,5371).
att(1776,7088).
att(6315,318).
att(5670,905).
att(950,4716).
att(1482,2433).
att(1048,5653).
att(3667,4145).
att(2164,3420).
att(394,74).
att(3608,3722).
att(3222,3093).
att(6225,6024).
att(5735,6094).
att(5154,7254).
att(5552,999).
att(6428,4631).
att(5839,5576).
att(92,4650).
att(197,848).
att(5232,2669).
att(6305,3467).
att(5748,1563).
att(2407,412).
att(905,3495).
att(4337,5612).
att(3436,5085).
att(6029,746).
att(5514,3180).
att(5371,310).
att(478,4201).
att(4544,6615).
att(5361,2108).
att(5565,5621).
att(3307,4277).
att(3888,2856).
att(899,3209).
att(1469,5492).
att(5866,2394).
att(6394,5415).
att(152,4571).
att(7256,3982).
att(4933,5286).
att(4242,3469).
att(1971,158).
att(3502,3032).
att(2957,913).
att(4183,1403).
att(772,6529).
att(5149,984).
att(2692,1316).
att(4428,86).
att(4763,4090).
att(4109,4371).
att(5869,5475).
att(2641,4302).
att(6217,3089).
att(4109,5069).
att(2350,4074).
att(26,3731).
att(3685,1041).
att(2373,1755).
att(4043,5261).
att(4129,6511).
att(3303,3473).
att(4231,4842).
att(2290,5108).
att(6341,3550).
att(921,3600).
att(629,6612).
att(5128,2556).
att(2656,6621).
att(4424,4076).
att(6314,6659).
att(6499,3918).
att(3758,4027).
att(4620,2770).
att(6818,1139).
att(5838,4778).
att(3004,2347).
att(1309,1419).
att(7043,585).
att(1162,3750).
att(3526,4737).
att(6681,4992).
att(4295,4200).
att(4624,6079).
att(6548,1088).
att(6769,6975).
att(2749,1178).
att(6292,4505).
att(1145,5444).
att(2353,3394).
att(1887,662).
att(6909,6847).
att(737,6702).
att(1148,3536).
att(1699,4315).
att(2550,1918).
att(5505,2533).
att(5722,5703).
att(591,3381).
att(6635,6439).
att(4469,4417).
att(6764,4388).
att(1403,2058).
att(2116,5152).
att(3666,1921).
att(7316,2881).
att(4664,334).
att(3072,5278).
att(3700,812).
att(3879,3122).
att(6764,1959).
att(6251,2721).
att(5884,6977).
att(6934,1442).
att(3989,2759).
att(6532,5873).
att(6437,498).
att(5412,4869).
att(2273,456).
att(5659,7002).
att(1146,5616).
att(2282,2141).
att(5687,2990).
att(3152,432).
att(3726,687).
att(1519,7240).
att(3687,642).
att(6107,2893).
att(5766,3814).
att(927,4920).
att(5201,421).
att(2761,6310).
att(1566,5079).
att(3974,487).
att(1219,5517).
att(3567,97).
att(4240,3488).
att(7108,2898).
att(2369,2591).
att(2755,6013).
att(2100,2023).
att(1791,5202).
att(4148,443).
att(6904,2990).
att(417,1332).
att(1424,1133).
att(1723,782).
att(1860,66).
att(5576,1476).
att(2943,1757).
att(5203,6974).
att(6886,6768).
att(7167,1000).
att(6979,4410).
att(6445,1236).
att(4718,1600).
att(1302,4891).
att(190,5307).
att(3805,798).
att(2251,5485).
att(6078,3881).
att(5589,523).
att(2365,1010).
att(6699,3991).
att(1405,5490).
att(2663,3089).
att(2002,4429).
att(1588,1795).
att(5308,2712).
att(4785,1555).
att(454,2306).
att(5547,3097).
att(5872,1524).
att(1497,4473).
att(1047,4829).
att(3173,1665).
att(3554,4252).
att(1494,7090).
att(6056,4483).
att(1667,218).
att(1832,2607).
att(2220,3532).
att(5135,3642).
att(1400,35).
att(3730,251).
att(324,59).
att(3941,2309).
att(1424,1487).
att(5082,4928).
att(1278,6577).
att(1613,1012).
att(4565,2267).
att(6863,761).
att(4292,6103).
att(3316,1747).
att(5928,4854).
att(5651,1021).
att(2835,2344).
att(2621,7205).
att(4481,2416).
att(6603,375).
att(1287,1904).
att(1381,2813).
att(6885,2417).
att(1012,1613).
att(4725,2274).
att(5,2629).
att(3684,4661).
att(16,2791).
att(4910,4096).
att(2202,3670).
att(4420,4365).
att(3659,2885).
att(3399,4025).
att(3836,4524).
att(6891,6316).
att(4602,6432).
att(443,4148).
att(1711,2919).
att(1862,1713).
att(1399,1917).
att(7146,6595).
att(4363,3831).
att(3079,3489).
att(6420,98).
att(3428,948).
att(4255,4412).
att(4490,2196).
att(1293,1148).
att(2652,3586).
att(6666,6053).
att(2742,1411).
att(820,6791).
att(3236,4389).
att(3393,4483).
att(2758,7016).
att(2791,2010).
att(6232,4054).
att(7201,4160).
att(381,3499).
att(7119,5400).
att(3039,1745).
att(2535,5066).
att(3338,141).
att(441,4883).
att(7300,3927).
att(5090,5253).
att(2120,7346).
att(4819,7214).
att(6694,1871).
att(983,846).
att(3139,4760).
att(1606,6593).
att(4682,964).
att(1069,2770).
att(1204,48).
att(1984,4618).
att(1429,6057).
att(3176,3325).
att(4125,4689).
att(5013,5611).
att(4087,2278).
att(3166,5862).
att(896,6461).
att(3534,6056).
att(7259,1164).
att(140,3949).
att(4833,4947).
att(1848,4565).
att(4550,2958).
att(6649,4968).
att(989,1642).
att(264,4257).
att(7101,3952).
att(539,6291).
att(960,1321).
att(4858,6706).
att(3886,5188).
att(6375,2059).
att(4524,3836).
att(1506,6739).
att(7288,7195).
att(2245,5142).
att(148,1435).
att(2184,6139).
att(6617,5709).
att(7125,5351).
att(2810,3555).
att(2783,1413).
att(4557,868).
att(2624,1799).
att(4330,1208).
att(6557,3961).
att(5233,7156).
att(689,1129).
att(3801,4138).
att(6486,6029).
att(2002,6900).
att(7305,4051).
att(2931,7264).
att(4937,6898).
att(512,3812).
att(4498,126).
att(4524,6582).
att(3449,2993).
att(2607,1927).
att(1664,150).
att(2466,3756).
att(6530,2235).
att(3651,2693).
att(5154,4695).
att(929,93).
att(7161,1306).
att(1660,2632).
att(2711,6307).
att(3975,76).
att(5840,6487).
att(3135,6210).
att(918,712).
att(4320,1545).
att(2044,3232).
att(700,153).
att(6837,2028).
att(6212,6844).
att(965,6520).
att(681,4893).
att(639,1362).
att(1390,7105).
att(5819,951).
att(6019,2963).
att(2174,2216).
att(6366,450).
att(1507,723).
att(2,4623).
att(2547,3003).
att(3472,1414).
att(1677,2902).
att(4476,183).
att(1006,6149).
att(1938,7162).
att(2714,1582).
att(3112,4978).
att(5427,4098).
att(4429,2113).
att(938,4278).
att(4913,4988).
att(2968,1487).
att(1535,7118).
att(4309,4315).
att(1167,3859).
att(1190,1655).
att(977,3135).
att(1228,4651).
att(3894,1940).
att(6560,3714).
att(2922,2726).
att(4808,676).
att(88,2479).
att(2106,4563).
att(2863,4049).
att(4354,3811).
att(3225,3868).
att(724,586).
att(1755,2560).
att(329,386).
att(1943,1555).
att(5167,3268).
att(1615,3343).
att(2798,4474).
att(2319,258).
att(6988,5028).
att(4111,792).
att(5589,1130).
att(4721,3820).
att(3455,6024).
att(6734,7249).
att(5956,4350).
att(783,5372).
att(7346,2120).
att(2461,6876).
att(4985,6061).
att(3432,5250).
att(1076,51).
att(3131,5608).
att(4541,7121).
att(2395,4265).
att(4979,5020).
att(2453,6852).
att(7003,1863).
att(3477,4071).
att(5113,3210).
att(1323,2966).
att(6618,2583).
att(6552,3355).
att(1451,7333).
att(3693,18).
att(1790,2557).
att(4272,4735).
att(4294,4898).
att(1689,3143).
att(4130,5849).
att(5259,7144).
att(1378,6552).
att(2357,7131).
att(3848,5562).
att(6148,5665).
att(1905,4754).
att(6598,3214).
att(9,2785).
att(5214,502).
att(2514,1241).
att(5585,304).
att(6084,5215).
att(4946,7216).
att(6660,227).
att(1516,6557).
att(2992,1208).
att(5411,6918).
att(6626,6689).
att(6755,4497).
att(5634,3371).
att(5729,4107).
att(7338,5328).
att(3042,4297).
att(303,1850).
att(3892,332).
att(3984,4388).
att(1758,746).
att(4670,5180).
att(1424,1712).
att(669,1191).
att(7220,1562).
att(6287,1081).
att(4389,5588).
att(6807,1961).
att(6257,23).
att(339,5934).
att(1059,2250).
att(1517,3709).
att(3914,1456).
att(5752,4338).
att(3578,1874).
att(5811,6471).
att(330,2059).
att(2504,5766).
att(635,2540).
att(3485,5553).
att(6391,2917).
att(734,2471).
att(2580,2317).
att(208,4254).
att(3733,4462).
att(2431,720).
att(1827,6957).
att(2012,1195).
att(1788,4927).
att(2247,5065).
att(3799,6621).
att(527,2875).
att(5123,2290).
att(3667,1977).
att(4820,1352).
att(6200,1973).
att(1447,2577).
att(679,4917).
att(3060,7284).
att(5739,2561).
att(5347,146).
att(5679,6565).
att(2585,6194).
att(3904,516).
att(6868,5222).
att(5026,2510).
att(6226,4805).
att(4221,6143).
att(5957,1014).
att(4842,452).
att(156,3254).
att(5747,4762).
att(3420,2164).
att(1786,4089).
att(3529,6197).
att(6416,4302).
att(2882,2054).
att(3642,5496).
att(170,2039).
att(6891,2799).
att(2748,5865).
att(399,5362).
att(3819,5430).
att(2368,5502).
att(1897,6774).
att(6082,391).
att(4205,5558).
att(6096,1540).
att(4353,5346).
att(2885,4153).
att(3882,4483).
att(1594,4177).
att(1154,2402).
att(219,6386).
att(4555,3156).
att(5810,563).
att(3346,5777).
att(6236,461).
att(1967,2085).
att(6101,7252).
att(5980,326).
att(7139,6435).
att(2690,2877).
att(5919,1396).
att(4488,5686).
att(670,1911).
att(4336,2416).
att(1147,2275).
att(1178,2894).
att(5502,5590).
att(5728,2680).
att(2506,966).
att(3560,4327).
att(1226,7185).
att(4443,1467).
att(2588,2055).
att(1003,3797).
att(1581,1935).
att(1198,5556).
att(4212,3119).
att(1662,6711).
att(3609,5379).
att(7175,6789).
att(5175,6861).
att(3950,5782).
att(7012,2372).
att(2255,3396).
att(5701,6438).
att(3204,4582).
att(5507,4875).
att(1456,3822).
att(3315,2789).
att(1809,1443).
att(1973,1810).
att(4815,4447).
att(3865,1894).
att(1052,4291).
att(1023,3758).
att(268,3599).
att(5951,7199).
att(4350,750).
att(6051,6701).
att(2188,2760).
att(2870,4433).
att(1172,6667).
att(174,339).
att(3650,804).
att(3845,6775).
att(3708,6541).
att(178,5749).
att(3469,1523).
att(7317,6669).
att(2908,841).
att(45,671).
att(1804,1172).
att(7131,3921).
att(264,2962).
att(1119,920).
att(4483,6056).
att(167,4615).
att(2706,3734).
att(6481,1991).
att(727,3147).
att(6978,4136).
att(946,784).
att(5779,5843).
att(2368,5302).
att(6415,291).
att(6121,6024).
att(1399,1090).
att(5180,1321).
att(3581,6469).
att(5341,1823).
att(6192,1618).
att(6961,4625).
att(4054,5269).
att(3069,522).
att(2203,3604).
att(2110,2366).
att(6776,1178).
att(3681,2221).
att(5007,1770).
att(891,6448).
att(7030,4841).
att(2271,5257).
att(6223,6795).
att(1327,3671).
att(213,5979).
att(4101,3603).
att(2378,5205).
att(3634,3915).
att(5851,3189).
att(1769,147).
att(6411,3335).
att(6202,3971).
att(2933,3268).
att(4459,2485).
att(4448,5653).
att(5717,6729).
att(571,3556).
att(3397,2620).
att(3594,509).
att(2759,156).
att(5762,5002).
att(2366,2955).
att(1170,346).
att(5571,6268).
att(5483,6123).
att(4124,3151).
att(260,5202).
att(2596,5188).
att(5903,5640).
att(5546,3019).
att(4867,6918).
att(6312,2208).
att(7271,552).
att(553,1695).
att(5979,3955).
att(5271,2100).
att(4927,5133).
att(98,6420).
att(3944,2992).
att(3853,2852).
att(3774,4031).
att(1801,2977).
att(692,7338).
att(6194,2585).
att(6552,1812).
att(5844,2708).
att(3070,1724).
att(4711,6790).
att(5743,2258).
att(2077,4457).
att(6332,4008).
att(909,1094).
att(2048,3829).
att(6131,6646).
att(4476,3345).
att(5006,3241).
att(1280,5365).
att(5757,1436).
att(5644,1359).
att(2836,7340).
att(504,5141).
att(1858,938).
att(6852,1580).
att(880,4699).
att(3613,3682).
att(4869,5412).
att(7121,4541).
att(6819,5584).
att(6326,256).
att(2102,4140).
att(6289,1419).
att(3219,673).
att(5378,2529).
att(4471,2379).
att(6423,1573).
att(6178,1471).
att(149,3299).
att(1125,2342).
att(160,1809).
att(4729,2026).
att(2553,3444).
att(5763,857).
att(851,694).
att(2877,2690).
att(2934,7210).
att(6194,7029).
att(641,1298).
att(2668,7225).
att(7280,6308).
att(1607,288).
att(368,2945).
att(1208,3944).
att(5279,2626).
att(4986,1643).
att(21,6684).
att(3288,2957).
att(4952,221).
att(4415,3913).
att(4712,2006).
att(591,12).
att(1918,3325).
att(4871,5560).
att(6291,539).
att(4098,4620).
att(1343,509).
att(7321,5536).
att(1592,5233).
att(4035,557).
att(210,3306).
att(774,3962).
att(2346,2443).
att(757,3990).
att(749,6396).
att(7272,1794).
att(4445,6758).
att(2509,2647).
att(505,883).
att(5413,6766).
att(913,2738).
att(2284,4340).
att(957,1738).
att(5685,5387).
att(3097,4999).
att(4572,3403).
att(6594,3546).
att(517,2649).
att(4233,7318).
att(1187,3828).
att(6042,1609).
att(608,5401).
att(4680,1691).
att(1055,2759).
att(5668,2482).
att(5241,4467).
att(1400,6966).
att(3268,5167).
att(3910,4291).
att(3910,3031).
att(6147,4363).
att(683,1914).
att(6915,6734).
att(800,2849).
att(2983,2179).
att(2112,7298).
att(4683,2055).
att(6613,1401).
att(1534,4235).
att(2011,4540).
att(6899,828).
att(3036,4877).
att(2676,876).
att(3345,4476).
att(2755,5190).
att(2182,677).
att(7107,2905).
att(2339,3816).
att(5328,7338).
att(5432,2888).
att(2804,5780).
att(474,6707).
att(3366,5663).
att(6197,3529).
att(4254,1297).
att(3219,1088).
att(725,5744).
att(406,954).
att(2918,2639).
att(5940,2745).
att(2486,4450).
att(5848,3216).
att(2549,2682).
att(7336,1158).
att(4480,3649).
att(6908,6001).
att(2917,2081).
att(2152,4208).
att(5656,351).
att(4825,2484).
att(2324,5059).
att(3357,3935).
att(6054,2392).
att(5589,624).
att(6685,4041).
att(2666,419).
att(4413,2274).
att(3979,6814).
att(3162,3731).
att(866,2138).
att(6623,5495).
att(5215,6084).
att(4972,5224).
att(933,2751).
att(3133,5306).
att(745,6663).
att(3262,7138).
att(6980,6442).
att(4050,2472).
att(2345,4416).
att(3068,4679).
att(1716,6520).
att(3539,5103).
att(2574,6122).
att(3869,6584).
att(805,3724).
att(4610,2033).
att(2884,5547).
att(2125,1031).
att(3686,7032).
att(3098,5042).
att(5598,6954).
att(3072,1933).
att(753,5039).
att(465,3705).
att(4203,646).
att(5867,6950).
att(1100,5899).
att(7221,5933).
att(6715,2928).
att(1224,5625).
att(1126,4753).
att(5623,2170).
att(2637,6734).
att(4685,1265).
att(5072,6645).
att(2644,5117).
att(1639,6322).
att(4123,2836).
att(3950,3516).
att(2432,6780).
att(6470,53).
att(1995,333).
att(5289,174).
att(449,4780).
att(6470,4461).
att(5496,3642).
att(6827,5919).
att(773,1888).
att(3674,6518).
att(689,4401).
att(1491,1741).
att(714,5054).
att(2323,5330).
att(4939,735).
att(2905,4133).
att(4734,1294).
att(4672,4754).
att(573,265).
att(1735,6835).
att(4034,3095).
att(782,1723).
att(451,1939).
att(867,6170).
att(1890,5520).
att(2910,6870).
att(3861,769).
att(5273,6203).
att(5238,3524).
att(2379,4471).
att(4062,4334).
att(357,3533).
att(4980,161).
att(7170,3518).
att(5480,1268).
att(3680,4837).
att(4702,5745).
att(6595,1639).
att(2135,4073).
att(6227,2532).
att(3942,674).
att(283,7102).
att(6204,611).
att(6341,4763).
att(5802,1232).
att(7313,69).
att(6338,1932).
att(3152,3641).
att(678,3632).
att(3483,7139).
att(2212,5035).
att(3537,2975).
att(5841,4062).
att(3121,944).
att(6215,35).
att(792,4582).
att(3367,5047).
att(4115,2856).
att(629,5166).
att(5229,6369).
att(3959,6297).
att(5122,4776).
att(1292,2715).
att(6088,3100).
att(5470,5720).
att(2955,7189).
att(5433,6003).
att(3900,5263).
att(6091,2567).
att(3395,1657).
att(1692,1844).
att(4498,949).
att(517,1072).
att(6067,1926).
att(849,3258).
att(811,6390).
att(3749,3737).
att(519,4769).
att(7184,4139).
att(1811,2962).
att(6979,3450).
att(7240,1007).
att(5318,4026).
att(6317,3463).
att(2324,4311).
att(1024,3656).
att(5290,7271).
att(2091,119).
att(2434,5980).
att(7055,4808).
att(5132,2114).
att(4973,3432).
att(1437,6072).
att(7216,4946).
att(6051,6811).
att(5961,6670).
att(5710,2438).
att(6268,5571).
att(6209,4300).
att(6297,2073).
att(2490,6683).
att(6621,3799).
att(4865,1533).
att(5698,7189).
att(6483,4296).
att(4565,1210).
att(3639,3959).
att(5186,6551).
att(1056,1981).
att(5493,2052).
att(4629,5982).
att(4344,69).
att(5258,5222).
att(1377,4621).
att(6031,7054).
att(1037,5516).
att(82,1837).
att(5262,6024).
att(5381,3464).
att(6398,4189).
att(6013,2755).
att(5500,269).
att(5609,408).
att(4620,5189).
att(306,4049).
att(6577,1252).
att(1391,6334).
att(5968,2752).
att(1283,4628).
att(6931,6171).
att(848,2099).
att(3358,3504).
att(5479,6115).
att(4639,591).
att(6329,6244).
att(2340,646).
att(948,7262).
att(1135,3437).
att(3574,499).
att(6761,5888).
att(2064,609).
att(5211,1205).
att(656,2122).
att(426,2450).
att(3145,2764).
att(117,4784).
att(3362,6249).
att(636,6617).
att(6556,2878).
att(4112,1150).
att(3895,1481).
att(2563,6907).
att(422,5005).
att(3296,5410).
att(6686,6130).
att(2238,4314).
att(3091,4014).
att(6116,4793).
att(238,1174).
att(3967,6445).
att(431,1833).
att(4464,703).
att(6696,1261).
att(6476,524).
att(6664,756).
att(3927,7300).
att(2446,855).
att(7307,2241).
att(5344,4495).
att(3001,2020).
att(401,3562).
att(6673,6642).
att(18,5933).
att(6277,4745).
att(4147,6104).
att(1373,2957).
att(972,1333).
att(3354,3557).
att(2321,1093).
att(6853,6756).
att(2945,5447).
att(1518,4128).
att(3246,1032).
att(4323,2958).
att(2706,5289).
att(3204,6262).
att(6826,556).
att(5943,6829).
att(6733,3823).
att(6012,370).
att(3469,4242).
att(5135,1752).
att(2552,5355).
att(1547,3191).
att(811,4890).
att(4224,2914).
att(6024,1790).
att(3,1075).
att(1956,3852).
att(7230,2661).
att(6946,1656).
att(4371,4794).
att(4752,2177).
att(4767,3437).
att(863,1718).
att(2507,4720).
att(286,1597).
att(550,6140).
att(2323,2341).
att(5611,371).
att(1196,6635).
att(6456,2766).
att(1538,2076).
att(5091,1836).
att(4047,1379).
att(4665,4282).
att(1098,6219).
att(118,253).
att(4894,1577).
att(4104,733).
att(5635,277).
att(6404,5457).
att(2290,1850).
att(3095,6900).
att(2836,1994).
att(976,7176).
att(3928,3168).
att(6851,6336).
att(2814,2306).
att(87,5913).
att(5847,4851).
att(2618,6726).
att(524,6476).
att(4220,6661).
att(5636,4626).
att(2375,3423).
att(4758,1449).
att(1872,5254).
att(1089,5661).
att(3902,2065).
att(3402,1631).
att(365,4470).
att(2765,1537).
att(5567,4196).
att(5740,2949).
att(2952,2623).
att(1211,2403).
att(4851,5847).
att(950,5637).
att(5018,1250).
att(220,1033).
att(4551,489).
att(178,2492).
att(1422,1698).
att(3278,5513).
att(4320,5812).
att(7222,4827).
att(5781,2498).
att(4987,7073).
att(1442,331).
att(6037,311).
att(1982,7340).
att(6553,1338).
att(3421,3846).
att(7121,7094).
att(4690,4709).
att(1659,3069).
att(1034,5545).
att(6922,4263).
att(3532,670).
att(6826,4657).
att(7014,1634).
att(1372,1404).
att(1496,2355).
att(289,6806).
att(3707,912).
att(917,4824).
att(2397,6547).
att(1971,2866).
att(2666,2961).
att(62,1234).
att(2891,5482).
att(4653,543).
att(4949,5484).
att(4431,3893).
att(4481,4831).
att(261,4659).
att(2807,4172).
att(5317,1168).
att(446,338).
att(943,5615).
att(7280,609).
att(6189,5891).
att(1966,6557).
att(2277,2384).
att(2429,6076).
att(4915,2410).
att(6711,1662).
att(467,7310).
att(4802,436).
att(4333,621).
att(4980,2143).
att(5893,3791).
att(3147,727).
att(1653,567).
att(1708,1817).
att(6184,5313).
att(967,2465).
att(4334,4062).
att(1420,344).
att(1941,122).
att(3728,6630).
att(3494,444).
att(2126,391).
att(5783,917).
att(3621,1427).
att(2529,3260).
att(6942,2271).
att(613,6738).
att(6304,3965).
att(3236,1178).
att(1520,4846).
att(1918,2912).
att(3875,4688).
att(3455,6489).
att(6975,3706).
att(4579,5032).
att(5631,3672).
att(1,872).
att(7274,3438).
att(3376,1805).
att(3331,5742).
att(7154,6762).
att(390,5196).
att(5366,4424).
att(567,2289).
att(4370,6670).
att(5022,728).
att(3441,2241).
att(3529,5870).
att(6729,3734).
att(2742,2607).
att(3514,1450).
att(4818,1247).
att(1478,2325).
att(968,4928).
att(2630,3587).
att(3068,3047).
att(1189,252).
att(1840,5992).
att(1799,2624).
att(5281,2616).
att(5114,1463).
att(1324,6662).
att(5165,2458).
att(2991,3969).
att(3060,5358).
att(3099,5403).
att(5023,3985).
att(4831,4481).
att(2609,1502).
att(5023,3150).
att(4675,3997).
att(6102,5948).
att(1819,6256).
att(4293,7).
att(2438,5710).
att(4948,262).
att(1053,3240).
att(1634,3590).
att(6840,3111).
att(1339,973).
att(1298,6401).
att(2437,5467).
att(2806,4486).
att(6530,1659).
att(4465,2731).
att(4012,826).
att(6754,1564).
att(2273,5290).
att(4749,3662).
att(5250,6138).
att(784,6606).
att(427,7218).
att(2410,3218).
att(6797,4483).
att(2089,966).
att(6920,6056).
att(884,308).
att(5336,2702).
att(6383,3995).
att(2254,1158).
att(3031,3910).
att(5358,3060).
att(2601,3945).
att(3378,919).
att(1872,3329).
att(6110,116).
att(2817,5704).
att(6671,996).
att(1547,1498).
att(680,4344).
att(1230,2315).
att(2008,5327).
att(6200,6200).
att(4008,1301).
att(7201,7233).
att(2149,3198).
att(1961,6807).
att(20,4251).
att(1828,3033).
att(905,5670).
att(650,5193).
att(3799,2801).
att(4457,1589).
att(4811,3236).
att(2341,2323).
att(6898,4975).
att(4096,6657).
att(4987,6653).
att(5353,7009).
att(1208,2992).
att(4350,1221).
att(3835,6807).
att(4800,3251).
att(3449,3139).
att(5060,500).
att(2473,6968).
att(6282,957).
att(6073,4152).
att(2417,6282).
att(6484,6405).
att(7053,1980).
att(6121,3182).
att(4774,6285).
att(27,4307).
att(3069,4344).
att(625,3314).
att(5607,2562).
att(1463,794).
att(5266,6652).
att(3456,7058).
att(3923,3545).
att(5712,6785).
att(227,5542).
att(5780,2804).
att(219,1950).
att(2450,426).
att(1587,1639).
att(3439,2994).
att(2814,7282).
att(728,5022).
att(5134,2256).
att(7316,1504).
att(1760,2595).
att(1263,313).
att(6034,5122).
att(5375,4196).
att(2721,7259).
att(5982,5340).
att(2963,6019).
att(3050,1437).
att(6809,718).
att(61,7168).
att(2626,4052).
att(1037,4443).
att(3187,2043).
att(6461,896).
att(171,3173).
att(438,345).
att(3280,6683).
att(6458,206).
att(7218,3295).
att(3930,4293).
att(5209,2022).
att(2322,6791).
att(6759,2425).
att(5349,5890).
att(7047,4127).
att(396,4584).
att(6315,2727).
att(6125,5101).
att(502,5214).
att(1697,5724).
att(5640,5903).
att(1982,4175).
att(4027,2401).
att(4806,765).
att(2829,5548).
att(3140,2744).
att(2843,6560).
att(6945,680).
att(5859,6189).
att(6095,4487).
att(3688,6165).
att(4658,3716).
att(1530,5807).
att(873,1633).
att(5677,657).
att(5696,6810).
att(4380,4796).
att(4938,674).
att(3938,7329).
att(2057,1968).
att(5486,2320).
att(3432,4973).
att(4041,6685).
att(3633,5820).
att(5108,3675).
att(6480,4993).
att(5400,7119).
att(3913,4415).
att(529,7060).
att(1130,6177).
att(730,3976).
att(2570,1655).
att(2996,4953).
att(3310,231).
att(1258,4285).
att(2858,4887).
att(6805,3385).
att(2906,5713).
att(4040,1439).
att(7035,217).
att(6670,1649).
att(4426,2766).
att(3316,1338).
att(4147,2357).
att(1918,4027).
att(7087,4739).
att(4967,4639).
att(1542,5672).
att(116,6110).
att(5262,3325).
att(2519,6185).
att(2992,4330).
att(2946,6857).
att(5267,4417).
att(4905,774).
att(4035,264).
att(3000,2306).
att(4942,1844).
att(1246,5519).
att(5238,1091).
att(2826,115).
att(3485,5382).
att(6999,1488).
att(2584,1621).
att(6293,3959).
att(7128,128).
att(5509,4945).
att(3125,3).
att(1117,6824).
att(5903,2659).
att(5368,852).
att(77,5976).
att(4074,6020).
att(1958,6034).
att(6138,288).
att(1304,3026).
att(6516,5739).
att(511,2499).
att(2964,5555).
att(2126,3140).
att(6839,6954).
att(1981,1056).
att(798,3805).
att(6689,5553).
att(5821,944).
att(4464,4055).
att(2708,676).
att(1100,1005).
att(5547,1084).
att(973,3344).
att(1997,6466).
att(6254,2086).
att(5542,1396).
att(3779,4533).
att(5785,4572).
att(7052,4366).
att(3149,6828).
att(1041,15).
att(6022,5780).
att(5540,3046).
att(3698,751).
att(1371,4317).
att(5302,321).
att(828,2335).
att(4546,5500).
att(1545,6808).
att(4273,3597).
att(3882,4460).
att(5117,2644).
att(1924,4132).
att(3184,5330).
att(1108,4508).
att(1210,1848).
att(5190,4386).
att(4662,4407).
att(7048,730).
att(5287,3414).
att(4570,4861).
att(2020,3001).
att(3587,6398).
att(5549,4372).
att(5364,6040).
att(3779,2133).
att(6952,4036).
att(6581,2092).
att(5326,1425).
att(1517,6449).
att(638,408).
att(4532,3541).
att(2171,3195).
att(197,1183).
att(5069,4109).
att(4539,6346).
att(7,6190).
att(2889,6920).
att(6870,1425).
att(3951,4195).
att(7329,3938).
att(6434,5734).
att(2937,3421).
att(2351,6509).
att(5311,4753).
att(2508,786).
att(4366,7094).
att(5200,1444).
att(1200,3557).
att(3894,1065).
att(2879,5789).
att(2202,2529).
att(2534,874).
att(6962,5009).
att(5563,5421).
att(4689,5249).
att(1784,477).
att(871,202).
att(1816,953).
att(4207,5083).
att(5945,4036).
att(4062,5841).
att(2974,3380).
att(1933,3072).
att(1928,821).
att(196,4278).
att(1249,4510).
att(2594,5600).
att(1201,2787).
att(1591,7235).
att(4687,2836).
att(2352,305).
att(5089,3838).
att(2059,6375).
att(646,4203).
att(7345,2646).
att(2881,84).
att(73,5376).
att(2256,5134).
att(6839,4507).
att(3206,2897).
att(1413,5104).
att(5468,3492).
att(3966,1005).
att(4354,1963).
att(4024,4732).
att(2417,1708).
att(4865,6468).
att(4356,5662).
att(3086,1053).
att(7166,941).
att(6639,4214).
att(6594,6826).
att(5505,5784).
att(4987,7193).
att(6394,5131).
att(5535,1476).
att(6569,5523).
att(789,6199).
att(6181,3217).
att(3770,2108).
att(2984,671).
att(4911,6859).
att(2638,3270).
att(797,3172).
att(3689,4874).
att(3996,4250).
att(2325,3790).
att(5584,3120).
att(5812,4320).
att(3248,5169).
att(3971,6202).
att(2286,1480).
att(1817,7077).
att(685,3352).
att(5585,2343).
att(929,6462).
att(5033,3614).
att(3311,6224).
att(2599,1317).
att(6051,2447).
att(4175,1982).
att(4270,4699).
att(122,1628).
att(5756,3050).
att(404,7055).
att(3089,2663).
att(2914,4224).
att(268,977).
att(4487,7177).
att(2063,4363).
att(5519,1246).
att(5976,77).
att(3486,7207).
att(6297,3959).
att(6423,1112).
att(5787,1615).
att(3874,1215).
att(6573,2646).
att(123,349).
att(1948,2649).
att(5036,4605).
att(5046,3681).
att(2287,1570).
att(1923,6270).
att(671,3057).
att(359,1788).
att(729,3462).
att(3531,1881).
att(6132,3586).
att(2147,6234).
att(6668,1924).
att(2437,5146).
att(6734,6915).
att(4810,2830).
att(5614,4925).
att(5362,6538).
att(5241,409).
att(5123,7129).
att(1812,5632).
att(3067,6614).
att(6527,900).
att(3044,5594).
att(5784,6477).
att(6494,6574).
att(4133,6211).
att(5366,6283).
att(2440,1255).
att(6865,2589).
att(5283,788).
att(190,6053).
att(1489,5570).
att(2869,3931).
att(5727,7112).
att(3869,6036).
att(3119,6457).
att(543,3798).
att(4392,5287).
att(2848,5346).
att(4609,6316).
att(4499,6583).
att(5998,3635).
att(5950,4528).
att(710,1600).
att(6292,5025).
att(4214,3328).
att(5389,2868).
att(396,5466).
att(7016,2758).
att(1221,4727).
att(1408,5099).
att(4081,6453).
att(3214,5649).
att(6838,5398).
att(2617,392).
att(3822,581).
att(2062,5397).
att(4467,5241).
att(1806,815).
att(3455,4173).
att(222,3987).
att(4951,1782).
att(4514,775).
att(421,6485).
att(1939,1223).
att(5243,3016).
att(6810,4728).
att(942,2045).
att(5510,2013).
att(4437,4355).
att(5473,1851).
att(5064,6540).
att(2656,7049).
att(2550,3176).
att(5800,2349).
att(3908,5917).
att(4014,3091).
att(789,1282).
att(3399,5525).
att(2547,5292).
att(1885,1183).
att(1973,6200).
att(675,1096).
att(6777,1674).
att(6105,1792).
att(3460,4423).
att(132,3448).
att(7151,63).
att(5415,3614).
att(4745,6639).
att(5111,1250).
att(5892,5846).
att(839,4509).
att(6784,5458).
att(2485,1335).
att(2697,2554).
att(4891,5643).
att(4425,1622).
att(1490,4486).
att(2560,4137).
att(4450,3326).
att(4599,1872).
att(1816,4632).
att(5030,1337).
att(5547,1159).
att(541,3137).
att(6816,4287).
att(5650,3616).
att(2649,1948).
att(7269,3961).
att(3921,479).
att(6206,807).
att(2347,6860).
att(5599,2751).
att(2224,6173).
att(2756,9).
att(7095,1423).
att(1132,6008).
att(6331,1076).
att(1666,7122).
att(7310,4017).
att(5119,4640).
att(4761,4588).
att(3086,5889).
att(5512,828).
att(4365,5469).
att(6989,186).
att(3186,1539).
att(143,4495).
att(6612,6817).
att(3223,3505).
att(6925,6494).
att(5849,5531).
att(5830,6400).
att(6750,6953).
att(3998,172).
att(5975,194).
att(3925,2523).
att(1221,4790).
att(2766,5128).
att(6413,4704).
att(4382,3516).
att(2702,4421).
att(2822,2465).
att(2302,7223).
att(2428,5694).
att(2373,2122).
att(6511,4129).
att(3778,205).
att(5706,6425).
att(2201,6119).
att(892,5459).
att(5648,3129).
att(4030,3074).
att(5294,5134).
att(6040,7137).
att(4814,56).
att(86,5112).
att(4565,1848).
att(862,5768).
att(2675,1349).
att(4162,4277).
att(4583,2914).
att(997,6012).
att(4751,3322).
att(6940,2402).
att(5675,3353).
att(5598,4453).
att(5922,3240).
att(6249,2935).
att(4422,4656).
att(5175,5118).
att(2796,4802).
att(4011,590).
att(5531,5849).
att(357,1018).
att(1135,2338).
att(2292,837).
att(939,652).
att(4523,93).
att(3850,1552).
att(4251,803).
att(1113,2922).
att(4411,5357).
att(7305,5324).
att(6045,4705).
att(2402,1154).
att(4489,809).
att(1491,6457).
att(4101,6972).
att(1495,5324).
att(918,4887).
att(4249,6513).
att(2612,1852).
att(787,2373).
att(5155,7343).
att(2416,4336).
att(4992,4008).
att(1095,7207).
att(6778,3460).
att(4832,3146).
att(81,2550).
att(2026,2622).
att(5274,2995).
att(6302,2237).
att(3381,4677).
att(4724,7004).
att(2945,368).
att(2771,1940).
att(4660,2295).
att(2710,3160).
att(678,5833).
att(5615,2470).
att(5234,1773).
att(4344,894).
att(3949,140).
att(5576,5839).
att(1932,1631).
att(3233,5807).
att(4493,369).
att(2430,709).
att(5617,7180).
att(5893,5518).
att(6897,4555).
att(4535,3022).
att(3257,4864).
att(3486,5825).
att(1441,2907).
att(2637,6102).
att(945,4760).
att(3522,6446).
att(2023,2693).
att(2093,5880).
att(787,2601).
att(2039,170).
att(6177,1130).
att(3673,2745).
att(2657,3255).
att(91,3065).
att(5068,465).
att(3921,445).
att(2240,2172).
att(2793,5716).
att(4072,4537).
att(2235,4086).
att(7237,329).
att(4977,1315).
att(1755,1362).
att(1196,1545).
att(4711,5898).
att(5751,2266).
att(1919,1097).
att(1102,3486).
att(1128,6823).
att(2038,4176).
att(2614,669).
att(7226,7302).
att(4362,7025).
att(4455,4154).
att(4345,4173).
att(4661,3684).
att(3767,1750).
att(7067,2842).
att(2168,1682).
att(1943,1620).
att(1543,6701).
att(6614,3067).
att(7322,600).
att(3079,854).
att(6436,6059).
att(1013,7032).
att(3425,5503).
att(740,5930).
att(1810,2587).
att(7001,1189).
att(2264,1451).
att(5518,7118).
att(2156,4270).
att(355,4458).
att(4048,6183).
att(2217,4646).
att(5949,959).
att(3945,2601).
att(2607,1832).
att(1379,3940).
att(4853,1230).
att(4355,4437).
att(4543,702).
att(2766,4142).
att(1488,6999).
att(6437,6156).
att(3762,83).
att(4389,3050).
att(6888,6733).
att(5108,2773).
att(6214,353).
att(3264,3897).
att(2342,2636).
att(4582,3204).
att(2194,1113).
att(7312,5337).
att(7071,5063).
att(148,5862).
att(5748,4310).
att(2389,3106).
att(55,4431).
att(1548,94).
att(1157,534).
att(6440,6731).
att(1666,3001).
att(4011,4640).
att(5221,3204).
att(7046,1105).
att(3539,5140).
att(2396,3035).
att(390,723).
att(6319,5435).
att(1595,3221).
att(3363,5015).
att(4341,5548).
att(4926,5377).
att(4441,4451).
att(927,3213).
att(6532,7208).
att(1557,1376).
att(5610,680).
att(5242,7087).
att(1199,1129).
att(232,4219).
att(1620,2475).
att(3016,5243).
att(1273,2216).
att(5042,3789).
att(1739,452).
att(225,6853).
att(6106,5592).
att(4367,1597).
att(4702,1107).
att(2566,80).
att(5264,494).
att(2252,5028).
att(3937,6221).
att(6564,7056).
att(5272,4579).
att(5608,2427).
att(505,4194).
att(2442,5837).
att(3788,5092).
att(1818,1229).
att(2019,2005).
att(3663,4692).
att(1733,7272).
att(4854,5999).
att(2171,656).
att(6960,6462).
att(5597,5941).
att(4100,6697).
att(4883,6275).
att(5658,2965).
att(2139,7010).
att(3446,3617).
att(6212,732).
att(486,6175).
att(819,2364).
att(1122,5595).
att(1444,5200).
att(5724,1781).
att(2466,6181).
att(4201,478).
att(1915,5862).
att(3981,836).
att(3903,2527).
att(3750,6954).
att(3771,4303).
att(4150,7016).
att(4456,3050).
att(3585,5740).
att(4204,3786).
att(3193,6891).
att(2568,1141).
att(2912,1918).
att(1406,6735).
att(6529,772).
att(6379,1597).
att(4892,3245).
att(2430,6524).
att(6250,4174).
att(5617,234).
att(3568,6973).
att(7130,6395).
att(5989,5088).
att(6008,4123).
att(2013,5510).
att(3515,2859).
att(2803,5718).
att(1678,89).
att(1795,1588).
att(2212,7039).
att(1756,5622).
att(2171,2373).
att(712,7044).
att(4483,3393).
att(1412,1313).
att(3077,5386).
att(3138,6127).
att(2814,670).
att(265,864).
att(462,6488).
att(5348,2863).
att(6269,4838).
att(4065,1063).
att(2335,1936).
att(3431,4183).
att(76,563).
att(419,2666).
att(3882,3746).
att(184,6654).
att(6319,4177).
att(6893,449).
att(5161,1752).
att(292,589).
att(7287,224).
att(2907,5402).
att(1772,4944).
att(3313,4899).
att(5866,5102).
att(2115,5091).
att(6944,323).
att(4910,3738).
att(2485,4459).
att(6674,1251).
att(2458,1955).
att(1888,773).
att(421,5201).
att(4808,7055).
att(3664,4668).
att(3049,5696).
att(6183,5522).
att(1,903).
att(1198,5871).
att(5351,4431).
att(7196,5378).
att(3858,3532).
att(5791,2915).
att(4534,752).
att(5120,6638).
att(2299,6209).
att(3882,1095).
att(578,6301).
att(5354,634).
att(1726,7238).
att(3302,4316).
att(6808,418).
att(5663,1104).
att(1714,922).
att(1656,679).
att(6832,3491).
att(4136,2036).
att(3445,3324).
att(1046,466).
att(7332,2843).
att(4701,6607).
att(3505,3223).
att(7204,2220).
att(2470,5615).
att(5114,5692).
att(2668,3228).
att(3958,5412).
att(7266,6736).
att(1824,1256).
att(6034,1958).
att(6369,5229).
att(3128,2063).
att(2961,3088).
att(5589,1905).
att(6149,7211).
att(5921,3109).
att(6576,2597).
att(2384,6809).
att(1874,3578).
att(30,971).
att(6227,6392).
att(5315,4983).
att(3391,6536).
att(1285,673).
att(2564,1164).
att(1898,2691).
att(6610,2420).
att(913,6280).
att(7155,5160).
att(1270,6028).
att(201,1768).
att(4639,4967).
att(1754,7205).
att(6278,2529).
att(5010,7021).
att(2513,3986).
att(5836,6890).
att(6789,1559).
att(617,5012).
att(4703,2576).
att(737,2081).
att(4593,5312).
att(393,4882).
att(3188,1100).
att(572,1063).
att(35,6215).
att(1964,4906).
att(6900,3095).
att(5953,4813).
att(1750,3767).
att(2106,441).
att(5472,6937).
att(4647,1578).
att(544,1861).
att(3136,5579).
att(7145,3830).
att(136,6545).
att(6390,811).
att(747,560).
att(768,5202).
att(7048,5150).
att(7318,2910).
att(4769,519).
att(3277,1267).
att(6027,5668).
att(3849,244).
att(5825,3486).
att(801,991).
att(2806,4723).
att(6932,1784).
att(1778,6995).
att(3557,1200).
att(1606,3359).
att(4461,6470).
att(768,6573).
att(6592,924).
att(2639,2918).
att(6275,4883).
att(5475,2396).
att(2101,2318).
att(1676,1028).
att(4636,4598).
att(1717,3677).
att(7075,6393).
att(4037,7024).
att(796,2723).
att(3954,1673).
att(3082,4502).
att(719,2282).
att(1938,1878).
att(1822,415).
att(6337,5914).
att(674,3942).
att(3525,1281).
att(1746,4801).
att(2122,4342).
att(4692,3663).
att(3454,6885).
att(5548,4341).
att(5711,3120).
att(262,4948).
att(6510,3208).
att(4633,6936).
att(4882,393).
att(6908,1857).
att(6990,1684).
att(82,4038).
att(197,3791).
att(2255,2386).
att(3561,7342).
att(2088,2485).
att(1887,5453).
att(2671,3673).
att(525,7097).
att(99,4281).
att(5256,888).
att(1626,6941).
att(3962,1678).
att(5571,4819).
att(729,5824).
att(37,6084).
att(85,5411).
att(3921,4133).
att(85,6913).
att(2845,4466).
att(6382,867).
att(6595,5949).
att(3084,95).
att(373,4215).
att(7114,641).
att(599,7092).
att(2527,3903).
att(1774,1251).
att(3451,3645).
att(671,45).
att(7062,2473).
att(4052,2626).
att(6695,1274).
att(5547,7042).
att(4858,4242).
att(6192,1521).
att(6133,409).
att(3716,4658).
att(5811,6098).
att(6401,1298).
att(4682,1097).
att(5409,6802).
att(5187,6000).
att(16,6071).
att(6644,1452).
att(3583,732).
att(3584,6715).
att(1661,5814).
att(708,283).
att(2900,2991).
att(1474,2903).
att(5258,138).
att(6869,923).
att(6093,6983).
att(298,1397).
att(3843,5373).
att(2998,2731).
att(128,4826).
att(1042,7028).
att(4908,3348).
att(2028,5363).
att(1892,2841).
att(5198,3964).
att(3047,3068).
att(1456,3914).
att(6311,2683).
att(5899,6146).
att(2518,4865).
att(4544,4966).
att(1734,2974).
att(6242,19).
att(1311,913).
att(3525,5101).
att(4600,175).
att(1755,2373).
att(3705,4204).
att(3938,6984).
att(2707,5420).
att(5222,4221).
att(1643,5086).
att(7307,3229).
att(4413,3117).
att(6858,3405).
att(7292,1897).
att(3767,4569).
att(5737,6535).
att(29,1900).
att(2643,1531).
att(7155,4990).
att(32,66).
att(3010,127).
att(2051,1528).
att(7235,255).
att(6846,4362).
att(6327,4914).
att(829,4788).
att(1165,3076).
att(1479,2249).
att(2332,6281).
att(1648,6276).
att(5869,3256).
att(5202,1791).
att(3216,5848).
att(3012,2605).
att(2275,569).
att(4903,1122).
att(1621,5185).
att(3769,1814).
att(101,2800).
att(318,6315).
att(606,5813).
att(909,6106).
att(6638,5120).
att(4316,3302).
att(2281,4773).
att(6457,3119).
att(5850,4765).
att(4313,7013).
att(7110,7059).
att(7203,340).
att(6821,5037).
att(3165,5380).
att(360,1451).
att(4474,2798).
att(2871,1900).
att(2377,6365).
att(5864,4813).
att(3339,4617).
att(4391,6241).
att(3154,6278).
att(6825,3967).
att(6835,1735).
att(4105,380).
att(1021,713).
att(6844,5470).
att(5369,3383).
att(2240,3419).
att(3952,4147).
att(6914,2332).
att(3119,4212).
att(2687,5694).
att(1347,2736).
att(191,715).
att(697,1001).
att(4436,433).
att(3258,6900).
att(4362,6846).
att(6116,4364).
att(6128,4441).
att(2094,5683).
att(4067,4868).
att(433,4436).
att(2014,987).
att(2960,3870).
att(169,6373).
att(1005,1100).
att(4330,3944).
att(5807,1530).
att(515,1949).
att(3354,6279).
att(4160,6969).
att(4452,2439).
att(5196,390).
att(1968,2057).
att(5966,7278).
att(767,5014).
att(154,5943).
att(4494,778).
att(2985,1286).
att(508,4576).
att(1032,337).
att(6367,776).
att(4242,6706).
att(3115,5077).
att(674,3536).
att(1840,4309).
att(698,6377).
att(1548,2929).
att(3440,5246).
att(3418,2462).
att(6706,2451).
att(4374,484).
att(3455,6340).
att(655,2834).
att(6757,1823).
att(5682,11).
att(1944,6453).
att(1926,6067).
att(1934,5168).
att(6238,607).
att(5912,2283).
att(4232,2051).
att(2935,5885).
att(2872,540).
att(3050,5756).
att(5786,3609).
att(5714,721).
att(3868,3225).
att(1623,1826).
att(4254,6444).
att(3586,6132).
att(350,3691).
att(6095,947).
att(6128,2107).
att(4617,6951).
att(1716,6596).
att(5673,1318).
att(925,2494).
att(1957,7056).
att(7284,3037).
att(3981,5194).
att(6154,5078).
att(6428,4989).
att(2435,1255).
att(527,1099).
att(7100,5745).
att(7301,5456).
att(56,4814).
att(5139,5923).
att(6340,3672).
att(230,5851).
att(3018,251).
att(3959,3639).
att(2491,7146).
att(481,4601).
att(4282,6230).
att(1771,778).
att(633,815).
att(6076,2429).
att(4252,7138).
att(598,4236).
att(337,3346).
att(5037,1873).
att(3775,4317).
att(14,2671).
att(1136,1654).
att(3017,4359).
att(3945,7159).
att(5502,2368).
att(5285,2381).
att(4716,950).
att(2288,6746).
att(4925,5614).
att(7072,416).
att(3110,2678).
att(3709,1517).
att(3088,2961).
att(4147,5047).
att(200,4319).
att(2478,779).
att(1910,604).
att(4173,6024).
att(2309,3941).
att(970,2565).
att(3204,2841).
att(2146,507).
att(4432,2694).
att(4809,7293).
att(6001,6338).
att(3185,3770).
att(508,3757).
att(5958,1322).
att(1040,3711).
att(7057,830).
att(2468,6887).
att(4718,2717).
att(3093,3222).
att(1458,4549).
att(6426,743).
att(5858,3598).
att(1478,5555).
att(1450,562).
att(633,2591).
att(4834,1961).
att(7010,454).
att(4440,3387).
att(4099,505).
att(2516,4757).
att(5876,1510).
att(4114,5736).
att(7099,4848).
att(3711,1040).
att(4424,4604).
att(1896,124).
att(6122,2574).
att(6334,7039).
att(5312,4593).
att(1671,7071).
att(5367,2363).
att(3018,1109).
att(5183,1853).
att(7270,1053).
att(5992,1840).
att(440,5488).
att(6977,2532).
att(7026,3715).
att(6899,2119).
att(6098,5811).
att(1947,3276).
att(2338,1135).
att(4434,3863).
att(2050,6771).
att(3058,3766).
att(3508,6604).
att(3341,3008).
att(2734,2485).
att(5639,1690).
att(2713,4071).
att(2630,5365).
att(3461,4248).
att(5960,3801).
att(1861,2220).
att(1108,4294).
att(6983,5089).
att(2964,26).
att(779,1290).
att(715,191).
att(2898,7108).
att(50,2074).
att(6759,7051).
att(7183,595).
att(4949,3447).
att(4757,2516).
att(764,3056).
att(1966,3592).
att(4109,5641).
att(2459,6024).
att(5441,4648).
att(2691,6874).
att(2148,1225).
att(6088,1470).
att(6903,1928).
att(4228,2925).
att(2285,794).
att(6513,5375).
att(4402,200).
att(2447,5765).
att(1614,842).
att(5106,375).
att(3782,7274).
att(3721,1955).
att(211,971).
att(1224,6907).
att(3869,1686).
att(1113,2194).
att(1934,100).
att(4699,880).
att(2992,1503).
att(4465,6311).
att(894,6714).
att(2433,542).
att(5907,7249).
att(5887,3677).
att(6591,1627).
att(6651,6602).
att(1752,5135).
att(1497,2777).
att(5892,2746).
att(3990,757).
att(615,4801).
att(1071,6337).
att(6669,7317).
att(702,4543).
att(6778,6024).
att(1674,1104).
att(7339,4092).
att(1560,1394).
att(7152,3288).
att(1817,6533).
att(2169,3462).
att(1422,4492).
att(4416,854).
att(1187,703).
att(7004,4724).
att(2036,5288).
att(2566,2151).
att(1788,1928).
att(3843,1453).
att(3759,1484).
att(4643,5167).
att(6466,1997).
att(5572,6007).
att(3992,5663).
att(4426,2424).
att(1991,2543).
att(4801,1905).
att(4153,6863).
att(6982,3470).
att(273,1832).
att(903,1).
att(5480,2918).
att(2989,2066).
att(2841,1566).
att(2444,1754).
att(5331,5680).
att(271,6436).
att(4680,5954).
att(2629,530).
att(6202,2823).
att(4054,6232).
att(4167,6258).
att(4589,348).
att(3001,1666).
att(2355,4816).
att(1445,4382).
att(4891,4705).
att(2249,1479).
att(2401,6310).
att(580,7120).
att(6427,1178).
att(2057,577).
att(6731,6440).
att(941,6643).
att(975,3921).
att(4017,1977).
att(3841,3230).
att(2819,29).
att(5246,5628).
att(5603,3013).
att(2021,5263).
att(5323,497).
att(5410,2619).
att(3804,2069).
att(2053,4350).
att(2634,6619).
att(1101,647).
att(3246,5637).
att(6886,2595).
att(5827,7166).
att(7158,665).
att(229,6941).
att(5298,1676).
att(6033,6909).
att(1127,6064).
att(4646,2217).
att(4167,2805).
att(7025,5646).
att(3241,4669).
att(5095,3799).
att(3336,6419).
att(6325,2623).
att(3236,642).
att(3301,4081).
att(782,3448).
att(7218,1925).
att(3452,1075).
att(7111,1410).
att(6899,2335).
att(6749,1378).
att(5756,6874).
att(4742,491).
att(1151,1010).
att(4037,4828).
att(3674,1619).
att(2200,6359).
att(5851,3783).
att(6915,257).
att(547,4033).
att(4450,2486).
att(3094,2000).
att(409,6133).
att(5309,2558).
att(4994,3685).
att(3675,5108).
att(2675,6542).
att(1457,91).
att(7015,538).
att(1484,3759).
att(5365,1280).
att(59,324).
att(6477,3969).
att(3482,693).
att(489,2536).
att(3098,695).
att(6438,239).
att(4161,4359).
att(2293,1184).
att(1927,382).
att(1189,7157).
att(3384,5127).
att(1081,6491).
att(7169,5236).
att(937,4968).
att(1831,3760).
att(875,5795).
att(5298,3615).
att(4510,1706).
att(5016,4394).
att(3840,7296).
att(3951,1277).
att(3506,2376).
att(2939,1572).
att(297,548).
att(2851,2667).
att(3829,2048).
att(6265,6124).
att(6875,781).
att(5708,6114).
att(2329,94).
att(68,3011).
att(5906,840).
att(5845,568).
att(1664,6177).
att(6773,3813).
att(7208,6532).
att(1335,3993).
att(3396,4083).
att(6102,1473).
att(3824,4898).
att(1637,1454).
att(4350,3200).
att(810,4847).
att(7167,1993).
att(6390,1231).
att(4055,3353).
att(746,3727).
att(3049,2474).
att(2159,3293).
att(199,1612).
att(4176,1747).
att(6059,4859).
att(4497,4996).
att(1304,6499).
att(2512,3007).
att(5582,5268).
att(7077,509).
att(6330,3288).
att(3713,61).
att(1632,358).
att(770,5284).
att(2230,1061).
att(5953,3478).
att(3754,3242).
att(2121,3533).
att(3567,2890).
att(1128,6229).
att(2898,349).
att(3061,3110).
att(552,6750).
att(6200,4987).
att(5332,4624).
att(5952,5626).
att(5092,3788).
att(1402,5009).
att(304,5585).
att(7009,1936).
att(1394,6879).
att(2763,3602).
att(825,5562).
att(2893,2502).
att(640,5073).
att(6079,6804).
att(2334,7105).
att(825,4111).
att(5325,5305).
att(3838,3417).
att(6657,4088).
att(5562,825).
att(1800,6770).
att(2202,1359).
att(2101,4463).
att(1396,5542).
att(5170,2197).
att(97,3567).
att(5798,2581).
att(4350,2053).
att(69,4344).
att(2583,6618).
att(6530,3327).
att(5094,6734).
att(1589,6841).
att(2774,4261).
att(4718,3231).
att(6008,1132).
att(3777,6362).
att(6426,5056).
att(7108,7179).
att(639,7159).
att(864,3359).
att(2836,4123).
att(6999,4804).
att(165,4497).
att(6285,3870).
att(5056,2243).
att(6770,1800).
att(3538,2580).
att(911,3946).
att(6074,1009).
att(2730,101).
att(5649,62).
att(5051,5270).
att(5544,2369).
att(6100,576).
att(3413,4683).
att(6512,1703).
att(1296,2799).
att(5091,2115).
att(2029,3726).
att(2191,513).
att(6771,2050).
att(3789,823).
att(7082,3425).
att(6253,6898).
att(3364,109).
att(2448,3469).
att(2662,6052).
att(5259,1986).
att(2071,6536).
att(5244,5263).
att(2746,1705).
att(3966,5731).
att(1200,7313).
att(4999,3097).
att(4286,4865).
att(5220,5862).
att(2167,518).
att(6803,2761).
att(2119,2361).
att(1179,2741).
att(632,1061).
att(5342,2003).
att(792,1872).
att(3736,3538).
att(5474,4414).
att(3007,2512).
att(2604,1492).
att(7081,2707).
att(99,5157).
att(2378,3286).
att(5544,6296).
att(6100,2363).
att(4811,4209).
att(7240,1519).
att(972,1683).
att(5460,1825).
att(6074,4328).
att(219,6473).
att(6794,1541).
att(4030,6769).
att(4144,1590).
att(6941,229).
att(4198,4337).
att(861,6836).
att(884,3994).
att(3517,1028).
att(34,6430).
att(6169,2884).
att(1092,4590).
att(6918,4867).
att(2254,4674).
att(349,123).
att(6491,1081).
att(2886,4449).
att(1543,5540).
att(5179,6985).
att(643,4383).
att(5047,5745).
att(4555,6897).
att(5819,1709).
att(6221,7161).
att(314,4271).
att(4731,2111).
att(935,5247).
att(5235,4057).
att(999,5552).
att(4172,2807).
att(2718,1815).
att(1627,5506).
att(4039,1483).
att(5133,1788).
att(1203,102).
att(3229,5614).
att(364,1011).
att(4556,3312).
att(2250,5223).
att(1577,1022).
att(6954,6839).
att(3920,1868).
att(4032,187).
att(4349,163).
att(995,1992).
att(5488,7070).
att(2207,4335).
att(429,3077).
att(828,2119).
att(5375,6229).
att(6334,1391).
att(6246,6317).
att(1473,5159).
att(5568,5931).
att(5185,4244).
att(3757,4785).
att(6643,446).
att(4713,3221).
att(2239,581).
att(990,6264).
att(2920,4784).
att(5852,566).
att(6970,138).
att(2593,151).
att(1597,4367).
att(4628,1283).
att(4637,2218).
att(316,6495).
att(794,2285).
att(770,5915).
att(5879,3317).
att(4343,5036).
att(330,5423).
att(4453,5598).
att(5977,882).
att(4813,5953).
att(4659,5559).
att(3267,6796).
att(6550,1182).
att(1954,3847).
att(1977,4145).
att(7283,7106).
att(3294,7174).
att(126,4498).
att(6335,4660).
att(2186,6695).
att(626,6178).
att(5510,3073).
att(393,6722).
att(1643,4986).
att(5458,6784).
att(4878,5334).
att(7017,4322).
att(4400,6090).
att(2489,5799).
att(3151,2071).
att(7030,245).
att(712,4504).
att(7210,2934).
att(6210,3135).
att(5628,2834).
att(3594,1637).
att(2083,4770).
att(4287,3784).
att(1138,2613).
att(4009,1358).
att(2407,6498).
att(6228,4494).
att(3871,6994).
att(2190,4522).
att(3938,4975).
att(1692,1514).
att(2720,3690).
att(4835,4196).
att(5763,1031).
att(4904,960).
att(1850,303).
att(7297,5339).
att(6211,479).
att(4391,575).
att(3430,4253).
att(441,2106).
att(4186,6736).
att(2480,1945).
att(644,1352).
att(5177,4373).
att(6356,3591).
att(6765,1115).
att(2637,5530).
att(1097,1919).
att(5669,5382).
att(3420,3009).
att(4020,473).
att(3625,5021).
att(5128,1695).
att(72,1771).
att(2241,3441).
att(7198,5580).
att(4859,6112).
att(5282,4805).
att(6410,471).
att(6801,4622).
att(7299,6400).
att(2562,2528).
att(2811,783).
att(6501,5093).
att(5065,5342).
att(7264,2931).
att(4332,2896).
att(4076,1875).
att(1107,4308).
att(5933,18).
att(6885,2922).
att(796,6763).
att(3640,2542).
att(1753,713).
att(7327,1407).
att(2228,7313).
att(3969,6477).
att(3227,2076).
att(6208,7005).
att(5316,1475).
att(38,1471).
att(7122,1666).
att(6762,3592).
att(7007,4396).
att(2762,1749).
att(3756,3217).
att(5487,6123).
att(2011,3739).
att(2592,6987).
att(1102,3126).
att(5172,3436).
att(4655,5802).
att(792,5079).
att(6042,3574).
att(2426,6992).
att(1671,2822).
att(6528,17).
att(4687,1108).
att(1209,6898).
att(4407,4662).
att(6097,5744).
att(1417,6028).
att(6877,1186).
att(475,2095).
att(4328,297).
att(6826,6594).
att(4744,6883).
att(3530,625).
att(3756,2466).
att(509,7077).
att(4023,5418).
att(2497,3579).
att(4389,5128).
att(3496,5605).
att(864,6564).
att(6593,1606).
att(1911,6807).
att(1889,1277).
att(5164,34).
att(2592,5959).
att(4088,6068).
att(1334,2184).
att(3642,5135).
att(7275,1027).
att(3588,4058).
att(1137,1159).
att(2694,4432).
att(1513,1023).
att(6405,6484).
att(6384,4290).
att(6281,2332).
att(957,6282).
att(2678,3110).
att(5922,1864).
att(664,899).
att(4643,979).
att(2205,5755).
att(6391,4553).
att(473,5132).
att(5808,1851).
att(6898,4937).
att(4327,3560).
att(5504,3658).
att(2027,6228).
att(2523,5803).
att(3944,4330).
att(3911,5799).
att(1646,237).
att(4208,2152).
att(3462,816).
att(1041,963).
att(1894,3615).
att(3176,3809).
att(4846,1520).
att(2564,4163).
att(6123,3510).
att(6690,4012).
att(7053,2639).
att(622,6205).
att(1534,4595).
att(3319,4619).
att(726,7265).
att(2263,1654).
att(5470,6844).
att(1722,149).
att(4504,712).
att(997,7329).
att(5493,6522).
att(1874,6518).
att(5529,4288).
att(5283,6219).
att(1879,1293).
att(6985,3948).
att(883,505).
att(6208,4256).
att(7342,3561).
att(3206,6974).
att(5602,1558).
att(5374,4909).
att(2258,5743).
att(7013,327).
att(1010,2365).
att(6605,3215).
att(6102,1210).
att(5339,7297).
att(4008,6332).
att(6205,622).
att(6857,1992).
att(413,4826).
att(2360,5054).
att(1631,5823).
att(5944,7336).
att(1076,6331).
att(5982,4629).
att(436,4802).
att(4219,232).
att(6338,5823).
att(1865,3575).
att(1315,4977).
att(5294,5026).
att(6171,868).
att(4079,1580).
att(3293,1602).
att(7055,404).
att(4470,365).
att(4828,5947).
att(1668,7073).
att(1337,4673).
att(7219,4965).
att(4284,1166).
att(1351,3325).
att(4850,6728).
att(6057,1166).
att(772,2650).
att(6491,6243).
att(1260,5426).
att(4799,5591).
att(6127,3138).
att(4006,6235).
att(3135,2697).
att(4625,6961).
att(418,4702).
att(426,7154).
att(645,2834).
att(4801,1746).
att(2015,2455).
att(1180,2007).
att(3220,6926).
att(4155,4573).
att(6266,4461).
att(1265,4368).
att(4842,4231).
att(6183,4048).
att(6102,6372).
att(6117,6329).
att(2184,1334).
att(444,988).
att(2105,5812).
att(7040,247).
att(5362,399).
att(6182,3827).
att(514,6114).
att(1718,5070).
att(2816,2506).
att(5865,4166).
att(1268,5480).
att(2427,6591).
att(6020,4074).
att(4828,4037).
att(5324,1495).
att(3575,3203).
att(5281,1234).
att(3776,90).
att(1630,1891).
att(2555,4775).
att(3569,2009).
att(4379,2651).
att(2451,6706).
att(1857,6908).
att(6182,6333).
att(816,4246).
att(1503,3167).
att(6106,5148).
att(5292,3188).
att(5240,2531).
att(6277,4697).
att(3371,5634).
att(6012,1275).
att(5495,3796).
att(6303,1190).
att(5003,2522).
att(3064,4521).
att(2167,4954).
att(2249,3676).
att(1011,2782).
att(6993,1080).
att(403,3691).
att(4111,3204).
att(4026,5139).
att(6659,6314).
att(2040,2530).
att(3299,4350).
att(981,6926).
att(5224,4972).
att(2041,5866).
att(3603,670).
att(4834,3230).
att(2054,2387).
att(5908,3846).
att(1466,2649).
att(3974,2158).
att(3821,5455).
att(2400,6421).
att(5566,359).
att(1882,2014).
att(236,4563).
att(4239,7160).
att(311,2542).
att(3019,1045).
att(6500,3595).
att(1306,5170).
att(1078,5114).
att(2307,4723).
att(861,216).
att(4984,2442).
att(1028,1676).
att(5066,2535).
att(2381,2914).
att(2671,14).
att(5396,5808).
att(371,5611).
att(2538,3915).
att(1437,3050).
att(3362,1289).
att(6081,145).
att(5485,2251).
att(126,2575).
att(6431,3873).
att(5206,5772).
att(998,3833).
att(5204,2081).
att(2943,1355).
att(1893,6935).
att(6774,4569).
att(5373,3843).
att(4506,3179).
att(7180,4714).
att(5175,2637).
att(2303,410).
att(1988,4338).
att(2109,4000).
att(2391,5268).
att(4903,4722).
att(331,1106).
att(3755,619).
att(5716,2793).
att(3587,2630).
att(1622,4425).
att(6885,3519).
att(4441,6128).
att(6373,294).
att(7102,283).
att(5856,5655).
att(989,1781).
att(5009,6962).
att(1857,5994).
att(1559,6789).
att(4254,208).
att(6907,1224).
att(4355,1639).
att(2956,5438).
att(6724,4178).
att(2988,1839).
att(7076,6151).
att(4932,2864).
att(6930,209).
att(4314,2238).
att(3519,6885).
att(195,6822).
att(5597,332).
att(3230,4834).
att(676,4808).
att(954,1442).
att(5993,1960).
att(74,1932).
att(4923,627).
att(4835,5881).
att(1829,5611).
att(2373,2171).
att(4322,4975).
att(826,3856).
att(758,6881).
att(5401,2854).
att(1883,6016).
att(2485,2088).
att(18,4902).
att(4047,7343).
att(5014,767).
att(734,4691).
att(6299,5485).
att(7327,5453).
att(4596,5944).
att(6537,2618).
att(1779,3141).
att(4404,3880).
att(566,5086).
att(5376,4203).
att(5941,5597).
att(4585,2221).
att(7311,434).
att(7254,4678).
att(5143,3159).
att(6894,1073).
att(1758,1009).
att(627,4923).
att(6368,4922).
att(2369,5514).
att(2142,723).
att(6364,1613).
att(1791,4929).
att(453,4072).
att(4349,6198).
att(4563,2106).
att(3035,4358).
att(2260,5589).
att(938,7276).
att(6279,3354).
att(2754,172).
att(5007,2281).
att(641,1506).
att(1575,6137).
att(382,1927).
att(5825,7325).
att(834,801).
att(2911,6342).
att(142,3471).
att(1371,1814).
att(4379,7170).
att(4877,3036).
att(2039,6559).
att(2683,2046).
att(1002,3590).
att(4107,5729).
att(6105,896).
att(872,1).
att(7170,7319).
att(1837,1518).
att(5832,1394).
att(3602,2763).
att(2693,2023).
att(6155,3860).
att(7282,2814).
att(4815,1181).
att(1308,7031).
att(413,2601).
att(986,2756).
att(4271,314).
att(2248,5578).
att(3395,829).
att(332,5597).
att(3835,3344).
att(6557,2393).
att(5684,920).
att(750,4350).
att(680,6945).
att(1632,7113).
att(5633,5776).
att(1376,2871).
att(2596,2546).
att(48,3400).
att(1839,1109).
att(7141,2127).
att(2199,4638).
att(3318,3063).
att(5375,700).
att(2103,4946).
att(2593,323).
att(6841,898).
att(6693,5556).
att(3382,1490).
att(6902,1360).
att(5829,2434).
att(2637,4702).
att(2569,2894).
att(2439,3259).
att(3741,2214).
att(5093,1162).
att(3330,3623).
att(6449,3718).
att(2362,5016).
att(3664,4253).
att(5065,2247).
att(1705,4300).
att(2925,1721).
att(1913,6822).
att(6388,3544).
att(3570,3394).
att(5657,7206).
att(1197,3509).
att(1395,2226).
att(4852,6923).
att(89,3075).
att(5661,1089).
att(3281,2771).
att(4182,155).
att(3347,7266).
att(4008,170).
att(6560,2843).
att(1922,2393).
att(2764,7335).
att(5468,5618).
att(1342,6615).
att(1806,3366).
att(1321,5180).
att(2259,2628).
att(3021,2853).
att(2781,3721).
att(6737,4960).
att(4193,4162).
att(908,1685).
att(901,2306).
att(4557,4919).
att(5332,2665).
att(1306,7161).
att(2168,5797).
att(5422,2539).
att(5031,2748).
att(6641,2449).
att(2532,6977).
att(2384,2052).
att(6906,267).
att(2598,1273).
att(6266,7298).
att(6565,485).
att(1408,4875).
att(1808,6550).
att(5694,2687).
att(2058,1403).
att(4543,1356).
att(2781,3816).
att(4824,917).
att(1783,5275).
att(2578,1719).
att(5668,6027).
att(5658,1787).
att(2439,4452).
att(4344,680).
att(4276,1789).
att(1620,1943).
att(1919,964).
att(4467,43).
att(445,3921).
att(1557,29).
att(4307,2630).
att(3324,6642).
att(7093,7062).
att(7276,4381).
att(4221,2437).
att(3722,7164).
att(2430,7140).
att(6310,6024).
att(902,1034).
att(7149,324).
att(1134,6913).
att(6941,1626).
att(4465,6572).
att(4872,4655).
att(4500,839).
att(2675,988).
att(59,6353).
att(70,6162).
att(1134,6726).
att(7172,2153).
att(495,4837).
att(6871,6829).
att(7207,3486).
att(3288,7152).
att(4338,1988).
att(690,3281).
att(5865,2748).
att(1178,1207).
att(4154,5450).
att(6451,1758).
att(466,1046).
att(5348,6711).
att(1806,5588).
att(3155,2225).
att(2436,7265).
att(2517,350).
att(1707,2941).
att(1939,451).
att(1350,6703).
att(1867,6350).
att(3381,591).
att(1570,2287).
att(3933,3801).
att(1193,167).
att(50,4246).
att(6734,5501).
att(62,5649).
att(6211,1237).
att(603,1195).
att(6598,1259).
att(7172,4994).
att(2166,6187).
att(4095,5030).
att(341,1033).
att(6968,1386).
att(6376,4649).
att(2179,1477).
att(658,3975).
att(1731,6096).
att(5450,4154).
att(1566,4111).
att(6454,4174).
att(1794,1633).
att(1238,5041).
att(3205,3741).
att(3284,5159).
att(1780,2362).
att(6712,4734).
att(4584,396).
att(5769,6786).
att(7049,6444).
att(3470,6982).
att(2796,4331).
att(7090,1802).
att(5372,783).
att(6143,3613).
att(6514,4649).
att(4893,464).
att(1903,2460).
att(5587,4842).
att(5467,2437).
att(3340,6132).
att(3916,1214).
att(6588,6220).
att(6129,2554).
att(2028,3599).
att(3934,4575).
att(4190,106).
att(3052,6543).
att(1759,3883).
att(2876,3656).
att(2762,1974).
att(2278,680).
att(4720,467).
att(5484,4949).
att(1276,3184).
att(3599,2028).
att(5110,2731).
att(7044,6190).
att(6009,2521).
att(2769,4845).
att(607,6238).
att(3254,5973).
att(3404,4010).
att(5159,1780).
att(7008,5197).
att(5362,5244).
att(2537,7070).
att(2794,4451).
att(7140,2430).
att(439,1540).
att(645,6750).
att(2258,1917).
att(6606,4727).
att(780,5593).
att(2349,5800).
att(7015,1077).
att(4127,7047).
att(1875,4076).
att(3339,1019).
att(6963,1174).
att(5496,2406).
att(4111,6424).
att(4958,2073).
att(5874,1016).
att(6448,891).
att(6344,4234).
att(3506,885).
att(4217,2531).
att(5550,6973).
att(4242,4858).
att(5392,1046).
att(1979,2851).
att(256,3610).
att(39,4889).
att(7343,6905).
att(2790,3360).
att(2096,265).
att(619,6425).
att(6828,6984).
att(3024,6186).
att(2080,988).
att(2265,3959).
att(3727,4962).
att(3177,3233).
att(1667,2293).
att(544,250).
att(608,6396).
att(6338,6001).
att(6930,7273).
att(6787,2074).
att(6056,6920).
att(792,947).
att(4888,5598).
att(6439,1410).
att(6364,6498).
att(4915,4987).
att(5563,744).
att(4372,7233).
att(826,4012).
att(6861,3069).
att(7283,3487).
att(4209,3654).
att(4258,1266).
att(3076,1165).
att(2533,5505).
att(1999,5753).
att(5772,2582).
att(2660,4921).
att(3660,5557).
att(6261,5905).
att(5756,3825).
att(5503,3425).
att(4514,8).
att(2418,1239).
att(247,1900).
att(4177,1594).
att(785,4918).
att(3266,4514).
att(5530,5118).
att(2956,2209).
att(1343,5114).
att(2897,3206).
att(3582,2817).
att(4998,6492).
att(6346,1585).
att(6989,5660).
att(1158,7336).
att(6069,366).
att(4387,927).
att(3833,3078).
att(5286,3610).
att(6003,5433).
att(4676,1909).
att(5044,1876).
att(2728,4518).
att(6823,5048).
att(7213,3148).
att(1245,4455).
att(2856,3888).
att(1901,6931).
att(6476,1855).
att(2552,5451).
att(7313,1200).
att(499,1571).
att(6128,5860).
att(4887,918).
att(5784,5505).
att(1324,2787).
att(4587,4097).
att(1214,3916).
att(5150,748).
att(4008,4992).
att(6755,6207).
att(3146,2959).
att(1990,5071).
att(2232,4651).
att(479,4108).
att(5830,212).
att(1272,2997).
att(6234,2147).
att(411,5601).
att(4463,2101).
att(3562,2358).
att(1406,403).
att(1298,641).
att(743,6647).
att(1396,5919).
att(3647,5832).
att(5592,6106).
att(713,1753).
att(5789,2879).
att(980,961).
att(6282,4913).
att(774,4905).
att(5686,4488).
att(6222,5042).
att(4290,6384).
att(6070,3370).
att(4020,4188).
att(6827,991).
att(6895,2088).
att(3313,7091).
att(6765,994).
att(2465,469).
att(5548,5380).
att(2001,3271).
att(6268,2662).
att(7044,712).
att(1010,1151).
att(792,1709).
att(5520,1890).
att(1475,741).
att(3234,5111).
att(4310,5748).
att(3145,6278).
att(6113,6743).
att(2997,1272).
att(4293,3930).
att(741,188).
att(2347,3004).
att(1312,488).
att(5058,2140).
att(6154,460).
att(266,5861).
att(7243,6777).
att(2317,3330).
att(3516,3950).
att(4158,5390).
att(1819,2280).
att(6856,821).
att(6540,1997).
att(259,5965).
att(1653,3765).
att(5831,5121).
att(929,616).
att(2178,6122).
att(4855,110).
att(5001,4014).
att(3069,6861).
att(3586,2652).
att(6294,715).
att(1088,6548).
att(1858,1003).
att(2573,242).
att(934,3398).
att(3380,4070).
att(3860,6559).
att(3450,1103).
att(1522,3832).
att(2496,2329).
att(4616,5462).
att(3002,4984).
att(1726,4135).
att(5550,4298).
att(4952,5644).
att(2916,4967).
att(2153,7172).
att(2839,829).
att(2829,653).
att(6310,2401).
att(4766,4272).
att(3275,7085).
att(2895,3104).
att(4009,4904).
att(5547,2884).
att(5150,7048).
att(2393,3282).
att(3213,4795).
att(5253,6690).
att(5503,5526).
att(6541,1111).
att(212,593).
att(4848,7099).
att(5125,2731).
att(6449,1517).
att(5624,2821).
att(4943,1382).
att(4288,5529).
att(3791,197).
att(4886,2065).
att(5685,3179).
att(4801,615).
att(708,4515).
att(3435,7153).
att(7042,5547).
att(5995,2685).
att(2691,1898).
att(2539,5248).
att(300,4427).
att(7018,5130).
att(6236,196).
att(4386,6665).
att(3965,6304).
att(4506,261).
att(5905,6261).
att(2306,3000).
att(4405,5212).
att(5416,4497).
att(1592,4901).
att(3999,6025).
att(2902,1677).
att(5171,5524).
att(246,6581).
att(5336,3661).
att(4810,2485).
att(2975,6027).
att(4410,194).
att(5422,5386).
att(7087,5242).
att(5160,1605).
att(25,2884).
att(5397,2062).
att(5536,2441).
att(1183,1885).
att(4940,4637).
att(5575,1803).
att(3785,803).
att(1792,6105).
att(361,4099).
att(980,1127).
att(3214,6598).
att(3052,1082).
att(4960,6737).
att(6005,4411).
att(2330,4210).
att(2894,1178).
att(1815,7212).
att(3214,6200).
att(5054,714).
att(6117,6373).
att(6028,1417).
att(1870,1763).
att(774,886).
att(735,1769).
att(134,2087).
att(3823,3107).
att(1745,4880).
att(986,5642).
att(6574,6494).
att(2820,2371).
att(7309,2959).
att(3414,5287).
att(4746,2477).
att(5938,4967).
att(6959,6800).
att(5860,6128).
att(502,3021).
att(6683,3280).
att(2930,5345).
att(2053,5188).
att(6247,2287).
att(3410,2931).
att(6250,4543).
att(5059,6362).
att(2879,2917).
att(332,3892).
att(2637,1107).
att(1474,6220).
att(4055,3455).
att(4559,3701).
att(4831,4871).
att(260,2463).
att(337,1032).
att(567,1653).
att(4779,6508).
att(2127,7141).
att(5117,6018).
att(3874,1720).
att(6187,7235).
att(1946,6603).
att(1063,4065).
att(6679,1961).
att(6872,389).
att(4274,2033).
att(5702,1700).
att(6066,3494).
att(3577,3955).
att(6653,68).
att(2187,5521).
att(609,2064).
att(5334,4878).
att(1899,5586).
att(4497,5416).
att(5031,64).
att(153,510).
att(2758,1567).
att(6128,7068).
att(5477,4325).
att(7280,5504).
att(2414,1116).
att(6092,3092).
att(6769,4030).
att(3337,4876).
att(630,759).
att(3484,4563).
att(1542,3980).
att(2801,3799).
att(296,5804).
att(5330,3184).
att(965,2367).
att(3899,1636).
att(2512,7078).
att(321,443).
att(6512,6280).
att(1955,2376).
att(5482,2891).
att(4484,1821).
att(5047,4147).
att(6304,4684).
att(5092,7316).
att(6637,7319).
att(1283,4000).
att(5853,4658).
att(5808,5396).
att(530,6080).
att(979,5314).
att(7209,3180).
att(4581,6830).
att(4640,5119).
att(4373,686).
att(2877,2809).
att(2130,5945).
att(6300,4114).
att(5089,6983).
att(1273,4879).
att(2219,612).
att(906,709).
att(4499,1820).
att(5603,7097).
att(3546,6594).
att(4300,6209).
att(6193,95).
att(6978,3597).
att(1918,6310).
att(1416,1307).
att(4714,2154).
att(569,3722).
att(2050,776).
att(3496,1598).
att(4485,3867).
att(4356,654).
att(3572,42).
att(4179,3476).
att(3412,5373).
att(2884,6830).
att(3922,1216).
att(2137,5977).
att(2726,5032).
att(2511,1725).
att(3958,3464).
att(2015,1020).
att(6177,1664).
att(4159,3763).
att(3201,2489).
att(1807,2535).
att(2684,5421).
att(3457,492).
att(6298,5880).
att(4407,5438).
att(6274,4575).
att(1439,7043).
att(3746,4460).
att(2776,6576).
att(5579,3028).
att(4565,2779).
att(3447,7010).
att(6373,6117).
att(3857,2287).
att(138,5258).
att(2463,260).
att(4554,876).
att(5760,7164).
att(4494,6228).
att(1398,6603).
att(1305,3471).
att(3451,6300).
att(5045,7134).
att(971,211).
att(3863,4434).
att(3321,4229).
att(3616,6097).
att(2152,723).
att(2398,1183).
att(5437,6101).
att(6814,5395).
att(4777,2404).
att(6484,197).
att(4409,247).
att(2957,3182).
att(5177,3984).
att(3769,207).
att(2213,6618).
att(1107,4702).
att(1540,6096).
att(4602,5695).
att(3804,6452).
att(6544,1761).
att(6380,5596).
att(3621,4227).
att(3546,2895).
att(1795,31).
att(4687,3773).
att(6803,2749).
att(1092,6447).
att(3787,4982).
att(4133,336).
att(2081,2917).
att(1666,1825).
att(2874,3570).
att(74,3468).
att(5421,5563).
att(143,4630).
att(6817,1180).
att(5201,4525).
att(807,5366).
att(5564,7268).
att(4740,6813).
att(940,742).
att(2838,6419).
att(933,691).
att(479,4228).
att(1978,3351).
att(6829,6871).
att(6231,3238).
att(6949,3040).
att(4388,6764).
att(3325,1351).
att(6004,5419).
att(2298,6190).
att(192,6600).
att(1725,6016).
att(2587,5858).
att(7216,371).
att(2739,1449).
att(5749,178).
att(3544,6712).
att(3312,4556).
att(12,5349).
att(830,5853).
att(1622,6622).
att(7084,4157).
att(1271,6359).
att(6289,840).
att(5593,780).
att(5745,5868).
att(1322,5958).
att(446,4876).
att(3044,6463).
att(7186,151).
att(5237,3720).
att(2617,5457).
att(4654,1644).
att(3201,4216).
att(611,5804).
att(3134,4612).
att(4335,1535).
att(97,1326).
att(4275,5935).
att(723,18).
att(5716,5546).
att(658,4663).
att(3427,3493).
att(4568,1050).
att(6907,2563).
att(1938,358).
att(4061,3259).
att(6322,1639).
att(6736,4103).
att(486,3402).
att(5985,4735).
att(5823,5114).
att(4325,1722).
att(23,6257).
att(4135,1726).
att(5370,2067).
att(2092,6581).
att(1587,4027).
att(3100,4625).
att(1225,6064).
att(410,2303).
att(1631,3380).
att(6797,1932).
att(6140,550).
att(4656,704).
att(6804,6079).
att(4145,3667).
att(1279,1038).
att(6526,1217).
att(3084,5632).
att(4594,4747).
att(4109,2953).
att(1799,6901).
att(5422,2673).
att(5910,5325).
att(5041,1238).
att(4817,4558).
att(6935,6431).
att(7060,529).
att(842,3334).
att(5753,1952).
att(5149,1762).
att(2295,5656).
att(3616,4196).
att(3469,2448).
att(3921,4140).
att(3260,6206).
att(1077,7015).
att(4816,2220).
att(113,4678).
att(1040,1404).
att(3259,4061).
att(200,5288).
att(6547,2397).
att(3830,6348).
att(3538,3736).
att(1007,3742).
att(3670,2202).
att(6393,7255).
att(2594,3065).
att(1143,108).
att(6621,2656).
att(4623,2).
att(6206,3260).
att(4269,4430).
att(5670,1628).
att(4669,707).
att(420,769).
att(497,6055).
att(6307,5109).
att(4927,4632).
att(3322,3612).
att(6550,1808).
att(5489,546).
att(7344,3474).
att(1987,1775).
att(5598,5707).
att(296,1229).
att(1707,5061).
att(1533,4684).
att(2813,1381).
att(3255,4189).
att(1821,850).
att(4558,4817).
att(6327,6168).
att(5563,1068).
att(5199,2277).
att(6862,5087).
att(3654,423).
att(5712,2484).
att(6372,7037).
att(6723,5927).
att(1866,3300).
att(2809,2877).
att(2283,6631).
att(7206,5657).
att(4070,4233).
att(5956,2572).
att(3933,4138).
att(594,877).
att(5742,3331).
att(676,4070).
att(1169,2198).
att(6952,1436).
att(1439,4040).
att(549,6928).
att(3493,6798).
att(425,4501).
att(5618,2472).
att(6741,3899).
att(2074,6787).
att(787,656).
att(1398,4846).
att(2426,746).
att(4781,3564).
att(1079,7299).
att(4347,1391).
att(7303,5341).
att(6911,1352).
att(2286,6234).
att(5155,2297).
att(628,2385).
att(1623,6843).
att(4869,3489).
att(138,6970).
att(2826,4867).
att(526,4046).
att(2349,6483).
att(1352,6911).
att(4453,5174).
att(2012,7188).
att(3597,6978).
att(7077,1817).
att(3668,5118).
att(6853,3184).
att(2223,5489).
att(3468,4483).
att(4423,3460).
att(5068,535).
att(6839,4365).
att(5333,2373).
att(1085,5933).
att(1922,6557).
att(3523,6161).
att(4714,7180).
att(2529,572).
att(4874,3689).
att(6778,3285).
att(5296,5471).
att(2011,6383).
att(1861,3858).
att(566,5626).
att(2228,3712).
att(5509,1026).
att(339,174).
att(3108,444).
att(1360,6902).
att(3006,4137).
att(7219,4634).
att(1111,6541).
att(5799,2489).
att(5138,5938).
att(2986,5159).
att(6102,69).
att(2794,4032).
att(1171,1905).
att(1965,1665).
att(5257,3372).
att(5974,3016).
att(5526,5503).
att(6259,1879).
att(1158,6276).
att(6879,5218).
att(2176,5357).
att(3406,537).
att(795,5443).
att(5722,2211).
att(3085,5758).
att(3094,574).
att(776,6367).
att(6921,1039).
att(3566,3777).
att(5588,2636).
att(3356,5399).
att(314,6745).
att(5387,5685).
att(4596,6822).
att(3159,5143).
att(1740,384).
att(5822,6849).
att(2069,5226).
att(1856,5351).
att(2930,1958).
att(5016,997).
att(6720,4977).
att(4977,493).
att(447,4733).
att(7230,1529).
att(2150,3669).
att(4597,4870).
att(6284,4747).
att(1719,3123).
att(4615,711).
att(6374,4363).
att(4249,556).
att(6841,1589).
att(2381,5285).
att(2204,6903).
att(4689,4125).
att(5247,935).
att(6716,6515).
att(2978,4).
att(5469,4365).
att(5658,442).
att(4287,6816).
att(1222,1640).
att(3178,1460).
att(4984,3002).
att(578,4756).
att(2040,7096).
att(3536,1148).
att(1941,3973).
att(6280,4980).
att(709,2430).
att(3400,48).
att(3812,512).
att(1885,5137).
att(5080,1777).
att(3314,7019).
att(3032,3048).
att(3598,5858).
att(3242,3754).
att(7342,4075).
att(1856,3040).
att(4071,3477).
att(1806,1751).
att(200,4402).
att(6928,549).
att(2670,815).
att(7184,5169).
att(3466,6839).
att(201,5815).
att(4281,99).
att(638,2305).
att(1313,1412).
att(6600,6737).
att(985,6478).
att(1159,7343).
att(4235,1599).
att(6612,1290).
att(3109,6672).
att(6189,5859).
att(5647,984).
att(3380,1631).
att(4983,5315).
att(2330,4642).
att(6802,472).
att(7329,6828).
att(3282,2393).
att(4206,746).
att(5862,1276).
att(3931,2869).
att(5971,2495).
att(47,2328).
att(2471,734).
att(208,1854).
att(2766,1695).
att(405,247).
att(5444,1145).
att(2700,5174).
att(4899,3313).
att(6340,3455).
att(1739,3748).
att(2208,6312).
att(1210,4565).
att(1075,3).
att(5456,592).
att(553,6456).
att(6185,2519).
att(230,2648).
att(4627,2047).
att(1142,2135).
att(3325,5374).
att(726,3465).
att(7149,1698).
att(4646,5677).
att(901,5268).
att(815,1806).
att(4642,2330).
att(7233,7201).
att(6349,750).
att(6530,3548).
att(1928,2249).
att(2346,4777).
att(4643,5319).
att(2396,5475).
att(5408,5491).
att(637,3175).
att(7251,5646).
att(5551,3642).
att(7228,1682).
att(4518,2728).
att(2571,2356).
att(6927,5175).
att(3040,1856).
att(312,4710).
att(2328,47).
att(3170,5566).
att(2632,5842).
att(1746,5476).
att(7139,3483).
att(1000,4527).
att(278,2344).
att(4091,1969).
att(3658,4131).
att(1790,4059).
att(3745,4613).
att(4651,1228).
att(3783,1303).
att(5741,206).
att(2158,3974).
att(5346,2848).
att(6727,5016).
att(3794,1601).
att(2150,7173).
att(1144,5230).
att(4414,5699).
att(3071,491).
att(922,5643).
att(6739,5896).
att(696,3417).
att(2758,6092).
att(1557,1900).
att(6561,998).
att(7103,7236).
att(179,1072).
att(3917,2784).
att(3860,2802).
att(141,397).
att(1340,2582).
att(6734,418).
att(5650,1938).
att(1461,896).
att(4116,2573).
att(6005,3190).
att(2677,5707).
att(6024,5262).
att(1137,2970).
att(2623,4866).
att(4319,6653).
att(2987,790).
att(5240,4599).
att(614,5725).
att(4574,587).
att(5395,6814).
att(3902,4638).
att(4615,167).
att(5358,5415).
att(7138,3262).
att(5788,6361).
att(1465,1675).
att(4520,669).
att(2790,4439).
att(4992,6681).
att(1586,6843).
att(4156,2081).
att(2986,1473).
att(1014,550).
att(1397,3581).
att(2770,1069).
att(6521,1433).
att(6744,7083).
att(5962,2765).
att(5594,843).
att(5877,2234).
att(3216,5198).
att(4015,5483).
att(6283,5366).
att(1820,4499).
att(4978,3112).
att(2076,1538).
att(108,1143).
att(2086,6770).
att(4181,4571).
att(3884,3948).
att(3239,6562).
att(4539,7286).
att(3005,6186).
att(5946,3307).
att(1003,1858).
att(4572,5785).
att(2260,615).
att(5335,3178).
att(1351,3276).
att(5377,3269).
att(1008,4613).
att(5042,3098).
att(6262,3935).
att(4908,6309).
att(5165,2339).
att(5478,631).
att(3657,2090).
att(737,2879).
att(1046,6948).
att(3876,5119).
att(69,6102).
att(4361,1528).
att(6340,990).
att(4804,1332).
att(987,6675).
att(3481,1736).
att(6806,6032).
att(5116,3695).
att(2795,1177).
att(6160,4106).
att(6126,5232).
att(5151,5778).
att(4084,1912).
att(4837,495).
att(2113,3965).
att(2401,3325).
att(6823,2673).
att(3772,6164).
att(2422,5306).
att(188,741).
att(5181,2401).
att(4436,385).
att(2344,4489).
att(1306,7249).
att(228,1677).
att(5042,6222).
att(4833,7241).
att(247,1557).
att(7204,1066).
att(3292,1241).
att(6945,6058).
att(5714,2598).
att(5686,534).
att(43,284).
att(5767,4532).
att(2949,5740).
att(6296,5544).
att(2788,5279).
att(4889,39).
att(3564,4781).
att(5791,3390).
att(30,3690).
att(3838,5089).
att(4206,5997).
att(2727,6315).
att(6391,2144).
att(2377,1504).
att(936,3366).
att(1716,685).
att(2647,2509).
att(470,2314).
att(3502,2688).
att(6626,3070).
att(5230,592).
att(1714,2368).
att(3683,2697).
att(3524,2194).
att(6388,6195).
att(7010,3447).
att(1936,2119).
att(4754,1910).
att(5436,188).
att(446,6643).
att(3781,7195).
att(5289,4742).
att(5987,5776).
att(579,4756).
att(2498,2227).
att(2051,7249).
att(304,2379).
att(3669,2150).
att(4451,4441).
att(134,313).
att(6833,5683).
att(6241,6727).
att(2337,4376).
att(2457,4218).
att(43,4467).
att(4461,6266).
att(5773,2061).
att(3988,2936).
att(1952,458).
att(1893,3873).
att(3325,5262).
att(4419,2602).
att(6031,6692).
att(3532,5787).
att(7294,2767).
att(1424,2768).
att(7211,363).
att(2001,3812).
att(1718,863).
att(4111,1532).
att(820,7337).
att(6171,6931).
att(5762,6711).
att(3734,2706).
att(4918,3652).
att(2064,4930).
att(6496,6318).
att(2871,1376).
att(6188,5524).
att(879,1594).
att(4076,4424).
att(1011,364).
att(1773,4367).
att(4444,762).
att(7118,1535).
att(6006,3624).
att(2780,4788).
att(2637,5868).
att(3723,2867).
att(248,159).
att(4671,6797).
att(1847,6563).
att(6778,1592).
att(4193,1106).
att(221,1957).
att(5696,3049).
att(6635,5868).
att(1021,5651).
att(5303,261).
att(4599,5240).
att(4277,4162).
att(4466,644).
att(827,4448).
att(7195,3781).
att(2381,4107).
att(391,2126).
att(4668,5745).
att(1759,3907).
att(2675,7049).
att(630,6965).
att(3960,3652).
att(1782,4951).
att(1629,4265).
att(705,5215).
att(1248,3115).
att(738,5561).
att(6621,2049).
att(5667,6162).
att(1229,296).
att(320,6752).
att(13,1159).
att(3916,6294).
att(2653,6773).
att(5619,2159).
att(1631,3402).
att(140,3227).
att(4493,686).
att(6323,5688).
att(2540,3129).
att(5535,5269).
att(6588,4822).
att(2187,1708).
att(1680,1233).
att(3038,233).
att(4669,3241).
att(1206,2168).
att(7002,5659).
att(1448,1492).
att(4241,7253).
att(657,7223).
att(1820,1202).
att(4608,5424).
att(2797,6486).
att(6402,1876).
att(3460,4955).
att(5747,1706).
att(5833,2382).
att(6734,1659).
att(1849,325).
att(6617,3810).
att(5211,5887).
att(6486,2797).
att(897,1853).
att(5454,4575).
att(5659,5904).
att(607,6415).
att(6738,3744).
att(617,2958).
att(4574,569).
att(1852,7250).
att(4182,7246).
att(2959,7309).
att(4902,714).
att(5197,1008).
att(6014,984).
att(5862,5515).
att(481,4857).
att(2060,1388).
att(2897,152).
att(2104,2563).
att(500,2886).
att(1633,873).
att(652,7079).
att(1741,1491).
att(7299,7075).
att(2117,7341).
att(6760,2).
att(3845,174).
att(6746,4774).
att(247,6161).
att(1035,5960).
att(1364,7256).
att(4468,688).
att(4890,2456).
att(896,1461).
att(3859,3792).
att(4051,4935).
att(5050,620).
att(907,5797).
att(1141,204).
att(1266,1284).
att(793,2403).
att(5713,2906).
att(1013,4911).
att(6507,3299).
att(1170,4443).
att(7191,1900).
att(1757,4198).
att(5862,4584).
att(6294,4779).
att(5829,6521).
att(4484,5846).
att(5530,2637).
att(2297,5155).
att(6066,5168).
att(1950,6473).
att(5380,1279).
att(5899,1100).
att(6144,448).
att(6459,2793).
att(4503,1906).
att(5938,5138).
att(4210,6273).
att(6876,5161).
att(341,4941).
att(313,7269).
att(229,2836).
att(2031,5210).
att(4385,3207).
att(1293,1879).
att(218,1667).
att(4580,1324).
att(4016,6549).
att(7058,4111).
att(2871,4322).
att(186,6109).
att(4483,3468).
att(3914,7181).
att(5613,1792).
att(1017,3861).
att(5042,2637).
att(5878,2137).
att(4319,2036).
att(6884,4276).
att(1661,1294).
att(5020,4979).
att(7,4293).
att(1921,3666).
att(6714,6947).
att(748,6201).
att(3779,6270).
att(1300,1550).
att(4090,4763).
att(1457,1284).
att(1581,6211).
att(1946,419).
att(6603,1398).
att(1201,1374).
att(856,2824).
att(6644,2855).
att(1329,3798).
att(6392,6227).
att(4188,4020).
att(7061,309).
att(4475,41).
att(2484,4825).
att(2774,6369).
att(3848,6323).
att(568,4820).
att(1683,972).
att(6007,649).
att(6620,6531).
att(4686,576).
att(3220,3466).
att(7131,2839).
att(5389,158).
att(6431,6935).
att(5321,343).
att(3009,3420).
att(6022,4499).
att(4381,4912).
att(913,2957).
att(4168,6417).
att(7175,835).
att(4228,479).
att(4560,2725).
att(5959,4919).
att(3305,425).
att(4953,2996).
att(5902,5245).
att(5591,4799).
att(1815,2718).
att(1720,3874).
att(5675,441).
att(5375,1183).
att(6471,4324).
att(4618,3202).
att(673,1285).
att(3375,4279).
att(1101,2003).
att(2754,3911).
att(1030,5217).
att(1715,4352).
att(790,5957).
att(2099,2494).
att(4684,849).
att(3858,6379).
att(2924,7034).
att(4434,1329).
att(2669,3498).
att(4408,4501).
att(3142,2492).
att(5599,3097).
att(5103,3539).
att(2029,6711).
att(5804,611).
att(6265,5552).
att(5061,1707).
att(3526,1561).
att(6199,789).
att(806,165).
att(1578,4647).
att(1545,5868).
att(458,1952).
att(1708,2743).
att(2734,6213).
att(4099,719).
att(5128,4945).
att(618,2149).
att(5948,3278).
att(6752,4512).
att(7077,1836).
att(4331,1607).
att(2295,4660).
att(7215,1017).
att(2145,3114).
att(4902,18).
att(2353,6587).
att(6229,1128).
att(5391,701).
att(5771,6666).
att(2838,742).
att(6090,1191).
att(2664,7323).
att(6163,4868).
att(5698,4310).
att(5755,2205).
att(3229,7307).
att(748,5150).
att(1427,5315).
att(6498,2407).
att(1507,2360).
att(537,3406).
att(3495,905).
att(3097,1933).
att(1343,794).
att(6290,1423).
att(6397,3263).
att(3022,1846).
att(999,3608).
att(6213,1732).
att(2251,4556).
att(5863,4772).
att(1358,4009).
att(2731,5110).
att(6658,4530).
att(1817,1708).
att(3425,7082).
att(6546,2967).
att(651,5435).
att(5950,3081).
att(592,5456).
att(6369,2774).
att(1282,3183).
att(3663,910).
att(1673,3954).
att(3669,1576).
att(5452,3630).
att(7311,6648).
att(814,1430).
att(6545,136).
att(7138,4252).
att(5997,2657).
att(7091,3313).
att(5185,1349).
att(5095,1409).
att(5965,5990).
att(102,3921).
att(3386,5052).
att(6469,7248).
att(5533,5027).
att(5079,792).
att(1829,6324).
att(3422,4565).
att(2376,1955).
att(5777,5634).
att(1183,5375).
att(4350,3299).
att(2479,6392).
att(1417,4038).
att(3679,5883).
att(4792,6226).
att(916,3144).
att(1859,5020).
att(1124,5543).
att(6654,184).
att(1353,4462).
att(5194,7049).
att(3373,445).
att(2138,6402).
att(1282,789).
att(2721,1683).
att(5814,4404).
att(3310,6306).
att(4024,6279).
att(4566,6105).
att(4668,3664).
att(5642,5005).
att(319,381).
att(1827,3034).
att(6850,6469).
att(2615,6678).
att(5687,1155).
att(4318,4364).
att(6519,6164).
att(2601,413).
att(5449,5909).
att(3325,2401).
att(7013,4313).
att(591,5551).
att(1269,7197).
att(4446,2571).
att(874,1194).
att(6652,5266).
att(2388,1001).
att(58,5904).
att(4165,4728).
att(4836,2761).
att(6016,1725).
att(2589,6908).
att(1433,3269).
att(6306,3310).
att(6678,6996).
att(5435,6319).
att(5130,3023).
att(1928,1788).
att(4365,6839).
att(3739,6570).
att(2766,6456).
att(5790,1392).
att(7232,6290).
att(4284,6118).
att(139,3454).
att(899,2830).
att(6677,3988).
att(2340,2977).
att(2979,4790).
att(435,2966).
att(560,747).
att(5798,2412).
att(7142,5083).
att(2035,373).
att(3722,6756).
att(6131,3828).
att(1625,766).
att(4520,3770).
att(4577,5330).
att(4618,1984).
att(5717,249).
att(6878,1027).
att(5578,5066).
att(5330,4078).
att(4868,6163).
att(7120,580).
att(7217,1316).
att(4044,3163).
att(1470,6088).
att(4660,6335).
att(3887,4479).
att(1495,7232).
att(6828,7329).
att(223,6568).
att(661,2760).
att(2314,7275).
att(1962,1842).
att(6691,5526).
att(2782,1011).
att(5916,2661).
att(4458,2667).
att(194,4410).
att(800,6106).
att(3596,1598).
att(798,6625).
att(4856,4019).
att(6478,5986).
att(325,2928).
att(109,1143).
att(2865,7086).
att(2940,2441).
att(6524,965).
att(3302,2411).
att(3511,1811).
att(1500,2222).
att(2677,5017).
att(4164,2621).
att(90,3776).
att(3423,5116).
att(6036,1666).
att(3562,401).
att(6665,832).
att(7325,5825).
att(5635,6245).
att(1447,7176).
att(4313,844).
att(5680,5331).
att(706,682).
att(538,7015).
att(3964,5202).
att(1776,2025).
att(6703,4477).
att(3237,2561).
att(1381,5172).
att(3890,4226).
att(1418,3343).
att(930,46).
att(4273,1584).
att(5664,4936).
att(5372,5297).
att(6148,6565).
att(6270,3779).
att(3802,5897).
att(2108,4520).
att(4437,6116).
att(5638,125).
att(4288,4653).
att(3820,4587).
att(4530,4769).
att(2396,6442).
att(686,4493).
att(3458,2969).
att(5634,5777).
att(6553,7116).
att(7331,6595).
att(6898,3450).
att(2331,7146).
att(7146,2491).
att(1380,72).
att(3578,5549).
att(7006,4402).
att(1438,1996).
att(1464,856).
att(4085,3480).
att(840,5906).
att(3186,602).
att(1786,2611).
att(2529,5378).
att(715,2555).
att(2467,6697).
att(2231,4194).
att(4659,6905).
att(5174,483).
att(865,6237).
att(1679,1942).
att(6680,4249).
att(4435,4767).
att(2261,881).
att(3528,4635).
att(4227,3621).
att(3155,6013).
att(5586,1899).
att(3471,142).
att(3092,6092).
att(2967,3797).
att(7163,6916).
att(1024,238).
att(3196,4999).
att(46,930).
att(4933,2432).
att(1291,5505).
att(1048,6793).
att(5940,2287).
att(971,30).
att(3587,1280).
att(6684,21).
att(220,1635).
att(4482,105).
att(3943,2004).
att(182,7019).
att(3534,7045).
att(3197,7243).
att(1214,64).
att(498,6437).
att(5181,596).
att(1240,5406).
att(1775,2852).
att(4932,2544).
att(2011,6409).
att(2703,6711).
att(3690,30).
att(252,7019).
att(577,2057).
att(7032,1013).
att(5905,3793).
att(1665,1965).
att(2822,1671).
att(6337,1071).
att(6454,4259).
att(3101,3788).
att(6895,6809).
att(3103,7273).
att(6034,5415).
att(3748,1384).
att(2724,4491).
att(5386,5422).
att(5385,4488).
att(1423,6290).
att(4633,5326).
att(3306,3211).
att(1616,6284).
att(4483,6200).
att(1767,189).
att(4226,4034).
att(2862,307).
att(6893,1368).
att(3286,6224).
att(3985,7224).
att(1329,4434).
att(6304,5421).
att(5603,5845).
att(3511,5926).
att(4151,558).
att(5853,830).
att(4154,4455).
att(2667,2851).
att(2760,661).
att(4350,6606).
att(3274,4547).
att(2382,5833).
att(5353,828).
att(5158,3693).
att(2184,4548).
att(746,4242).
att(711,3973).
att(4108,479).
att(4234,6344).
att(4289,4218).
att(4559,3796).
att(3185,3438).
att(4208,5158).
att(1359,5644).
att(6158,4094).
att(4473,5230).
att(433,2129).
att(570,766).
att(6974,107).
att(4069,5029).
att(6805,6399).
att(5132,4606).
att(6874,2691).
att(831,3547).
att(4305,4053).
att(1349,1414).
att(7301,3335).
att(184,5745).
att(6212,5761).
att(198,4812).
att(5570,7238).
att(2860,4308).
att(5098,6766).
att(258,3079).
att(6898,6253).
att(4323,2438).
att(4754,4672).
att(1528,2837).
att(2751,5599).
att(6322,6020).
att(269,5500).
att(1763,1870).
att(5090,4345).
att(2567,6512).
att(2723,166).
att(3165,5432).
att(5019,3155).
att(4611,407).
att(3290,4877).
att(3899,6741).
att(2954,2679).
att(2053,1297).
att(2546,142).
att(456,3995).
att(1834,1467).
att(3816,1306).
att(3847,1979).
att(3791,5893).
att(4849,3011).
att(3211,1779).
att(4216,3201).
att(4253,3430).
att(2289,567).
att(4127,1087).
att(2879,737).
att(203,5192).
att(1579,5157).
att(533,222).
att(1262,7069).
att(2783,5860).
att(5720,5470).
att(313,134).
att(7017,1376).
att(7252,6101).
att(1233,5528).
att(1965,1499).
att(6954,4365).
att(6795,6223).
att(703,1187).
att(3668,5141).
att(1084,1159).
att(4390,690).
att(1346,4059).
att(4019,3518).
att(5906,6038).
att(6756,6853).
att(2275,1147).
att(296,3316).
att(5547,716).
att(3351,1978).
att(6053,190).
att(6581,246).
att(4323,5012).
att(701,5391).
att(3718,6449).
att(176,6604).
att(3835,6314).
att(6258,1805).
att(463,2719).
att(263,4383).
att(3467,3678).
att(7038,4747).
att(4968,6649).
att(4788,829).
att(964,4682).
att(3624,6006).
att(3815,1985).
att(4097,4587).
att(7139,3777).
att(2606,5121).
att(162,3620).
att(1461,6358).
att(1631,6338).
att(6606,4350).
att(2456,3747).
att(4099,3465).
att(5235,2065).
att(4131,3658).
att(5630,5586).
att(4056,6474).
att(1769,735).
att(6329,5893).
att(600,7322).
att(616,929).
att(4435,2976).
att(1698,7149).
att(6400,7299).
att(4832,3337).
att(6109,5353).
att(663,4739).
att(5792,4378).
att(6718,1953).
att(6578,6002).
att(6589,4944).
att(6732,7344).
att(4023,2423).
att(7166,5827).
att(6859,221).
att(6355,4606).
att(3100,6088).
att(4633,6651).
att(3342,5337).
att(5746,5968).
att(6044,1311).
att(6221,2210).
att(1955,2458).
att(5124,7267).
att(2523,3925).
att(4552,3576).
att(4710,3698).
att(1166,4284).
att(6812,237).
att(2309,3885).
att(5112,2633).
att(5555,2964).
att(3593,6976).
att(3711,6309).
att(3106,2389).
att(1250,5018).
att(3718,2335).
att(2450,1143).
att(3294,2078).
att(5013,2680).
att(4645,1505).
att(821,1928).
att(2650,772).
att(6187,2166).
att(1801,2873).
att(1938,5650).
att(2752,7147).
att(2958,3863).
att(4926,7264).
att(1178,3236).
att(7324,5990).
att(4704,6413).
att(5203,2897).
att(2000,3094).
att(326,663).
att(647,7111).
att(1156,4238).
att(1091,5238).
att(4418,125).
att(5182,5539).
att(2664,6268).
att(1936,4768).
att(4500,10).
att(3349,5060).
att(1905,5589).
att(4787,4803).
att(7214,4819).
att(3033,1828).
att(3672,6340).
att(2613,853).
att(7090,1494).
att(3640,272).
att(4185,3078).
att(181,5366).
att(5924,6504).
att(595,491).
att(2556,5128).
att(4364,6116).
att(4299,813).
att(5728,1423).
att(6870,7318).
att(2675,3232).
att(6493,6776).
att(7316,5092).
att(4305,2288).
att(3045,4989).
att(1501,844).
att(6745,314).
att(522,7051).
att(974,3178).
att(6037,5699).
att(6462,929).
att(5534,4478).
att(4396,7326).
att(881,3015).
att(3890,1296).
att(7122,4515).
att(7285,3803).
att(3484,6280).
att(5205,3839).
att(3825,5756).
att(5531,5425).
att(5113,6952).
att(244,4707).
att(2830,4810).
att(2404,1212).
att(2452,5868).
att(3059,6343).
att(5843,5779).
att(3726,3881).
att(5504,609).
att(3497,1479).
att(4039,5537).
att(7034,2924).
att(4967,2916).
att(3873,6431).
att(3005,1481).
att(2812,3260).
att(5655,5088).
att(296,5522).
att(1036,2024).
att(7193,3809).
att(6279,4024).
att(969,5300).
att(961,3692).
att(1758,2000).
att(5141,504).
att(5511,2248).
att(40,2206).
att(4692,5745).
att(2428,6755).
att(4795,1166).
att(1597,6379).
att(7207,3795).
att(2450,1830).
att(6025,5879).
att(4684,1309).
att(2881,7316).
att(4762,5747).
att(4422,5611).
att(3815,1729).
att(5948,6102).
att(2868,5389).
att(7318,4233).
att(3998,4711).
att(1599,4441).
att(2511,3342).
att(6708,6152).
att(3689,7088).
att(3501,2685).
att(7244,60).
att(1880,2692).
att(4663,6394).
att(5431,1443).
att(3126,1102).
att(3715,4825).
att(3905,11).
att(6332,2284).
att(469,2465).
att(5253,5090).
att(7028,6438).
att(4121,2716).
att(7164,3722).
att(713,1021).
att(4501,4408).
att(5691,1582).
att(6775,3845).
att(369,4493).
att(6320,6408).
att(2777,496).
att(3865,780).
att(4701,1655).
att(254,3814).
att(2636,5588).
att(860,1118).
att(4095,4750).
att(6159,1434).
att(1000,3862).
att(3109,5921).
att(1963,2393).
att(5943,1227).
att(7034,5967).
att(2119,828).
att(1459,1855).
att(6683,2490).
att(2267,5159).
att(410,5001).
att(1608,2985).
att(3656,2876).
att(6784,5897).
att(5273,3520).
att(5978,2454).
att(2983,739).
att(443,321).
att(2170,6766).
att(6694,5629).
att(4196,5744).
att(2550,2401).
att(1265,4685).
att(24,3684).
att(1647,5014).
att(4834,6679).
att(290,4227).
att(1545,5047).
att(553,271).
att(1566,4582).
att(6668,2046).
att(2819,4130).
att(6971,6311).
att(164,47).
att(2304,4018).
att(1861,3532).
att(6795,919).
att(5607,7011).
att(2329,2496).
att(4173,3455).
att(760,1797).
att(1752,5161).
att(6776,4168).
att(787,5367).
att(6883,3002).
att(3797,1003).
att(1793,6741).
att(385,4436).
att(5047,5348).
att(51,6504).
att(3399,4565).
att(4382,1445).
att(1528,4931).
att(4420,3849).
att(6646,4920).
att(4917,2116).
att(5494,4939).
att(2370,740).
att(4976,2323).
att(3513,2558).
att(6117,3088).
att(5563,444).
att(3262,4066).
att(1672,3034).
att(7097,3880).
att(2398,2097).
att(2032,1895).
att(3941,528).
att(3552,5866).
att(5561,5452).
att(2638,6204).
att(3446,6071).
att(51,1076).
att(6839,2711).
att(1273,2598).
att(1155,1227).
att(6958,5252).
att(3279,1043).
att(7140,5724).
att(3556,6321).
att(3387,5406).
att(892,5533).
att(1498,3445).
att(7116,6553).
att(1605,5160).
att(3062,1636).
att(4429,4334).
att(1825,6898).
att(1886,3409).
att(398,6990).
att(5629,6694).
att(2425,3712).
att(6442,6980).
att(5163,1682).
att(885,6982).
att(1583,3940).
att(2473,7062).
att(17,3824).
att(6614,285).
att(5249,2510).
att(6464,2524).
att(6456,2556).
att(1410,6439).
att(4254,1095).
att(5223,6333).
att(3901,5648).
att(4412,4255).
att(6335,4191).
att(2472,6957).
att(1582,5691).
att(7319,7170).
att(5678,1078).
att(531,4132).
att(1821,4484).
att(5118,3668).
att(319,4616).
att(2358,347).
att(2528,2562).
att(6126,7069).
att(5078,654).
att(4327,2292).
att(6972,206).
att(915,2099).
att(5226,2118).
att(6241,4391).
att(2618,6537).
att(1552,1560).
att(4429,1186).
att(691,5876).
att(5184,3682).
att(6153,3207).
att(2616,5460).
att(562,436).
att(7338,692).
att(3255,378).
att(6304,1428).
att(5182,4901).
att(7147,5441).
att(1254,4224).
att(4231,1384).
att(5909,1882).
att(507,4050).
att(3285,5182).
att(1725,2511).
att(7104,2782).
att(6721,216).
att(5655,5856).
att(4308,2860).
att(4582,466).
att(2644,1601).
att(7065,6485).
att(4482,4885).
att(706,4509).
att(6780,1220).
att(3869,5081).
att(4694,6717).
att(3369,2961).
att(5003,1084).
att(3727,746).
att(1845,6663).
att(4871,6086).
att(1695,2766).
att(5100,845).
att(38,808).
att(4322,6191).
att(2056,3348).
att(1744,3327).
att(1037,90).
att(146,1572).
att(1153,887).
att(6991,3156).
att(5004,2370).
att(644,4466).
att(832,1736).
att(3412,2610).
att(7126,4997).
att(4657,6826).
att(7261,2463).
att(461,1617).
att(2761,2274).
att(7106,7283).
att(6565,5679).
att(6963,1721).
att(568,5845).
att(2744,3140).
att(427,207).
att(923,6869).
att(5547,96).
att(1960,4878).
att(2125,3055).
att(33,3605).
att(3222,52).
att(440,758).
att(2805,4167).
att(530,2629).
att(4824,4990).
att(3997,6938).
att(1765,7248).
att(1869,6783).
att(2180,6035).
att(4094,6158).
att(4496,129).
att(1857,1932).
att(5309,1883).
att(4700,7281).
att(7050,1156).
att(4407,624).
att(6663,1845).
att(2763,483).
att(5359,2137).
att(6813,4740).
att(4049,2863).
att(615,2260).
att(2209,5652).
att(1169,4558).
att(1598,3496).
att(239,1793).
att(4537,4072).
att(1008,4700).
att(5005,422).
att(6648,6185).
att(4907,6790).
att(3377,7332).
att(3337,4832).
att(1418,1571).
att(1787,5658).
att(2996,346).
att(4142,6456).
att(2745,3673).
att(1360,1062).
att(6293,3639).
att(2253,2606).
att(1446,3555).
att(6811,6051).
att(3244,4657).
att(1310,2681).
att(4955,4106).
att(3071,1669).
att(3191,1547).
att(6144,1043).
att(2268,4242).
att(938,1858).
att(6343,6251).
att(4866,6166).
att(2364,4974).
att(6899,937).
att(3852,3579).
att(6707,7249).
att(451,5199).
att(6336,6851).
att(6269,864).
att(2966,1323).
att(4654,3472).
att(6408,6320).
att(6021,4740).
att(1898,1780).
att(5868,5745).
att(3854,5038).
att(4347,6676).
att(1423,4817).
att(3380,1105).
att(301,1211).
att(1202,1820).
att(2654,2155).
att(5786,282).
att(5230,4473).
att(998,6561).
att(4082,295).
att(3969,2991).
att(4905,1678).
att(6121,2181).
att(6387,1042).
att(2738,6696).
att(1844,4942).
att(1164,7259).
att(127,1064).
att(1487,1424).
att(5513,2311).
att(4658,5853).
att(2899,954).
att(378,3606).
att(2204,5095).
att(4584,1658).
att(4871,2042).
att(5189,4620).
att(988,953).
att(7056,1957).
att(1306,2293).
att(3144,916).
att(5516,1037).
att(3189,6674).
att(1628,5670).
att(4078,1681).
att(2841,5254).
att(6012,7171).
att(1030,4238).
att(6719,6882).
att(385,5731).
att(6667,1172).
att(4851,3291).
att(351,5656).
att(5479,523).
att(6899,3976).
att(7021,5010).
att(5873,6532).
att(6969,5581).
att(1284,1266).
att(4561,2559).
att(2308,3764).
att(6173,150).
att(6410,6557).
att(5679,5936).
att(4196,5375).
att(2312,5277).
att(3537,1059).
att(3050,4389).
att(4862,3653).
att(5793,2051).
att(5837,1526).
att(3471,1305).
att(386,2337).
att(1907,932).
att(616,3169).
att(5245,5902).
att(5087,6862).
att(2053,2784).
att(5739,6516).
att(7104,5034).
att(1473,6102).
att(345,7210).
att(2677,4507).
att(1863,7003).
att(1975,6998).
att(6422,5988).
att(1106,3075).
att(2246,6062).
att(1270,1367).
att(6554,2237).
att(4033,547).
att(5526,6691).
att(399,1285).
att(904,4353).
att(929,3696).
att(4211,2056).
att(5654,1763).
att(2826,4067).
att(3158,4007).
att(4383,643).
att(3777,3566).
att(5663,3992).
att(1274,6278).
att(1098,2719).
att(2715,2862).
att(3608,999).
att(158,1971).
att(4098,5427).
att(5580,7198).
att(7237,1641).
att(4126,2569).
att(3291,4851).
att(3054,3110).
att(7171,6012).
att(5157,1579).
att(5342,5065).
att(4826,128).
att(1694,157).
att(1675,1465).
att(2584,1816).
att(6483,7068).
att(3919,4080).
att(2578,582).
att(5359,6274).
att(761,4736).
att(5314,4155).
att(3022,4535).
att(6271,7132).
att(5317,886).
att(4001,505).
att(5198,3216).
att(5883,3787).
att(1761,6544).
att(6347,1244).
att(5146,138).
att(6709,4531).
att(2835,4963).
att(3340,4804).
att(1333,972).
att(3226,5813).
att(129,4496).
att(3618,4771).
att(2035,2597).
att(2271,6942).
att(4600,5789).
att(1152,1025).
att(4384,722).
att(5755,1220).
att(3417,3838).
att(650,4499).
att(94,2329).
att(4378,5792).
att(78,6011).
att(6292,5350).
att(1560,1552).
att(2230,6873).
att(412,2407).
att(4950,1175).
att(3826,1253).
att(3565,6892).
att(5817,3517).
att(1392,5790).
att(4398,4468).
att(1900,6711).
att(6274,5359).
att(2365,2151).
att(4175,1314).
att(705,5178).
att(6225,7134).
att(444,3494).
att(717,3917).
att(5852,3662).
att(6915,2847).
att(1039,6921).
att(5296,1645).
att(5225,862).
att(3709,4748).
att(1967,3733).
att(6995,1826).
att(6850,7038).
att(513,2191).
att(3351,4329).
att(3972,4440).
att(7323,2664).
att(2454,5978).
att(358,1632).
att(4074,2350).
att(1853,897).
att(4683,3413).
att(5703,2174).
att(1460,3178).
att(921,4351).
att(2710,4791).
att(4631,6428).
att(3434,4963).
att(6698,4110).
att(2912,5045).
att(1666,6036).
att(6004,1591).
att(3636,670).
att(4838,6269).
att(5937,5659).
att(6197,5274).
att(6849,1185).
att(2631,4042).
att(4483,6797).
att(5131,5661).
att(4440,3972).
att(1123,6880).
att(4132,531).
att(2218,7063).
att(4093,2803).
att(5936,5679).
att(2602,928).
att(1787,6348).
att(95,6193).
att(3953,57).
att(3374,6070).
att(6318,6496).
att(1569,1336).
att(5919,6827).
att(5252,6958).
att(1823,6757).
att(3367,1196).
att(2461,1756).
att(453,2521).
att(3075,331).
att(112,1261).
att(2599,1842).
att(6706,4858).
att(1611,5932).
att(6053,6666).
att(3251,4800).
att(6464,1747).
att(6433,2620).
att(5114,5823).
att(2904,551).
att(437,7072).
att(6525,4744).
att(3252,2924).
att(1765,3581).
att(2154,1799).
att(2824,856).
att(3907,1759).
att(161,3339).
att(7280,7248).
att(4528,3817).
att(6115,2696).
att(1035,6138).
att(6814,4389).
att(6738,613).
att(3939,181).
att(4265,1629).
att(1950,6403).
att(4745,6277).
att(1387,1160).
att(5859,6465).
att(4022,6046).
att(5947,4828).
att(1328,759).
att(5036,4343).
att(5626,5952).
att(6773,2653).
att(958,2833).
att(2464,704).
att(2303,3926).
att(1566,2841).
att(6016,4018).
att(5673,3239).
att(74,394).
att(6301,6573).
att(257,166).
att(3991,3625).
att(1857,3468).
att(1159,5547).
att(4398,144).
att(6104,621).
att(3809,5042).
att(1104,1674).
att(1512,5347).
att(4502,2931).
att(5175,6927).
att(2970,1137).
att(2529,591).
att(4690,4094).
att(5770,5074).
att(1437,4945).
att(4122,27).
att(5453,1887).
att(6166,1616).
att(1001,3083).
att(4527,1000).
att(6619,2634).
att(5616,6528).
att(855,2446).
att(493,2163).
att(2199,5387).
att(17,6528).
att(953,1816).
att(483,2763).
att(1054,1986).
att(4825,3715).
att(6540,5064).
att(7335,2764).
att(2833,4406).
att(5243,1123).
att(3390,372).
att(5239,1344).
att(5499,1114).
att(1780,4671).
att(6104,4147).
att(6139,2831).
att(6645,5072).
att(4329,1173).
att(1249,5399).
att(6549,4016).
att(2902,3265).
att(3403,3379).
att(7160,6723).
att(2624,5327).
att(5483,4015).
att(2217,555).
att(642,3687).
att(202,871).
att(1808,6538).
att(165,5416).
att(1812,6552).
att(4066,5726).
att(6416,5718).
att(2681,4393).
att(6994,7007).
att(6353,59).
att(2173,3758).
att(5145,5748).
att(6810,5696).
att(3813,6773).
att(4844,880).
att(5348,5047).
att(3227,140).
att(3692,961).
att(4956,1750).
att(1607,533).
att(6852,2453).
att(1977,3667).
att(4004,3645).
att(3030,4005).
att(7023,1863).
att(930,3634).
att(2034,2516).
att(2239,6430).
att(5047,6828).
att(4431,5351).
att(5682,44).
att(839,4500).
att(6295,3978).
att(2182,5040).
att(4963,3434).
att(2769,5234).
att(4460,3882).
att(309,1975).
att(4804,3340).
att(773,1302).
att(5245,1068).
att(5595,2928).
att(7324,6763).
att(2935,6249).
att(4439,2790).
att(623,2068).
att(2737,7227).
att(1972,4207).
att(2968,1133).
att(463,2058).
att(5115,3909).
att(5063,7071).
att(6452,3804).
att(5877,5611).
att(2541,1889).
att(6440,1785).
att(3065,2594).
att(1103,200).
att(4780,449).
att(187,4032).
att(4611,4360).
att(4188,1452).
att(6377,3270).
att(4190,15).
att(6822,4596).
att(723,2142).
att(1629,7141).
att(6001,4483).
att(1319,2301).
att(3128,6023).
att(4631,6589).
att(6011,78).
att(4372,5549).
att(3627,7148).
att(5736,4114).
att(4635,3528).
att(4823,5429).
att(827,520).
att(5069,1468).
att(1872,4599).
att(2400,4696).
att(5056,6426).
att(5632,1812).
att(2133,3779).
att(3346,337).
att(4270,2156).
att(4695,4818).
att(4145,4222).
att(3138,7271).
att(5492,1603).
att(4108,480).
att(4754,1905).
att(5209,2850).
att(2004,3943).
att(5433,7262).
att(1785,6440).
att(1857,4483).
att(2860,5076).
att(3593,1119).
att(2305,638).
att(762,3648).
att(6860,2347).
att(152,2897).
att(6023,3128).
att(5749,2018).
att(3520,2448).
att(2542,3640).
att(1991,4049).
att(1399,4483).
att(3677,1717).
att(6991,7178).
att(1244,4685).
att(2694,4065).
att(3860,1712).
att(5996,6824).
att(2634,1435).
att(5806,4439).
att(3792,209).
att(1020,2015).
att(5284,3942).
att(4391,1387).
att(234,5617).
att(2393,1922).
att(691,933).
att(1330,417).
att(4128,1518).
att(3763,4159).
att(2688,2717).
att(5066,5578).
att(792,4111).
att(336,2328).
att(2576,4703).
att(5937,328).
att(844,1501).
att(4962,3727).
att(6385,674).
att(5528,1902).
att(6,1807).
att(3226,3398).
att(4111,825).
att(5268,133).
att(3206,6612).
att(268,6210).
att(7068,6483).
att(2999,1663).
att(1441,3989).
att(4900,2533).
att(3398,2178).
att(4025,3399).
att(6421,2984).
att(5156,6698).
att(4364,4318).
att(7208,4052).
att(4504,2660).
att(34,5164).
att(848,197).
att(3200,2236).
att(3761,3221).
att(4621,1377).
att(5251,4056).
att(6362,3777).
att(4987,6200).
att(7320,4031).
att(1184,2293).
att(6665,4386).
att(6815,6199).
att(3936,697).
att(4651,2232).
att(2954,6598).
att(5206,4976).
att(6280,913).
att(5934,339).
att(5508,3816).
att(1928,6903).
att(1317,2599).
att(3284,4565).
att(913,4429).
att(3909,5700).
att(7340,1982).
att(18,3693).
att(5392,3472).
att(4082,2579).
att(3641,3152).
att(6737,6600).
att(1318,2210).
att(6041,2390).
att(3740,1501).
att(5105,3357).
att(2227,2498).
att(3650,5835).
att(5227,973).
att(2313,4984).
att(2937,5016).
att(5841,7000).
att(4492,5077).
att(2140,5058).
att(5836,3277).
att(7000,5841).
att(2076,3227).
att(417,1330).
att(1615,5787).
att(4937,2399).
att(4220,1835).
att(374,3199).
att(7205,1754).
att(4068,4676).
att(6472,4905).
att(1425,6870).
att(2842,5955).
att(15,4190).
att(6828,1900).
att(3057,671).
att(6359,353).
att(3408,2145).
att(5127,2604).
att(2118,5226).
att(7273,3103).
att(281,4046).
att(2997,321).
att(3488,4240).
att(2845,6312).
att(4813,5864).
att(3858,2306).
att(5044,4709).
att(519,7290).
att(6760,6010).
att(2018,4267).
att(4747,6284).
att(6819,3576).
att(4045,6195).
att(4957,3478).
att(693,3482).
att(4962,2451).
att(6844,6212).
att(367,1829).
att(198,496).
att(5277,1197).
att(4691,2654).
att(2263,1167).
att(1473,1210).
att(3077,429).
att(3965,2113).
att(4997,7076).
att(6905,4659).
att(4162,4193).
att(3995,6383).
att(6669,5850).
att(5707,6954).
att(555,6837).
att(771,1727).
att(6523,1729).
att(2315,1230).
att(761,7143).
att(5398,5484).
att(1790,6024).
att(689,5894).
att(1804,3121).
att(2061,5773).
att(2554,2697).
att(2180,858).
att(611,6204).
att(2383,7317).
att(6170,6142).
att(3559,4377).
att(4501,425).
att(1193,3723).
att(2688,3502).
att(6707,474).
att(944,3121).
att(7265,2436).
att(4842,5587).
att(137,7000).
att(2129,5890).
att(3532,2220).
att(1344,4113).
att(6396,749).
att(2903,1576).
att(704,4656).
att(6270,1923).
att(1545,2292).
att(7281,4863).
att(1659,6734).
att(6379,7204).
att(1778,31).
att(5216,3706).
att(3178,1142).
att(5625,2213).
att(1792,5613).
att(1374,6015).
att(6681,5820).
att(6118,1831).
att(1953,3053).
att(3105,3871).
att(4513,3369).
att(4242,1523).
att(1285,4503).
att(6472,4392).
att(3612,6263).
att(1784,6932).
att(3784,4287).
att(6633,3462).
att(6535,5737).
att(5047,3367).
att(1545,6104).
att(4772,2265).
att(6488,462).
att(3933,2231).
att(6017,5882).
att(5724,5108).
att(5363,1968).
att(6948,4793).
att(3926,2303).
att(1431,2625).
att(1308,367).
att(1167,6172).
att(7292,5228).
att(1057,5613).
att(2559,3336).
att(2653,5594).
att(6257,5440).
att(1426,5932).
att(5289,2706).
att(1570,717).
att(1721,2925).
att(4463,5040).
att(3116,6567).
att(548,752).
att(3457,384).
att(3261,4565).
att(5295,6260).
att(2567,2407).
att(7131,2357).
att(4137,3006).
att(6947,6714).
att(5318,2233).
att(4352,6661).
att(4070,2577).
att(1782,2067).
att(143,2923).
att(305,2590).
att(418,4344).
att(2870,7113).
att(5568,2304).
att(4071,2713).
att(7229,6782).
att(7332,3377).
att(2825,4290).
att(767,3080).
att(2069,3804).
att(1297,2053).
att(150,1664).
att(2097,2398).
att(6595,7146).
att(807,2765).
att(6367,7046).
att(3340,729).
att(6321,571).
att(3057,763).
att(2017,6578).
att(2010,3704).
att(7227,2244).
att(7207,1095).
att(1434,3549).
att(3912,4895).
att(423,3654).
att(866,2284).
att(3312,2690).
att(452,4842).
att(5851,5018).
att(7153,3435).
att(6799,1760).
att(1925,7218).
att(2327,3187).
att(6305,1989).
att(6680,510).
att(3334,842).
att(2192,5969).
att(2558,5309).
att(5368,7142).
att(7061,1114).
att(5290,655).
att(2729,584).
att(2603,5918).
att(247,6828).
att(6727,6241).
att(6534,4853).
att(3739,903).
att(4246,50).
att(7168,61).
att(3184,6853).
att(7236,7103).
att(2873,1801).
att(1949,4971).
att(4375,2488).
att(399,4902).
att(3691,4301).
att(4645,2857).
att(2548,5667).
att(6525,5969).
att(2621,4164).
att(71,5538).
att(3087,5713).
att(5575,3628).
att(3489,3079).
att(4712,5738).
att(2107,6441).
att(6370,364).
att(5286,4933).
att(6058,120).
att(4275,3413).
att(94,1548).
att(2056,4211).
att(4820,644).
att(5320,2948).
att(5186,1704).
att(514,4807).
att(3975,658).
att(4610,4).
att(2135,1142).
att(4624,6804).
att(5516,888).
att(6714,894).
att(2083,5192).
att(3421,2937).
att(1915,1658).
att(4146,3850).
att(3437,4767).
att(4036,6952).
att(7186,1140).
att(1686,3869).
att(5702,3686).
att(5185,1621).
att(7129,5123).
att(2775,5008).
att(4296,6483).
att(1229,3199).
att(961,980).
att(3468,6338).
att(6885,4173).
att(2151,2365).
att(956,7293).
att(2272,227).
att(947,6095).
att(1344,5239).
att(5207,2190).
att(6116,4437).
att(7118,5518).
att(6112,4859).
att(2128,2299).
att(4105,1553).
att(690,4390).
att(835,7175).
att(4191,501).
att(6750,645).
att(3482,640).
att(4523,4505).
att(4894,130).
att(4564,7200).
att(258,2319).
att(864,7153).
att(4417,5267).
att(6955,6590).
att(449,6893).
att(7215,945).
att(2615,2422).
att(4283,6477).
att(6783,1869).
att(3067,6180).
att(7278,5966).
att(7015,2668).
att(4948,728).
att(3202,4618).
att(7248,7280).
att(1631,5737).
att(323,2593).
att(5447,3702).
att(815,1222).
att(2386,4936).
att(6171,5935).
att(3866,659).
att(506,4584).
att(3764,4217).
att(4289,1470).
att(7264,4926).
att(2474,5352).
att(4766,5758).
att(4021,498).
att(6586,2476).
att(1733,681).
att(2107,6128).
att(2423,6363).
att(4259,6910).
att(6820,4225).
att(1633,3365).
att(3573,1004).
att(272,6896).
att(3284,1848).
att(6175,2269).
att(6481,1002).
att(6198,4349).
att(1951,4266).
att(602,3695).
att(1993,2882).
att(3393,2551).
att(7015,1509).
att(1489,4148).
att(6778,5920).
att(6987,5805).
att(4421,2702).
att(1712,3860).
att(1533,4865).
att(4200,4295).
att(681,7068).
att(1068,5245).
att(5891,6189).
att(1698,1422).
att(203,3680).
att(2225,3155).
att(299,2994).
att(5620,1091).
att(4107,2381).
att(3290,40).
att(4210,2330).
att(3318,1880).
att(4526,2505).
att(1641,6133).
att(1603,5492).
att(3355,2642).
att(6351,2749).
att(2493,1206).
att(845,1235).
att(2970,2297).
att(4809,2740).
att(4294,1108).
att(1678,4905).
att(1059,3537).
att(1316,2692).
att(2654,4691).
att(5803,3925).
att(4586,3985).
att(1160,1387).
att(4452,2969).
att(954,406).
att(3090,2916).
att(1639,1349).
att(7123,692).
att(4192,1843).
att(6711,5762).
att(445,3373).
att(434,4983).
att(5081,1737).
att(6353,672).
att(7096,2040).
att(504,2524).
att(2445,587).
att(5305,5325).
att(654,5078).
att(596,5181).
att(6505,503).
att(4731,4954).
att(4454,3796).
att(3231,4718).
att(2538,5142).
att(414,653).
att(3026,1304).
att(3614,5873).
att(3962,6472).
att(1793,6967).
att(6752,320).
att(2028,4746).
att(2103,5465).
att(778,1771).
att(4449,2886).
att(2659,5903).
att(1247,3749).
att(6010,1124).
att(6792,6365).
att(3827,5437).
att(4301,2770).
att(5868,2637).
att(5333,2704).
att(725,2490).
att(2501,7199).
att(5554,1651).
att(1886,1049).
att(3046,6812).
att(6527,4871).
att(968,366).
att(3743,2200).
att(2684,1493).
att(6974,3206).
att(4384,6061).
att(5159,923).
att(6244,6329).
att(778,4494).
att(75,6964).
att(2957,2173).
att(601,4237).
att(170,4008).
att(2724,7100).
att(1709,5819).
att(1065,2901).
att(3063,4060).
att(3985,5023).
att(6043,6320).
att(6624,5458).
att(5112,86).
att(7123,459).
att(158,5389).
att(992,2938).
att(1253,3826).
att(4565,3261).
att(3204,4111).
att(1900,29).
att(4517,422).
att(6172,471).
att(289,3970).
att(1521,6192).
att(5678,394).
att(5689,5912).
att(2281,5007).
att(1523,3469).
att(5145,6448).
att(6920,2889).
att(4743,2412).
att(3488,4551).
att(4849,3611).
att(1700,5702).
att(1105,3380).
att(5777,3346).
att(2414,6497).
att(5476,3889).
att(2657,5997).
att(511,4236).
att(6204,2638).
att(889,6054).
att(2269,249).
att(4805,5282).
att(3014,1253).
att(738,1117).
att(5942,5517).
att(2887,1610).
att(4844,2998).
att(3866,560).
att(2761,4836).
att(1480,2286).
att(3306,210).
att(3568,5977).
att(7114,2854).
att(4775,2555).
att(4369,36).
att(5308,7306).
att(5390,6093).
att(824,4077).
att(4750,4095).
att(3367,2481).
att(2728,6253).
att(3954,4535).
att(1384,3748).
att(6196,217).
att(4474,4139).
att(5126,6509).
att(5490,1405).
att(4168,2161).
att(5839,6150).
att(577,2171).
att(489,4551).
att(6251,6343).
att(2213,5625).
att(2720,6076).
att(6267,6549).
att(4084,1973).
att(2597,2776).
att(3148,3356).
att(1291,5784).
att(4859,1895).
att(5745,7100).
att(4576,508).
att(1403,4183).
att(5288,607).
att(1289,3362).
att(4070,676).
att(6141,5831).
att(6485,7065).
att(3097,7042).
att(2351,356).
att(1130,5589).
att(67,2336).
att(763,2879).
att(2958,4323).
att(2488,4375).
att(2799,1296).
att(6473,1950).
att(2681,1310).
att(6912,5709).
att(4812,4924).
att(6781,5025).
att(110,4855).
att(4189,3255).
att(2054,2882).
att(4577,694).
att(1864,5922).
att(7123,4644).
att(4636,5704).
att(3788,935).
att(595,6237).
att(6094,5735).
att(5689,1116).
att(2161,4168).
att(6136,841).
att(6584,3869).
att(1258,2311).
att(6307,2711).
att(4667,4094).
att(6108,5760).
att(3353,5675).
att(4034,4226).
att(4592,22).
att(559,2305).
att(2363,5367).
att(7055,2873).
att(684,611).
att(4226,3890).
att(2986,3789).
att(3279,1373).
att(3361,7127).
att(1897,7292).
att(5567,1878).
att(3617,124).
att(5745,2863).
att(3161,5541).
att(1603,1074).
att(4064,6801).
att(3574,6042).
att(1158,2254).
att(3832,4341).
att(659,3866).
att(5280,5487).
att(6990,398).
att(815,3241).
att(250,544).
att(2393,6557).
att(6255,3061).
att(6690,5253).
att(942,2909).
att(5450,1834).
att(599,5680).
att(5447,2945).
att(1104,5663).
att(4245,3410).
att(636,5459).
att(6640,3323).
att(3507,1235).
att(1157,21).
att(5473,2319).
att(4180,3020).
att(846,983).
att(1389,3601).
att(5843,1043).
att(241,4864).
att(3374,3925).
att(799,4604).
att(6899,7009).
att(88,3630).
att(4143,484).
att(2567,6091).
att(5834,4385).
att(2887,5828).
att(317,670).
att(803,3785).
att(4945,5128).
att(6321,3556).
att(1473,3662).
att(1160,6082).
att(1061,632).
att(172,4053).
att(4941,341).
att(4751,4446).
att(3008,3341).
att(4265,2395).
att(420,5322).
att(6137,248).
att(3893,1140).
att(2014,1900).
att(6146,3192).
att(6937,5472).
att(4216,2185).
att(4540,2011).
att(6362,6026).
att(1173,1964).
att(3920,5010).
att(1910,6445).
att(1357,5170).
att(1486,2630).
att(1150,4821).
att(2234,3774).
att(3898,7022).
att(532,2545).
att(3402,486).
att(1216,3922).
att(469,5247).
att(5523,100).
att(2475,1620).
att(4793,951).
att(1107,5868).
att(5947,299).
att(2173,2518).
att(133,1961).
att(6056,6867).
att(1702,1050).
att(5122,6034).
att(6272,5046).
att(4765,5850).
att(6604,3508).
att(1753,3490).
att(1218,1192).
att(247,2703).
att(5285,2345).
att(7041,2294).
att(1992,995).
att(162,7328).
att(3075,1106).
att(2456,4890).
att(3668,5294).
att(815,2369).
att(2799,5338).
att(5901,2217).
att(746,2322).
att(4334,2957).
att(4387,6655).
att(3542,2635).
att(1471,38).
att(3492,67).
att(1423,5728).
att(7189,5698).
att(268,7033).
att(4134,6834).
att(1663,6813).
att(6024,3455).
att(6657,4096).
att(3463,6317).
att(5973,1459).
att(5888,6761).
att(2389,4506).
att(2976,4435).
att(5458,1912).
att(2055,2588).
att(4699,4270).
att(7093,7187).
att(1900,6828).
att(1634,7014).
att(1038,1279).
att(6158,895).
att(1607,4331).
att(3701,3819).
att(6338,3468).
att(5979,213).
att(6453,4081).
att(3985,4586).
att(4180,3193).
att(5391,2699).
att(1326,97).
att(429,2111).
att(4810,379).
att(1770,5007).
att(1989,6305).
att(4552,1631).
att(620,5050).
att(6079,4776).
att(7313,2228).
att(3183,1282).
att(2569,4126).
att(5074,6596).
att(3459,2895).
att(250,4554).
att(2343,5585).
att(303,729).
att(3088,6117).
att(4666,2496).
att(951,5819).
att(4047,4659).
att(2623,2952).
att(1164,2564).
att(4913,6282).
att(6693,4142).
att(3619,1551).
att(2558,3513).
att(3732,579).
att(2610,3412).
att(7198,3347).
att(3827,6182).
att(4898,4294).
att(2790,5541).
att(1318,5673).
att(711,4615).
att(295,4082).
att(4744,6525).
att(2344,814).
att(3192,3331).
att(168,3906).
att(4913,3982).
att(6068,7335).
att(1905,1171).
att(5235,964).
att(142,1064).
att(101,2730).
att(7277,135).
att(5688,6009).
att(6408,2579).
att(4171,869).
att(696,2004).
att(7008,3745).
att(3884,5995).
att(6080,530).
att(6060,3017).
att(6163,4321).
att(1263,777).
att(1962,4311).
att(5893,3298).
att(131,1386).
att(2901,1065).
att(2359,4724).
att(2179,1760).
att(4811,1178).
att(1515,1445).
att(6557,1922).
att(2589,6865).
att(694,851).
att(5383,3717).
att(3417,1820).
att(1462,1452).
att(5683,2094).
att(2914,2381).
att(5273,1950).
att(2839,7131).
att(3122,5212).
att(1566,1872).
att(4022,6246).
att(5419,1591).
att(2940,3707).
att(4982,2005).
att(4669,5756).
att(3228,1178).
att(1695,5128).
att(298,1348).
att(3395,3791).
att(520,2060).
att(3930,3102).
att(2190,5207).
att(1438,3253).
att(1368,6893).
att(5862,6853).
att(1706,4510).
att(2650,300).
att(194,5975).
att(6567,3116).
att(1663,2999).
att(3614,6034).
att(5594,3044).
att(6786,5769).
att(5338,380).
att(742,2315).
att(4201,6424).
att(4460,2399).
att(1362,1755).
att(3322,4751).
att(3188,5292).
att(3599,268).
att(7106,1520).
att(1528,1299).
att(5436,4048).
att(3509,2487).
att(5339,4326).
att(5578,2248).
att(828,1567).
att(1780,5159).
att(5115,1386).
att(1891,6566).
att(1449,4758).
att(3157,2136).
att(1476,5576).
att(7174,3294).
att(6101,5437).
att(1178,1131).
att(1067,3996).
att(6807,1911).
att(3075,4905).
att(4155,5314).
att(5517,5942).
att(677,2182).
att(5541,3161).
att(575,6012).
att(1242,4708).
att(2276,6860).
att(11,3905).
att(4659,716).
att(1751,5950).
att(4734,6712).
att(4919,4557).
att(468,732).
att(3407,5448).
att(1341,643).
att(2610,7129).
att(2119,6899).
att(3265,3169).
att(2243,1967).
att(4012,6690).
att(1745,3039).
att(3315,1616).
att(5162,482).
att(5826,2036).
att(3270,2638).
att(667,7225).
att(3776,5972).
att(5109,6307).
att(4571,4181).
att(864,6767).
att(2211,5722).
att(2437,4221).
att(4896,6376).
att(4528,5950).
att(3792,3859).
att(1781,989).
att(6751,2927).
att(2288,4305).
att(3172,797).
att(6079,4624).
att(1158,4919).
att(5301,333).
att(5384,5250).
att(276,1353).
att(3564,5329).
att(2500,5422).
att(5174,292).
att(7056,6564).
att(5731,3966).
att(2244,7227).
att(5971,5173).
att(7004,3295).
att(207,427).
att(2157,4111).
att(5011,4145).
att(5414,1556).
att(5023,402).
att(7023,2120).
att(1523,2268).
att(994,6765).
att(3810,7024).
att(5902,2259).
att(7299,1079).
att(4202,5114).
att(2882,1993).
att(2025,1883).
att(624,606).
att(7194,279).
att(5426,1260).
att(3470,2951).
att(3070,5103).
att(6281,5721).
att(1619,6887).
att(6646,6131).
att(2272,1303).
att(5460,2616).
att(5918,2603).
att(6306,3729).
att(1483,4039).
att(1818,6483).
att(3327,1744).
att(5461,869).
att(1473,2986).
att(98,2658).
att(6790,4907).
att(1872,1566).
att(4617,322).
att(5374,3325).
att(878,4594).
att(935,3788).
att(3877,2827).
att(4763,6341).
att(1253,3014).
att(761,777).
att(3661,2718).
att(5454,5332).
att(6403,1950).
att(1550,6539).
att(4115,3729).
att(4789,5854).
att(3214,5498).
att(5895,7080).
att(6710,5099).
att(6611,6232).
att(1177,5926).
att(7032,3686).
att(3821,4206).
att(2905,7107).
att(434,3971).
att(2452,2105).
att(5043,3736).
att(1806,2557).
att(5609,2799).
att(5657,3720).
att(41,570).
att(6700,1194).
att(5443,3635).
att(5266,1120).
att(3034,4669).
att(6743,444).
att(1669,1505).
att(3571,1483).
att(1950,5273).
att(3544,6388).
att(72,1380).
att(1833,1356).
att(2531,4217).
att(5624,1120).
att(864,4798).
att(1764,4466).
att(815,633).
att(875,1163).
att(2527,4357).
att(1708,2187).
att(6287,4774).
att(3509,1197).
att(2331,959).
att(2910,7318).
att(957,1817).
att(327,2051).
att(4066,3262).
att(1813,4978).
att(7120,3235).
att(3132,4405).
att(3712,2425).
att(5455,3023).
att(1468,2388).
att(2840,5076).
att(6111,1331).
att(5269,4054).
att(3710,5409).
att(1832,3838).
att(2196,6463).
att(6224,3311).
att(2272,302).
att(2784,3917).
att(890,4986).
att(4966,4544).
att(2628,2259).
att(1645,5296).
att(2529,6634).
att(3197,3992).
att(881,2261).
att(2960,3287).
att(3654,4209).
att(2277,5199).
att(6161,2278).
att(946,3080).
att(3020,4180).
att(1873,5037).
att(1959,561).
att(4728,6810).
att(926,2802).
att(6763,7324).
att(2373,5333).
att(1086,2117).
att(4826,413).
att(5802,4655).
att(704,2464).
att(2682,2549).
att(5334,799).
att(602,3186).
att(77,6196).
att(3566,191).
att(7054,6031).
att(5117,1125).
att(3948,6985).
att(2922,1817).
att(5899,1976).
att(3137,7192).
att(765,4806).
att(1502,2853).
att(6107,5697).
att(2522,5003).
att(3287,5176).
att(2183,1192).
att(7147,2752).
att(7064,3494).
att(5557,3660).
att(3118,6381).
att(3739,2011).
att(4503,1285).
att(2983,543).
att(6262,3204).
att(661,3676).
att(1466,794).
att(3304,4542).
att(6109,186).
att(5930,5733).
att(5428,804).
att(263,7197).
att(6055,497).
att(5502,4135).
att(3263,6397).
att(5159,1473).
att(6039,3943).
att(2843,7332).
att(3747,2456).
att(686,4373).
att(1159,1137).
att(5088,5655).
att(5180,582).
att(4885,4482).
att(424,889).
att(3215,6605).
att(6322,2957).
att(1878,1938).
att(395,3442).
att(197,6484).
att(1592,6778).
att(3162,3875).
att(4556,2251).
att(5707,4420).
att(973,5227).
att(2630,4307).
att(2969,4452).
att(570,41).
att(2788,3972).
att(4676,4068).
att(3382,2519).
att(4607,2704).
att(1863,7023).
att(2984,6421).
att(3110,3061).
att(2928,5595).
att(1781,5724).
att(2318,2101).
att(4145,4247).
att(6108,416).
att(2841,1892).
att(6629,4973).
att(4945,1437).
att(541,2835).
att(492,2873).
att(6969,4160).
att(1287,5383).
att(4737,3526).
att(2183,2733).
att(1354,6242).
att(2465,967).
att(1604,6602).
att(3300,1866).
att(4478,5794).
att(5724,4231).
att(648,4013).
att(5471,5085).
att(5104,1413).
att(1198,6252).
att(4850,4853).
att(2419,6378).
att(7137,6040).
att(5174,4453).
att(3422,1932).
att(5173,419).
att(5770,2982).
att(3491,5511).
att(3168,3066).
att(6595,7331).
att(4193,2892).
att(1348,6286).
att(1116,5689).
att(1618,2300).
att(1900,2871).
att(5306,2422).
att(3821,4719).
att(4375,6686).
att(4437,951).
att(3283,389).
att(4540,6494).
att(3651,5988).
att(3882,4197).
att(7242,2778).
att(838,7054).
att(5002,5762).
att(5856,2722).
att(5015,5084).
att(3130,4154).
att(1383,3735).
att(241,3384).
att(6967,1793).
att(1446,5413).
att(4955,1650).
att(1483,3571).
att(3642,4369).
att(7302,7226).
att(2421,852).
att(1789,5107).
att(781,6875).
att(6338,6920).
att(5690,955).
att(1911,6679).
att(4119,365).
att(6636,2847).
att(3247,7279).
att(2417,5521).
att(1070,315).
att(5773,4860).
att(3960,5144).
att(2306,2220).
att(3871,3105).
att(2480,1515).
att(1110,139).
att(3131,6933).
att(5611,6407).
att(4158,4346).
att(6899,6188).
att(5612,4337).
att(160,6937).
att(6387,522).
att(4922,6368).
att(3801,5960).
att(2178,3398).
att(5455,3821).
att(1954,1383).
att(672,6353).
att(7260,6875).
att(5025,6781).
att(464,4893).
att(983,3560).
att(1487,2968).
att(4960,4830).
att(1565,7231).
att(6585,4336).
att(5864,275).
att(1609,4442).
att(5646,7025).
att(2551,1275).
att(3929,1508).
att(5019,3319).
att(4266,1951).
att(532,2730).
att(6928,5939).
att(498,4021).
att(4261,1456).
att(6798,3493).
att(2940,6110).
att(2489,3201).
att(2808,2627).
att(1414,3472).
att(3645,3451).
att(769,420).
att(2266,5751).
att(4581,4299).
att(2785,9).
att(6809,6895).
att(5924,1572).
att(839,907).
att(2765,6068).
att(5890,2129).
att(3931,3766).
att(5720,3777).
att(3970,6653).
att(724,3755).
att(793,3725).
att(735,4939).
att(3836,4009).
att(7060,2560).
att(4748,3709).
att(2179,2983).
att(4141,3596).
att(3937,7132).
att(5121,2606).
att(4249,6680).
att(835,1620).
att(3980,1542).
att(5324,7305).
att(6766,5413).
att(814,1652).
att(1068,5563).
att(2078,3294).
att(4947,1640).
att(6870,2910).
att(5985,1541).
att(4223,1670).
att(4248,3461).
att(4811,4670).
att(1906,4503).
att(2948,5320).
att(3996,1067).
att(4863,7281).
att(992,2115).
att(5885,2935).
att(4678,7254).
att(5399,1249).
att(5927,6723).
att(3558,6848).
att(4782,204).
att(2922,1113).
att(2761,6803).
att(662,6450).
att(5558,1583).
att(5628,5246).
att(3968,3355).
att(5862,5220).
att(4060,5439).
att(5805,6987).
att(1894,3865).
att(5128,2766).
att(3876,2740).
att(5703,5722).
att(6954,2677).
att(1365,2608).
att(7126,2431).
att(1316,7217).
att(3614,5661).
att(2209,2956).
att(1180,6817).
att(1315,6708).
att(6445,3967).
att(296,4546).
att(2966,435).
att(5662,4356).
att(10,1465).
att(6608,5579).
att(1348,298).
att(4399,2585).
att(5595,1122).
att(1689,5280).
att(48,1204).
att(576,6100).
att(4238,1030).
att(1027,7275).
att(4693,1296).
att(5596,6380).
att(4608,5461).
att(3087,3771).
att(5314,979).
att(1528,198).
att(5833,4144).
att(6601,5818).
att(3317,5879).
att(2616,5281).
att(2780,5810).
att(1635,5854).
att(3353,4055).
att(1301,6240).
att(1967,2210).
att(3587,3255).
att(107,1290).
att(671,2984).
att(3027,3155).
att(2942,4169).
att(813,2972).
att(7326,2301).
att(4060,3063).
att(1564,6754).
att(4148,1489).
att(6230,6347).
att(3816,5508).
att(4025,4565).
att(593,212).
att(923,5159).
att(7275,2314).
att(2682,5043).
att(4896,5499).
att(6378,6922).
att(7288,5801).
att(3722,6853).
att(3702,3477).
att(6303,4103).
att(534,1157).
att(1817,2922).
att(485,5991).
att(3992,4741).
att(2790,5806).
att(2029,4911).
att(3560,983).
att(5237,6157).
att(7187,2655).
att(2590,305).
att(5692,1631).
att(6012,1209).
att(7083,6744).
att(3321,2768).
att(1205,7257).
att(1626,3415).
att(4138,3933).
att(4663,5415).
att(3366,936).
att(1042,6387).
att(5837,3595).
att(448,3250).
att(7257,5840).
att(2704,5333).
att(4794,6015).
att(1066,7204).
att(687,7250).
att(1153,5332).
att(7124,1878).
att(6546,3513).
att(854,3079).
att(6397,5928).
att(5652,5057).
att(6394,3975).
att(6572,1466).
att(4480,2865).
att(2082,2586).
att(984,5149).
att(6604,176).
att(2702,5336).
att(83,3762).
att(5356,4667).
att(794,1466).
att(2011,4953).
att(4915,1724).
att(4788,6406).
att(7315,7346).
att(1338,3316).
att(2151,2566).
att(5621,6943).
att(4920,3455).
att(2130,2973).
att(1762,5149).
att(1983,3217).
att(4638,3902).
att(3814,254).
att(1587,5635).
att(2188,5079).
att(6688,5317).
att(3918,569).
att(4615,719).
att(6375,7112).
att(6433,1392).
att(3760,2417).
att(3563,5512).
att(2036,4402).
att(3254,156).
att(3009,274).
att(2082,6832).
att(1961,133).
att(2051,327).
att(5064,2150).
att(6536,2071).
att(6731,4585).
att(6936,3541).
att(6084,37).
att(5804,5715).
att(6837,3683).
att(5355,2919).
att(368,423).
att(1525,6165).
att(1511,7294).
att(348,3368).
att(2409,3441).
att(2308,3631).
att(6782,6515).
att(4777,2346).
att(209,5072).
att(7213,5839).
att(4842,6444).
att(6260,362).
att(2799,5609).
att(4292,6065).
att(6916,7163).
att(1081,6287).
att(1880,6002).
att(2357,2452).
att(1001,2388).
att(3601,1896).
att(3289,558).
att(1090,6771).
att(5448,7037).
att(5202,260).
att(744,114).
att(4973,6629).
att(5564,2807).
att(6142,771).
att(2841,792).
att(5823,6338).
att(6920,6338).
att(3465,284).
att(868,6171).
att(3406,1981).
att(1387,6352).
att(47,164).
att(4520,2614).
att(5084,5015).
att(245,7030).
att(5817,6659).
att(1058,2509).
att(4940,1611).
att(4804,6999).
att(1627,6591).
att(7140,3882).
att(2326,2932).
att(4326,5339).
att(1779,3211).
att(3807,2648).
att(7200,2424).
att(5866,2041).
att(1166,4795).
att(1847,5987).
att(6712,3544).
att(944,5821).
att(6164,3772).
att(4003,4377).
att(202,7178).
att(2797,5096).
att(988,2675).
att(1567,828).
att(1204,649).
att(4824,388).
att(6234,5929).
att(4032,2794).
att(5910,1407).
att(1020,4102).
att(5313,6184).
att(5736,2070).
att(1303,3783).
att(4944,1772).
att(819,6414).
att(4723,2806).
att(6093,5390).
att(3717,5870).
att(3250,7190).
att(2023,1709).
att(7005,6208).
att(5094,3881).
att(1947,4561).
att(1325,6342).
att(4509,5070).
att(6717,4694).
att(832,6665).
att(4998,7006).
att(5230,1144).
att(1976,6057).
att(4950,1254).
att(3187,2327).
att(1750,1368).
att(102,818).
att(2878,6556).
att(4593,6339).
att(3299,5956).
att(3589,1217).
att(1066,3900).
att(5159,2986).
att(5470,4092).
att(4145,5011).
att(5832,3647).
att(6748,3500).
att(4103,4550).
att(2678,5695).
att(6529,3480).
att(6024,4173).
att(4083,2828).
att(3509,6500).
att(2294,7041).
att(7143,1544).
att(6705,3458).
att(6234,2286).
att(1650,4955).
att(6970,3613).
att(6741,4403).
att(5350,6292).
att(3236,1131).
att(139,1110).
att(6555,3007).
att(432,3561).
att(4087,6711).
att(3646,2321).
att(5001,410).
att(668,4010).
att(6883,4744).
att(1192,2568).
att(5437,3827).
att(2732,268).
att(410,2605).
att(6777,7243).
att(4448,827).
att(3058,6035).
att(1233,1428).
att(4558,1169).
att(5078,6154).
att(6188,3041).
att(1109,1839).
att(6994,3871).
att(6237,865).
att(1212,2404).
att(2443,2346).
att(5911,3204).
att(4113,6096).
att(333,1995).
att(3652,3960).
att(4725,1358).
att(3154,2600).
att(402,3479).
att(590,4011).
att(6673,6716).
att(5855,4902).
att(5239,2913).
att(2124,6348).
att(6515,6716).
att(7252,2920).
att(506,6085).
att(7278,5923).
att(5704,1161).
att(2733,5225).
att(6161,6711).
att(2226,1395).
att(4935,2294).
att(508,4991).
att(4733,447).
att(6535,6338).
att(6521,5829).
att(5549,3578).
att(7313,3069).
att(4414,5474).
att(6685,3577).
att(4671,81).
att(4614,4512).
att(6190,7044).
att(2516,2034).
att(3584,542).
att(7330,6846).
att(850,1821).
att(347,3463).
att(4304,6050).
att(4613,3745).
att(5032,4579).
att(6169,4332).
att(2974,1734).
att(2719,1098).
att(1682,2168).
att(4543,6250).
att(1085,1182).
att(5742,1015).
att(5994,1857).
att(3573,2861).
att(7282,3039).
att(2453,5742).
att(3978,2722).
att(3521,3653).
att(1609,6042).
att(5048,1082).
att(5278,3072).
att(490,4414).
att(61,3713).
att(7008,5231).
att(1740,404).
att(3501,3386).
att(2339,5165).
att(2231,3933).
att(6247,3872).
att(6665,6119).
att(2785,6501).
att(2349,5522).
att(2500,5881).
att(1093,2321).
att(4756,578).
att(4588,4761).
att(1428,6304).
att(1352,644).
att(79,7217).
att(1658,1915).
att(1712,1424).
att(836,6953).
att(1644,6881).
att(3790,2325).
att(6865,4533).
att(2222,1500).
att(7100,2724).
att(3347,7198).
att(243,2154).
att(4443,1037).
att(327,7013).
att(3156,6991).
att(3427,6260).
att(2375,2515).
att(5341,7303).
att(6120,2464).
att(5070,4509).
att(1932,6338).
att(6451,7337).
att(2707,3831).
att(1867,4688).
att(226,2147).
att(4753,5311).
att(3384,241).
att(6444,4927).
att(6524,1642).
att(3216,2285).
att(952,5052).
att(7117,5598).
att(3789,5852).
att(4406,1624).
att(161,2263).
att(3385,1314).
att(475,6046).
att(2263,6885).
att(7035,4494).
att(2812,6634).
att(5114,1343).
att(2467,6399).
att(5816,4306).
att(4905,3089).
att(670,3532).
att(3864,6362).
att(6273,4210).
att(1005,3966).
att(5769,4165).
att(7228,408).
att(2022,2820).
att(955,6172).
att(5799,3911).
att(2828,4181).
att(1185,1370).
att(3160,2710).
att(4822,6588).
att(3580,6490).
att(5394,1551).
att(4961,4515).
att(1043,3279).
att(6083,6432).
att(3256,6442).
att(7242,5981).
att(3176,2550).
att(4121,751).
att(2387,3687).
att(3921,102).
att(6609,1138).
att(221,4952).
att(310,654).
att(2314,470).
att(5445,6720).
att(1142,3178).
att(1425,5326).
att(6198,1713).
att(81,4671).
att(6000,4881).
att(1512,472).
att(3271,2001).
att(5836,5270).
att(5933,7221).
att(1460,1899).
att(521,7168).
att(6880,1123).
att(444,6743).
att(586,724).
att(6163,6921).
att(7210,345).
att(2342,4394).
att(5059,2324).
att(262,6880).
att(4980,1167).
att(5337,7312).
att(6043,7289).
att(5553,3485).
att(3103,3908).
att(2768,4732).
att(3825,3402).
att(137,6517).
att(6592,2068).
att(6446,4789).
att(428,4552).
att(154,4861).
att(6774,3047).
att(3239,5673).
att(1844,1692).
att(4416,2345).
att(6847,6909).
att(3681,5046).
att(4536,2242).
att(970,2175).
att(4580,7228).
att(1576,2903).
att(326,5980).
att(6447,5602).
att(2908,4110).
att(271,553).
att(729,303).
att(2837,1108).
att(5027,4326).
att(591,2043).
att(3277,5836).
att(6767,804).
att(701,2879).
att(4857,2244).
att(6173,2224).
att(4807,514).
att(2586,6).
att(1734,5767).
att(3334,1241).
att(5346,4353).
att(556,2248).
att(3955,5979).
att(1764,1999).
att(3204,5221).
att(1222,815).
att(4977,1862).
att(2916,3090).
att(1062,4786).
att(3695,602).
att(6962,1614).
att(1182,6550).
att(6744,1464).
att(6824,5996).
att(130,4894).
att(1915,3608).
att(3146,3745).
att(2518,2173).
att(1276,225).
att(6485,421).
att(2085,1967).
att(2565,4249).
att(1369,1006).
att(765,1213).
att(5894,2770).
att(4839,5958).
att(1836,5091).
att(4063,65).
att(6211,1581).
att(7070,2537).
att(5995,3884).
att(1364,2310).
att(3653,4862).
att(6057,1429).
att(1280,3587).
att(1556,5442).
att(6044,1783).
att(4586,5737).
att(654,4356).
att(414,1038).
att(5166,629).
att(1916,3857).
att(2756,986).
att(6735,1406).
att(2227,3349).
att(491,3071).
att(2406,864).
att(161,3455).
att(746,1758).
att(3127,5393).
att(1678,3962).
att(5268,901).
att(6096,4113).
att(1136,1110).
att(888,5516).
att(5114,4202).
att(1027,6878).
att(6954,3750).
att(6138,5250).
att(1335,6089).
att(1783,6044).
att(4819,5571).
att(1481,3005).
att(1087,6705).
att(6149,1006).
att(3184,1031).
att(1029,3433).
att(4342,1362).
att(4756,579).
att(6068,2765).
att(1292,266).
att(6917,2581).
att(7224,3985).
att(707,4669).
att(2709,6563).
att(1297,6442).
att(7223,657).
att(2119,1936).
att(1958,5131).
att(3962,774).
att(1535,4335).
att(2985,1608).
att(1805,6258).
att(5616,1146).
att(2749,2894).
att(3791,3401).
att(2970,7229).
att(5990,7324).
att(2605,3012).
att(5771,5195).
att(7340,2210).
att(5524,6188).
att(2635,3542).
att(6948,1046).
att(4045,6747).
att(6591,2427).
att(2568,1192).
att(7272,1733).
att(3895,2376).
att(2600,4264).
att(4595,182).
att(7185,2576).
att(5166,1772).
att(105,4482).
att(1633,2104).
att(5255,2651).
att(2884,25).
att(5226,2069).
att(5758,3085).
att(4049,1561).
att(4403,6967).
att(5891,5721).
att(3742,245).
att(5442,1556).
att(3983,1557).
att(3740,3904).
att(3041,6188).
att(3449,3066).
att(4776,5122).
att(6027,2975).
att(2015,3647).
att(6487,4002).
att(4248,1553).
att(1835,5264).
att(7328,5445).
att(1070,3571).
att(6047,6569).
att(5388,1877).
att(2750,5994).
att(6887,5396).
att(5556,6693).
att(4914,6327).
att(6024,6310).
att(6167,7334).
att(6812,3046).
att(1361,470).
att(3042,5827).
att(5569,3934).
att(5330,4577).
att(6566,1891).
att(386,223).
att(2577,4070).
att(5764,1241).
att(3098,5908).
att(5692,5114).
att(710,1821).
att(5753,1999).
att(2862,2715).
att(6330,2236).
att(174,3845).
att(4456,3328).
att(3618,5684).
att(363,7211).
att(2494,2099).
att(3426,3855).
att(5348,247).
att(3337,446).
att(5913,4472).
att(3737,3749).
att(5288,200).
att(5418,4023).
att(649,6007).
att(4488,5385).
att(7081,5790).
att(1078,5678).
att(6508,4779).
att(2177,4752).
att(2262,5304).
att(3738,4910).
att(5640,1849).
att(5307,3589).
att(1144,4237).
att(3195,795).
att(1188,2909).
att(822,4002).
att(3726,2029).
att(2809,240).
att(6338,6927).
att(2102,5173).
att(3832,1522).
att(2218,4637).
att(6643,941).
att(3738,6460).
att(6292,3352).
att(6442,1297).
att(5978,377).
att(632,3670).
att(5871,6252).
att(342,2927).
att(5449,873).
att(1288,1366).
att(2541,4029).
att(4746,2028).
att(4739,663).
att(579,3732).
att(3971,434).
att(3629,4163).
att(3125,757).
att(5744,725).
att(1695,4945).
att(1376,6191).
att(2249,1928).
att(1487,5551).
att(4870,4597).
att(3363,1120).
att(4027,2518).
att(44,2679).
att(2855,6644).
att(4256,598).
att(5291,3659).
att(58,2318).
att(5826,1704).
att(1289,356).
att(6055,1558).
att(2709,546).
att(2510,5249).
att(5956,3299).
att(6302,5301).
att(2767,6682).
att(5587,7045).
att(6411,4931).
att(5518,5893).
att(842,7104).
att(4295,5560).
att(775,4514).
att(2679,2954).
att(3151,4124).
att(1747,3316).
att(2711,6839).
att(5921,6371).
att(975,293).
att(6362,5059).
att(5973,3254).
att(1110,1136).
att(2956,6933).
att(4031,7320).
att(2665,5332).
att(3062,5622).
att(2065,3902).
att(1278,132).
att(1855,1459).
att(3896,3808).
att(4917,679).
att(1244,6347).
att(4005,3030).
att(6299,2744).
att(6700,6638).
att(6858,4241).
att(5573,1546).
att(1175,3111).
att(4260,1723).
att(2455,2015).
att(1991,6481).
att(4474,7181).
att(1031,225).
att(2099,848).
att(5725,614).
att(5026,5294).
att(5637,950).
att(1832,4897).
att(64,1214).
att(4394,5016).
att(5603,4820).
att(5075,1841).
att(5566,3170).
att(1485,1363).
att(575,4391).
att(235,2128).
att(6897,7119).
att(3549,3036).
att(900,6527).
att(3973,1941).
att(6558,5464).
att(4073,2135).
att(3335,7301).
att(3071,4195).
att(5778,5151).
att(1835,4220).
att(4538,3389).
att(3336,2559).
att(4434,6910).
att(2047,4627).
att(1961,670).
att(6237,595).
att(7176,1447).
att(6124,6265).
att(4352,1715).
att(6853,225).
att(1704,5186).
att(4301,6650).
att(7328,162).
att(2112,3962).
att(5187,5311).
att(2045,942).
att(2072,5705).
att(4919,1158).
att(4174,6250).
att(3453,3512).
att(80,7127).
att(7157,1189).
att(5325,5910).
att(3260,2812).
att(7051,522).
att(3444,2553).
att(1471,6178).
att(843,5594).
att(6310,2761).
att(129,6357).
att(5787,6807).
att(6952,5113).
att(1727,771).
att(6435,2867).
att(4989,3045).
att(1591,5419).
att(635,4916).
att(2366,2110).
att(4186,594).
att(3198,3837).
att(5845,5603).
att(917,5783).
att(4328,6074).
att(4827,5189).
att(5221,3249).
att(2642,3355).
att(6403,7133).
att(4533,2362).
att(982,4222).
att(2813,4444).
att(2947,5848).
att(1838,279).
att(1566,947).
att(543,4653).
att(6711,7340).
att(4764,2878).
att(7343,4047).
att(1465,10).
att(4029,2541).
att(3581,1397).
att(2740,4809).
att(1742,3583).
att(2815,1326).
att(2526,2475).
att(6343,3059).
att(2695,4119).
att(276,4263).
att(3210,270).
att(2548,4885).
att(2749,6803).
att(2965,5658).
att(1572,2939).
att(2297,2970).
att(5543,1124).
att(2392,6054).
att(2889,1414).
att(1572,146).
att(142,2546).
att(6894,5213).
att(4722,4903).
att(5515,5862).
att(7069,6126).
att(2963,4664).
att(3726,4087).
att(1095,4460).
att(1830,2450).
att(5715,5804).
att(3775,3655).
att(338,2959).
att(4486,2806).
att(7019,182).
att(5072,209).
att(4591,6524).
att(7193,4987).
att(4262,1083).
att(4,4610).
att(5423,330).
att(4796,4633).
att(1217,3589).
att(2900,6718).
att(3598,1686).
att(4695,5154).
att(5691,3456).
att(4708,1706).
att(615,3073).
att(969,4806).
att(1724,3070).
att(964,4427).
att(4196,3616).
att(4130,2819).
att(6252,1198).
att(4982,3787).
att(2726,2922).
att(1956,3309).
att(7141,1629).
att(5735,5057).
att(5094,1659).
att(6448,5145).
att(66,1860).
att(2420,1930).
att(150,6173).
att(5608,3131).
att(6207,6755).
att(2551,3116).
att(3719,6616).
att(2693,3651).
att(4290,431).
att(5300,969).
att(5977,2137).
att(4621,5672).
att(2941,1707).
att(6734,1331).
att(3056,764).
att(2725,2667).
att(556,4249).
att(879,7236).
att(4741,3236).
att(1002,6481).
att(3081,6018).
att(2090,1323).
att(204,4782).
att(2770,4301).
att(4081,3301).
att(5967,2014).
att(6583,4499).
att(1799,1883).
att(4224,1254).
att(6259,4159).
att(5147,3963).
att(5435,651).
att(625,3530).
att(5463,5320).
att(543,1329).
att(5596,4271).
att(2884,6169).
att(146,5347).
att(5509,4389).
att(5740,3585).
att(4213,4909).
att(2847,6636).
att(1161,5704).
att(7075,7299).
att(2851,1979).
att(3184,1276).
att(409,5241).
att(1058,4840).
att(3418,3452).
att(7286,4539).
att(694,4283).
att(4565,4025).
att(3192,6146).
att(6692,6031).
att(5699,6037).
att(2228,1526).
att(7314,3153).
att(2695,3885).
att(215,6502).
att(1832,273).
att(1159,7229).
att(6094,1052).
att(1050,1702).
att(4698,865).
att(3882,733).
att(2833,958).
att(1869,4131).
att(1616,6166).
att(300,2650).
att(6881,758).
att(1696,6502).
att(1333,6914).
att(2211,2655).
att(2354,6662).
att(296,7116).
att(1912,5458).
att(5220,1147).
att(5481,476).
att(19,3012).
att(3727,2426).
att(512,6475).
att(7007,6994).
att(1613,6364).
att(5581,4553).
att(3184,4841).
att(5141,3668).
att(2871,4975).
att(5344,3008).
att(4117,828).
att(2741,5710).
att(1082,5048).
att(1900,247).
att(1792,6443).
att(3311,6240).
att(3644,1617).
att(3107,4496).
att(5965,259).
att(308,884).
att(2278,2703).
att(3872,6247).
att(3806,6490).
att(42,3572).
att(6035,3058).
att(5482,4717).
att(2526,2670).
att(6405,5137).
att(3739,3170).
att(1428,1233).
att(6361,117).
att(18,723).
att(5801,7288).
att(5504,7280).
att(2903,1474).
att(5900,3569).
att(5407,4666).
att(1873,1720).
att(5467,273).
att(1903,6650).
att(6288,3007).
att(1691,2189).
att(609,5504).
att(3713,5039).
att(1357,6506).
att(528,4064).
att(5552,6265).
att(3691,403).
att(2612,2529).
att(6253,2728).
att(6547,5751).
att(3206,3490).
att(2841,1409).
att(2873,492).
att(2554,6129).
att(5643,4415).
att(2410,4915).
att(3345,3732).
att(2544,4932).
att(1106,331).
att(1504,7316).
att(4008,6593).
att(763,3057).
att(1757,2943).
att(829,2839).
att(4553,6391).
att(3240,1053).
att(2879,1660).
att(5277,2312).
att(6361,5788).
att(3024,2085).
att(3023,5455).
att(5359,6834).
att(1432,6456).
att(6932,2359).
att(4633,4796).
att(3940,1583).
att(1566,3456).
att(1716,3604).
att(4634,7219).
att(6097,1937).
att(3917,717).
att(6996,6678).
att(5311,5187).
att(5723,3106).
att(6062,2246).
att(5850,6669).
att(3600,3108).
att(2550,4027).
att(5426,5506).
att(1964,1173).
att(423,368).
att(5049,5033).
att(6716,7315).
att(2333,993).
att(3413,4275).
att(3190,4255).
att(3531,2663).
att(4991,5984).
att(3224,2686).
att(3440,4768).
att(5743,6687).
att(3565,646).
att(2357,4049).
att(3999,4562).
att(1545,1196).
att(2316,6526).
att(7094,7121).
att(5047,1545).
att(6725,7295).
att(6060,383).
att(6651,4633).
att(7127,3361).
att(6938,4812).
att(1475,6740).
att(5233,1592).
att(7068,4726).
att(6267,736).
att(3500,6748).
att(149,1722).
att(731,4427).
att(6634,2812).
att(6821,6571).
att(3023,5130).
att(580,6854).
att(4147,1196).
att(874,2534).
att(2051,4232).
att(6686,4375).
att(991,801).
att(5700,3909).
att(234,6580).
att(7322,3375).
att(7221,2021).
att(4993,6120).
att(1094,909).
att(5011,6637).
att(6713,5297).
att(1271,6611).
att(6479,2161).
att(2017,3983).
att(6751,6544).
att(5744,4196).
att(2680,5013).
att(5102,4921).
att(4241,6858).
att(5915,770).
att(2436,75).
att(3107,3823).
att(1631,6908).
att(2033,4610).
att(3355,3968).
att(6760,3275).
att(6089,3136).
att(584,2729).
att(4242,746).
att(584,6346).
att(5424,4365).
att(987,1882).
att(755,3936).
att(5223,2250).
att(2926,4296).
att(3582,131).
att(1166,3388).
att(3428,4013).
att(1940,3894).
att(3535,4757).
att(1361,6412).
att(5242,5761).
att(356,1289).
att(746,5096).
att(1329,543).
att(2425,6759).
att(354,4040).
att(7082,6798).
att(6078,2469).
att(5908,3098).
att(5249,4689).
att(5246,3440).
att(5340,3637).
att(1514,2972).
att(2030,2627).
att(1509,7015).
att(6030,843).
att(594,2825).
att(5101,3525).
att(6070,3374).
att(1133,2968).
att(3538,2261).
att(5188,2053).
att(2162,1454).
att(7154,426).
att(5202,768).
att(1062,1360).
att(6501,2785).
att(6981,7067).
att(1695,2556).
att(1580,2348).
att(1911,2306).
att(3751,5438).
att(3557,3354).
att(597,5939).
att(2143,4980).
att(7315,6716).
att(6381,3118).
att(3981,6383).
att(3583,7339).
att(7073,1668).
att(2804,1832).
att(2388,1468).
att(4392,831).
att(4575,6274).
att(7340,6711).
att(5854,4789).
att(6222,2401).
att(2424,4426).
att(1261,112).
att(5495,6623).
att(3518,7170).
att(3276,6816).
att(6348,2124).
att(1723,2674).
att(362,6260).
att(2250,1059).
att(3710,5176).
att(654,4545).
att(6687,5743).
att(247,1376).
att(6087,3580).
att(6156,3947).
att(3885,2695).
att(4794,4371).
att(2088,4590).
att(4171,1731).
att(2941,2006).
att(3325,1918).
att(7228,4580).
att(3719,6455).
att(7204,399).
att(4674,2254).
att(1756,2461).
att(1482,5699).
att(6926,3220).
att(3987,3696).
att(1367,1270).
att(6676,4347).
att(6828,1557).
att(4780,6452).
att(5912,5689).
att(344,682).
att(6691,4965).
att(6313,2622).
att(4659,7229).
att(4755,3891).
att(5179,302).
att(5382,5669).
att(5005,5642).
att(5810,2780).
att(3652,4918).
att(3039,7282).
att(4296,2926).
att(7313,418).
att(3251,2224).
att(3481,5844).
att(3872,4278).
att(865,4698).
att(3248,1549).
att(4519,1766).
att(6957,1827).
att(4441,1599).
att(5293,1762).
att(5290,2273).
att(5291,2939).
att(3389,4876).
att(3243,2961).
att(6813,6976).
att(1561,4049).
att(4073,2815).
att(5831,6141).
att(4930,6647).
att(2733,2183).
att(7092,599).
att(7068,681).
att(2105,2452).
att(4179,3946).
att(6888,3015).
att(1580,4079).
att(2367,5140).
att(2367,965).
att(2058,463).
att(745,1256).
att(5057,5735).
att(3169,3265).
att(6702,648).
att(5178,705).
att(978,4044).
att(6368,4996).
att(1803,4791).
att(6559,2039).
att(1646,4619).
att(2036,4319).
att(1186,4429).
att(1652,6831).
att(1036,5251).
att(6002,6355).
att(3273,600).
att(3955,3839).
att(2374,4592).
att(4006,5601).
att(7038,6850).
att(1434,6159).
att(2597,2035).
att(7062,7093).
att(428,6898).
att(1181,4815).
att(2591,633).
att(859,4764).
att(1866,5742).
att(5303,5155).
att(3046,5540).
att(5579,931).
att(6347,6230).
att(6041,3244).
att(7008,4863).
att(7078,6825).
att(7083,7102).
att(583,1681).
att(4194,505).
att(2079,5591).
att(5886,3692).
att(5092,3193).
att(3591,3657).
att(7345,6301).
att(3861,1017).
att(1079,405).
att(210,4811).
att(176,1608).
att(5857,183).
att(1065,3894).
att(1296,4693).
att(5457,6404).
att(4132,1924).
att(1851,5473).
att(2952,2172).
att(4930,2064).
att(6949,4116).
att(890,6171).
att(2938,4149).
att(2502,2893).
att(3994,884).
att(6542,2675).
att(2660,4504).
att(3553,5967).
att(7226,135).
att(1933,3097).
att(4716,1546).
att(3332,5674).
att(6828,3149).
att(5635,2044).
att(2579,6408).
att(2722,5856).
att(5533,892).
att(4687,7150).
att(1931,895).
att(1092,3783).
att(7092,2765).
att(2296,5794).
att(6575,3684).
att(5268,1961).
att(1076,5029).
att(5345,2930).
att(6020,6322).
att(4736,761).
att(7181,4474).
att(3805,6370).
att(1254,2914).
att(5143,3459).
att(2895,3546).
att(6605,563).
att(4840,1058).
att(2454,6193).
att(7051,6759).
att(5248,2539).
att(7229,2970).
att(2743,1708).
att(3849,4420).
att(1378,6749).
att(4491,4914).
att(3543,2786).
att(991,6827).
att(3366,6613).
att(2337,386).
att(1302,773).
att(1572,5924).
att(4031,3774).
att(442,5299).
att(238,1024).
att(5159,4565).
att(6867,5629).
att(1602,1440).
att(6502,215).
att(7207,6607).
att(5509,2556).
att(3973,711).
att(2300,4312).
att(2335,301).
att(5074,5770).
att(5756,4669).
att(5415,5358).
att(5071,1990).
att(1404,1372).
att(5220,2716).
att(1846,6586).
att(81,2320).
att(1008,5197).
att(5494,1151).
att(4397,81).
att(5988,6422).
att(1448,539).
att(1910,4754).
att(923,4565).
att(2572,5956).
att(743,6426).
att(8,54).
att(4433,1047).
att(2485,1732).
att(2173,4334).
att(4785,3757).
att(4979,2872).
att(3551,191).
att(5018,5851).
att(6724,374).
att(4237,1144).
att(480,4108).
att(3130,4830).
att(3753,1578).
att(6477,5784).
att(2897,5203).
att(4419,693).
att(1641,7237).
att(6517,5140).
att(2108,5361).
att(2802,3860).
att(60,7244).
att(2679,44).
att(6910,4434).
att(7130,3409).
att(76,3975).
att(4161,5817).
att(7039,6334).
att(656,1755).
att(2267,4565).
att(4783,3163).
att(3117,4413).
att(1528,2051).
att(3603,4101).
att(1177,2795).
att(5320,5463).
att(4140,2102).
att(2421,3817).
att(3217,828).
att(6545,1575).
att(4406,2833).
att(1683,2721).
att(2193,7161).
att(3462,2169).
att(6478,985).
att(900,3553).
att(3013,5603).
att(2195,4915).
att(37,626).
att(52,3222).
att(5660,6127).
att(1729,3815).
att(3015,881).
att(3715,7026).
att(5813,606).
att(3259,2439).
att(1550,1300).
att(5759,153).
att(5316,2729).
att(1565,1484).
att(1256,745).
att(683,5162).
att(3486,1102).
att(2233,5318).
att(3829,2647).
att(5376,73).
att(6456,553).
att(6414,819).
att(2555,715).
att(6310,5262).
att(2063,3128).
att(5250,5384).
att(4902,399).
att(3195,2171).
att(5300,5100).
att(6864,5750).
att(3921,7131).
att(3034,4529).
att(3212,5726).
att(6180,5964).
att(739,1043).
att(36,6654).
att(5968,5746).
att(5709,5320).
att(7163,4920).
att(1340,4078).
att(3925,5058).
att(1377,2003).
att(147,5144).
att(4601,233).
att(1854,208).
att(5403,3099).
att(6872,4628).
att(5631,476).
att(2542,311).
att(6568,223).
att(407,4611).
att(3961,6557).
att(472,1512).
att(840,6289).
att(736,6267).
att(3793,5905).
att(4139,7184).
att(1749,2098).
att(1828,6157).
att(3637,5340).
att(1286,2985).
att(1387,29).
att(375,5106).
att(6282,5073).
att(6023,4907).
att(712,918).
att(5396,6887).
att(176,4701).
att(107,6974).
att(5129,2444).
att(3361,4531).
att(2907,1441).
att(7218,427).
att(1969,4091).
att(5499,4896).
att(3555,1446).
att(251,3730).
att(3964,5198).
att(6718,2900).
att(3372,5257).
att(1900,2937).
att(4684,1533).
att(4395,5665).
att(294,3297).
att(172,7005).
att(4999,3196).
att(533,1607).
att(458,5885).
att(4424,5366).
att(6863,4153).
att(3027,1527).
att(2485,4810).
att(2440,5716).
att(2730,4670).
att(2921,1096).
att(434,7311).
att(3097,5547).
att(3662,3789).
att(4873,3558).
att(2156,1638).
att(6086,3411).
att(766,1625).
att(1516,5112).
att(7050,1588).
att(6535,1095).
att(5118,5530).
att(3631,123).
att(36,4369).
att(2931,4502).
att(5118,5175).
att(1981,3406).
att(5980,4738).
att(2411,3302).
att(1784,7179).
att(5319,4643).
att(5010,3920).
att(3339,161).
att(6637,5011).
att(5188,2596).
att(4206,7247).
att(3946,911).
att(1049,1886).
att(3121,1804).
att(4164,3407).
att(3030,5652).
att(7011,5607).
att(3676,661).
att(268,2697).
att(1137,3728).
att(2779,4565).
att(5095,2204).
att(5309,6901).
att(1563,1472).
att(6142,6170).
att(913,2002).
att(485,6565).
att(2625,1431).
att(1855,6476).
att(949,4498).
att(3320,870).
att(1379,4047).
att(1994,916).
att(5215,705).
att(7243,3197).
att(3624,5986).
att(6634,4545).
att(3156,1596).
att(7005,172).
att(7295,2228).
att(5468,23).
att(2619,4117).
att(2085,3024).
att(4617,565).
att(1836,7077).
att(1722,4325).
att(1067,5889).
att(3731,3162).
att(5159,6102).
att(1639,2675).
att(4562,7066).
att(200,1103).
att(6846,7330).
att(4455,5516).
att(4875,5507).
att(5781,4466).
att(179,3927).
att(611,684).
att(656,2171).
att(4687,1132).
att(461,5188).
att(6745,5490).
att(3096,4516).
att(2276,2191).
att(1481,3895).
att(7088,7328).
att(4887,2858).
att(541,4187).
att(2745,5940).
att(4596,2857).
att(4404,5814).
att(6625,798).
att(889,424).
att(5643,4891).
att(5636,2012).
att(6276,3085).
att(3873,872).
att(5175,2311).
att(6976,3593).
att(4656,4422).
att(1095,3882).
att(1243,6845).
att(3862,4389).
att(7334,6683).
att(777,1263).
att(3990,1854).
att(1955,3721).
att(4627,5706).
att(3735,1383).
att(5894,689).
att(6607,6295).
att(3141,4039).
att(5222,5258).
att(1706,4771).
att(1376,247).
att(3809,3176).
att(6445,1910).
att(5724,6851).
att(4215,373).
att(5333,787).
att(2911,1328).
att(6611,3769).
att(3844,4760).
att(910,3663).
att(6396,608).
att(6887,2468).
att(1816,2584).
att(5871,6112).
att(2893,6107).
att(5842,2632).
att(1156,7050).
att(621,4333).
att(7131,846).
att(2982,5770).
att(5495,6885).
att(55,2850).
att(3208,4197).
att(3994,2160).
att(7000,137).
att(3648,762).
att(6376,4896).
att(813,4299).
att(3480,4085).
att(5084,4070).
att(3012,19).
att(251,3018).
att(6951,1019).
att(362,5675).
att(2791,16).
att(5293,4717).
att(6038,4028).
att(5606,3877).
att(4803,4787).
att(4439,5806).
att(6073,930).
att(6569,6047).
att(864,265).
att(6117,2142).
att(2460,1903).
att(7202,962).
att(966,2089).
att(562,1450).
att(3779,5818).
att(3088,915).
att(6124,727).
att(5167,5934).
att(1297,2979).
att(3970,2036).
att(117,6361).
att(7151,1044).
att(1241,3334).
att(5097,2543).
att(225,1340).
att(2931,3410).
att(2846,4668).
att(5955,2842).
att(7234,2921).
att(1654,2263).
att(5385,1549).
att(2444,5129).
att(6150,5839).
att(4514,3266).
att(2916,2277).
att(6655,4387).
att(102,1203).
att(1210,1473).
att(6104,1545).
att(3766,3931).
att(4901,5182).
att(563,6605).
att(4768,6649).
att(2821,4626).
att(3025,2727).
att(3249,5221).
att(6288,3868).
att(6105,4566).
att(4377,3559).
att(1780,1898).
att(7085,4981).
att(398,6798).
att(6218,2453).
att(266,1292).
att(1889,2541).
att(2927,342).
att(2342,1125).
att(1001,6420).
att(3101,6099).
att(2306,1961).
att(1904,2742).
att(1518,1837).
att(5726,3212).
att(1384,4231).
att(448,6144).
att(2534,1499).
att(2291,306).
att(3988,6677).
att(2736,1347).
att(1389,2844).
att(6975,4803).
att(4946,2103).
att(1617,3644).
att(1119,3593).
att(1331,6111).
att(3898,5397).
att(1091,5620).
att(3442,395).
att(1580,2232).
att(4632,4927).
att(2481,3367).
att(3577,6685).
att(3327,6530).
att(1605,267).
att(6102,2637).
att(4238,1156).
att(4759,4798).
att(1659,4344).
att(3700,110).
att(2080,3995).
att(6913,85).
att(6721,3851).
att(4564,3744).
att(2692,1880).
att(336,3921).
att(4077,7267).
att(6240,1301).
att(321,5302).
att(4466,5781).
att(1451,360).
att(6781,2973).
att(1936,7009).
att(5401,608).
att(5895,3332).
att(2525,1044).
att(6710,4912).
att(419,1946).
att(1026,5509).
att(7335,1537).
att(3438,3185).
att(1774,1188).
att(3157,6460).
att(804,5428).
att(1814,3769).
att(5255,3627).
att(4262,3499).
att(6458,320).
att(4905,3075).
att(1463,5114).
att(6536,3391).
att(2913,5239).
att(5572,3118).
att(425,3305).
att(4169,2942).
att(3051,5381).
att(4988,4913).
att(4439,6868).
att(6634,6332).
att(6161,247).
att(6678,2615).
att(6882,6719).
att(3193,4180).
att(479,6211).
att(3379,3403).
att(3359,1606).
att(1879,6259).
att(7097,525).
att(3061,6255).
att(1936,2335).
att(2100,3764).
att(3095,4034).
att(6845,1243).
att(6959,2123).
att(5632,3084).
att(1411,3153).
att(709,4591).
att(1051,993).
att(693,4419).
att(477,2397).
att(4420,6839).
att(2479,88).
att(4424,6283).
att(3809,5175).
att(2556,1437).
att(979,4643).
att(6386,6203).
att(5537,4039).
att(5745,4702).
att(1368,1750).
att(4931,1528).
att(2196,4490).
att(6890,5836).
att(3921,975).
att(6582,4126).
att(3503,4086).
att(6682,2767).
att(1321,960).
att(2122,656).
att(4860,5773).
att(4684,6304).
att(2420,6610).
att(5559,7230).
att(2320,81).
att(6309,4908).
att(324,7149).
att(6740,1347).
att(3895,5243).
att(3882,2050).
att(5898,4711).
att(7308,2696).
att(719,4099).
att(7308,2262).
att(6106,800).
att(3378,3867).
att(1060,6730).
att(60,666).
att(5939,175).
att(6220,6588).
att(2158,2693).
att(125,5638).
att(5210,2031).
att(1951,2714).
att(5794,2296).
att(6016,1883).
att(274,3009).
att(1259,2831).
att(4080,3846).
att(3524,5238).
att(3445,1498).
att(171,6676).
att(7255,2775).
att(6456,4945).
att(1433,6521).
att(5419,4087).
att(5658,2757).
att(6339,4593).
att(2453,6218).
att(2203,2786).
att(2530,3292).
att(2575,126).
att(3489,4869).
att(1501,3740).
att(5630,2206).
att(6384,6389).
att(5156,4880).
att(3416,3053).
att(2102,5106).
att(1593,2589).
att(7150,6523).
att(7230,5559).
att(790,2987).
att(4698,51).
att(6143,4221).
att(4070,3380).
att(6839,4420).
att(5193,273).
att(5752,1748).
att(3236,6814).
att(3885,2309).
att(5028,6988).
att(1149,3260).
att(2345,4536).
att(2573,4116).
att(6210,268).
att(2787,1201).
att(1294,1661).
att(5854,628).
att(5824,1738).
att(3276,1947).
att(4401,3922).
att(1859,1342).
att(4878,1960).
att(5354,1380).
att(5733,2980).
att(1178,6776).
att(1393,981).
att(3493,3427).
att(4344,4541).
att(4078,1340).
att(3523,1200).
att(7003,231).
att(6640,3439).
att(5750,6864).
att(4786,22).
att(2364,819).
att(895,1931).
att(1218,7143).
att(6434,5636).
att(7225,2668).
att(5513,3278).
att(7135,4513).
att(4727,1221).
att(957,4988).
att(624,2956).
att(2016,7340).
att(3720,5237).
att(3987,222).
att(7158,2371).
att(4976,5206).
att(1872,7058).
att(915,3088).
att(2936,318).
att(1751,7019).
att(7161,4640).
att(4243,610).
att(6647,743).
att(6486,6992).
att(495,4029).
att(3497,6482).
att(2913,6506).
att(3048,4166).
att(5034,7104).
att(1041,2109).
att(305,2352).
att(4517,6244).
att(2401,1918).
att(4781,4882).
att(4772,6465).
att(4549,1458).
att(4783,121).
att(963,1041).
att(1814,1371).
att(5816,1257).
att(3704,2870).
att(1250,5111).
att(1531,5174).
att(2958,4550).
att(6903,2204).
att(1590,4144).
att(5991,2513).
att(3684,6575).
att(4297,3042).
att(1553,4105).
att(1670,4223).
att(3479,438).
att(5329,4339).
att(5421,444).
att(2885,3659).
att(2881,2662).
att(6350,3980).
att(1370,1185).
att(6103,2144).
att(2338,2633).
att(4200,5778).
att(3724,293).
att(1146,4508).
att(6308,6469).
att(1746,564).
att(2345,5285).
att(4985,2816).
att(4371,4109).
att(3729,6306).
att(2498,5781).
att(2311,5513).
att(1829,367).
att(2220,1861).
att(5788,666).
att(3844,945).
att(5232,6126).
att(812,5762).
att(5097,5974).
att(334,976).
att(6245,836).
att(1185,6849).
att(6174,618).
att(2312,4324).
att(6011,687).
att(746,3587).
att(1736,832).
att(565,4617).
att(7194,4043).
att(4605,5036).
att(4697,6277).
att(1178,4811).
att(6519,2614).
att(5034,2923).
att(1435,148).
att(4104,2446).
att(2535,3841).
att(723,1128).
att(3670,632).
att(3194,6503).
att(298,115).
att(1414,1349).
att(2765,7092).
att(3,3125).
att(4256,6208).
att(5795,875).
att(6722,3274).
att(6981,2442).
att(7297,5403).
att(4207,1972).
att(6698,5156).
att(4931,6411).
att(5021,3563).
att(7068,6128).
att(2795,1998).
att(3365,1633).
att(1178,3050).
att(39,3514).
att(6534,7228).
att(1549,3248).
att(4319,1750).
att(4853,4850).
att(3706,5216).
att(4829,4185).
att(5848,2947).
att(1705,2746).
att(6884,764).
att(185,5843).
att(922,1714).
att(539,1448).
att(4495,5344).
att(4403,6741).
att(7253,4241).
att(3178,5335).
att(5126,4420).
att(5102,5866).
att(821,6856).
att(2949,2514).
att(5522,296).
att(2517,1893).
att(6455,3719).
att(2995,5274).
att(6186,3024).
att(2697,268).
att(4246,816).
att(3025,4534).
att(3169,616).
att(3179,5685).
att(5525,2947).
att(816,3462).
att(6785,5712).
att(3408,7284).
att(4670,2730).
att(6276,1648).
att(3539,699).
att(2928,325).
att(1312,6450).
att(1600,4718).
att(3921,336).
att(5203,5912).
att(6898,1825).
att(5690,5917).
att(786,2508).
att(2084,3360).
att(6508,653).
att(1506,641).
att(4007,3158).
att(2459,4360).
att(6418,5050).
att(1976,5899).
att(1796,6942).
att(4518,6091).
att(3143,1689).
att(6645,6340).
att(673,3219).
att(4548,4712).
att(5197,4863).
att(6956,1987).
att(1083,1238).
att(297,4328).
att(4299,3649).
att(4821,3289).
att(1459,5973).
att(471,6172).
att(5228,7292).
att(681,464).
att(653,2829).
att(2175,970).
att(3595,5837).
att(7020,7077).
att(6563,1847).
att(951,4793).
att(6322,4350).
att(6014,387).
att(3554,4333).
att(6103,4292).
att(2073,6297).
att(5411,85).
att(1917,2258).
att(2779,1210).
att(5679,6633).
att(5916,7086).
att(2168,1206).
att(634,3679).
att(1665,3173).
att(2850,5209).
att(5146,2437).
att(3743,5562).
att(6176,6629).
att(2449,6641).
att(8,4514).
att(2216,1273).
att(6800,6959).
att(5580,2609).
att(642,3236).
att(5015,3363).
att(3028,6240).
att(5353,6109).
att(4730,2140).
att(6511,3535).
att(6524,2430).
att(5170,1357).
att(3171,3515).
att(1670,388).
att(4298,5550).
att(2292,4327).
att(4761,4682).
att(6861,418).
att(5199,451).
att(5076,5774).
att(785,1000).
att(3333,1075).
att(670,1861).
att(2865,4480).
att(1240,1868).
att(5667,2548).
att(1611,2864).
att(3512,2827).
att(6965,5577).
att(1114,7061).
att(346,1170).
att(4891,1302).
att(4309,1840).
att(5015,4233).
att(4233,5015).
att(3811,6371).
att(66,32).
att(3329,1242).
att(5745,4692).
att(4100,2734).
att(182,4595).
att(2373,787).
att(2967,6546).
att(2773,1051).
att(1633,1794).
att(3727,6486).
att(1638,32).
att(6923,4852).
att(3375,7322).
att(6703,1350).
att(4475,4156).
att(5501,6734).
att(1696,659).
att(1235,845).
att(5501,5094).
att(333,5301).
att(3236,6351).
att(6512,236).
att(6413,1995).
att(1586,376).
att(6465,4772).
att(1741,460).
att(1019,6951).
att(3372,720).
att(2447,6051).
att(3975,6394).
att(1579,2641).
att(2253,7030).
att(2146,6092).
att(6679,3058).
att(3419,2449).
att(7203,535).
att(4315,4309).
att(383,6060).
att(3712,2228).
att(6317,6246).
att(5159,3662).
att(2143,6275).
att(555,2217).
att(3856,826).
att(4420,2649).
att(2928,3392).
att(6287,2134).
att(1309,4684).
att(2469,7206).
att(7273,6930).
att(3247,6492).
att(3090,4967).
att(5136,513).
att(2998,3285).
att(4920,7163).
att(2038,1610).
att(3270,6377).
att(2413,6882).
att(4538,1388).
att(2786,3543).
att(740,2370).
att(2992,3944).
att(6779,1296).
att(6152,5931).
att(2274,4725).
att(6038,5906).
att(1032,3246).
att(6054,889).
att(6733,6888).
att(6700,4190).
att(1544,2982).
att(3545,3923).
att(211,4970).
att(4841,3184).
att(1215,4941).
att(5876,691).
att(383,1480).
att(6422,4583).
att(615,1130).
att(849,4684).
att(4396,7007).
att(2438,617).
att(7208,3487).
att(6799,877).
att(5410,3296).
att(3572,5669).
att(3830,7145).
att(1387,6082).
att(2904,4135).
att(3676,2249).
att(4755,7136).
att(6596,5074).
att(5137,6405).
att(4591,709).
att(237,1646).
att(1527,3027).
att(5413,1446).
att(3725,793).
att(5890,5349).
att(3592,1966).
att(5644,4952).
att(6836,861).
att(4043,7194).
att(5331,898).
att(3818,7169).
att(4964,1199).
att(1073,6894).
att(1860,2805).
att(4085,5638).
att(5932,1426).
att(6001,5994).
att(5935,4275).
att(490,1647).
att(2979,503).
att(1359,2202).
att(5670,4673).
att(7331,2044).
att(6286,1348).
att(842,1614).
att(4049,5047).
att(5142,2245).
att(7179,2693).
att(4655,4872).
att(2114,108).
att(5835,4042).
att(2505,2207).
att(1864,3171).
att(1563,5748).
att(756,6664).
att(5704,2817).
att(4144,5833).
att(6636,6111).
att(7031,6210).
att(3993,1352).
att(1538,3852).
att(1974,2762).
att(4914,4491).
att(3307,5946).
att(1904,1287).
att(670,1961).
att(1300,4623).
att(3181,573).
att(6688,3231).
att(699,902).
att(3576,6819).
att(1704,5826).
att(5035,2212).
att(6444,4254).
att(913,3758).
att(3680,203).
att(5999,3628).
att(6854,580).
att(447,5271).
att(3104,2895).
att(119,6787).
att(3541,6936).
att(1159,13).
att(4177,6319).
att(619,3755).
att(5062,5260).
att(6628,5871).
att(2316,6749).
att(3860,6155).
att(5254,3456).
att(5257,2271).
att(4797,2446).
att(3824,1108).
att(317,2306).
att(6561,2031).
att(1568,7167).
att(5641,4109).
att(4321,3054).
att(981,1393).
att(1171,615).
att(4795,4511).
att(6085,506).
att(2682,4794).
att(6081,5491).
att(6701,1543).
att(6495,316).
att(4143,4033).
att(6711,2029).
att(1301,4008).
att(1744,205).
att(315,1070).
att(5868,1107).
att(7196,1884).
att(1961,5268).
att(6543,3052).
att(3328,4214).
att(2582,1340).
att(760,1453).
att(4652,2946).
att(2200,3743).
att(2790,5681).
att(4215,6243).
att(5048,6823).
att(188,5436).
att(1890,4192).
att(2247,3660).
att(5446,6222).
att(3956,3464).
att(3782,6539).
att(2487,3509).
att(3328,4456).
att(7167,1178).
att(1349,4632).
att(1203,3395).
att(1682,7228).
att(185,6033).
att(6919,2256).
att(4879,1273).
att(3798,543).
att(2926,4726).
att(4702,1545).
att(2325,1478).
att(182,6006).
att(3135,977).
att(2264,5071).
att(5169,7184).
att(6674,3189).
att(5565,1684).
att(1228,2915).
att(2147,226).
att(670,2220).
att(2220,4816).
att(3016,5974).
att(2361,2119).
att(6483,2349).
att(2937,4391).
att(5093,6501).
att(6554,2575).
att(1763,5654).
att(4685,1244).
att(3175,637).
att(7188,1627).
att(4170,2166).
att(7159,639).
att(4135,5502).
att(4582,792).
att(26,2964).
att(6311,4465).
att(3209,899).
att(3136,6608).
att(6584,5841).
att(1611,4940).
att(3483,5627).
att(1930,6184).
att(6438,2327).
att(5559,4659).
att(1072,517).
att(6228,2027).
att(1407,5910).
att(4540,346).
att(2561,5739).
att(6130,6686).
att(6964,228).
att(1186,6877).
att(6628,2725).
att(2293,4011).
att(3991,6699).
att(2523,5058).
att(7055,4070).
att(2835,541).
att(454,1911).
att(6494,1399).
att(5096,746).
att(2977,2340).
att(4892,5023).
att(5649,3214).
att(4534,3025).
att(5322,420).
att(5361,4976).
att(3626,4957).
att(1710,4102).
att(6874,5756).
att(302,5179).
att(978,4715).
att(6372,5530).
att(589,1748).
att(1624,7145).
att(1097,4682).
att(1310,2948).
att(2409,637).
att(7336,5944).
att(1174,6963).
att(4953,2011).
att(3374,7080).
att(6891,3193).
att(2341,571).
att(4732,2768).
att(4769,4530).
att(6348,3830).
att(3592,6762).
att(5275,1783).
att(1115,3977).
att(873,5449).
att(500,5060).
att(3543,912).
att(1881,934).
att(535,7203).
att(7126,3082).
att(5366,181).
att(81,4397).
att(2327,6438).
att(1807,6).
att(2003,1377).
att(54,4839).
att(6365,6792).
att(1043,739).
att(1935,1581).
att(2637,6372).
att(5369,4980).
att(1688,7074).
att(5560,5282).
att(42,6960).
att(6566,5927).
att(563,5810).
att(2137,5359).
att(3478,5953).
att(5016,6727).
att(309,7061).
att(3717,5383).
att(1395,4187).
att(4410,6979).
att(1546,4716).
att(4487,6095).
att(1838,5785).
att(1675,3802).
att(6807,3835).
att(1286,3886).
att(719,747).
att(4659,5712).
att(3977,1115).
att(4152,6073).
att(5738,5946).
att(2776,2597).
att(7129,2610).
att(6887,1619).
att(7299,405).
att(5635,1587).
att(4322,2871).
att(7053,1931).
att(5495,5478).
att(3961,7269).
att(3198,312).
att(2133,5117).
att(3159,1578).
att(6049,3134).
att(5000,2394).
att(6960,42).
att(4250,3996).
att(4168,6776).
att(2451,4962).
att(747,719).
att(750,6349).
att(6815,6260).
att(4653,4288).
att(2043,3187).
att(6201,363).
att(4027,6222).
att(3527,3694).
att(209,3792).
att(5868,1545).
att(6730,3305).
att(2658,98).
att(6607,7207).
att(3355,82).
att(1462,1345).
att(6082,1160).
att(4640,4011).
att(6032,791).
att(7244,4076).
att(3172,2372).
att(4438,1248).
att(4988,957).
att(2097,700).
att(6914,1333).
att(6222,4027).
att(2672,4254).
att(6719,833).
att(1925,1872).
att(1841,5075).
att(1537,4545).
att(1251,6674).
att(395,1269).
att(7279,3247).
att(6834,5359).
att(5742,2453).
att(4597,1488).
att(4295,7059).
att(4095,3432).
att(1203,818).
att(4942,1469).
att(5094,5501).
att(6034,3614).
att(528,3941).
att(2708,5844).
att(231,3310).
att(3768,1118).
att(3255,3587).
att(3688,2808).
att(2459,4023).
att(1442,954).
att(6905,7343).
att(2672,3644).
att(2494,925).
att(5132,473).
att(6898,1209).
att(3111,6840).
att(828,3217).
att(6001,6908).
att(6304,1587).
att(2029,4087).
att(3637,3320).
att(5498,1168).
att(2699,5391).
att(4735,5985).
att(1513,7171).
att(2640,2284).
att(2563,2104).
att(2482,5668).
att(5174,4888).
att(1221,1297).
att(1290,6612).
att(2496,4666).
att(5441,7147).
att(7161,2193).
att(4344,3069).
att(3809,2401).
att(6728,4850).
att(3414,2296).
att(7303,5972).
att(2948,1310).
att(3178,974).
att(7320,2027).
att(5581,6969).
att(4984,2313).
att(2734,4100).
att(4923,2121).
att(1984,4995).
att(4585,6731).
att(794,1343).
att(181,3939).
att(1207,1178).
att(3461,3093).
att(2828,4083).
att(3007,6288).
att(6807,5787).
att(3056,4730).
att(6762,7154).
att(3269,5377).
att(5079,1566).
att(6266,2899).
att(5050,6418).
att(2072,136).
att(3231,4752).
att(4550,4103).
att(503,6505).
att(4547,7022).
att(2972,813).
att(4968,937).
att(671,5732).
att(455,4973).
att(3846,5439).
att(5098,6077).
att(1322,2457).
att(1583,5558).
att(1888,6293).
att(2734,6429).
att(4530,6658).
att(5943,154).
att(697,3936).
att(6624,6848).
att(6579,3401).
att(877,3798).
att(5251,1036).
att(5653,4448).
att(1161,3338).
att(1261,1703).
att(5207,6684).
att(4527,2645).
att(1255,2435).
att(1299,1264).
att(4805,6226).
att(3799,5095).
att(2623,6325).
att(4525,540).
att(3773,496).
att(641,7114).
att(4202,3505).
att(3896,5855).
att(3993,1335).
att(6310,3784).
att(1183,2398).
att(3864,3521).
att(857,5763).
att(2031,6561).
att(6979,4464).
att(416,6108).
att(6789,7175).
att(4019,4856).
att(2235,3548).
att(591,4639).
att(1917,1399).
att(5367,787).
att(2571,4446).
att(6908,2589).
att(3392,2928).
att(2554,5193).
att(7137,6441).
att(1980,4706).
att(4906,1964).
att(4647,5143).
att(4477,1012).
att(3699,105).
att(5815,7114).
att(4058,3588).
att(1891,1630).
att(5737,1631).
att(7144,1838).
att(1121,5925).
att(5477,3264).
att(1009,1758).
att(1699,1382).
att(3909,5115).
att(3441,2409).
att(1290,107).
att(7164,5760).
att(3330,2317).
att(5265,2333).
att(5783,5529).
att(2171,577).
att(7148,5723).
att(70,4281).
att(5052,3386).
att(4247,4635).
att(6771,1090).
att(3073,615).
att(3642,7029).
att(1730,6709).
att(5380,5548).
att(3880,7097).
att(784,946).
att(6456,5352).
att(5917,5690).
att(267,1605).
att(4558,1761).
att(5700,4138).
att(1281,5805).
att(3605,33).
att(7042,3097).
att(5756,754).
att(233,4601).
att(1246,2142).
att(5327,2624).
att(1077,6746).
att(346,2996).
att(2418,2812).
att(2099,915).
att(5880,2093).
att(4454,2077).
att(1120,3363).
att(1788,5133).
att(3436,5172).
att(5849,4130).
att(2844,1389).
att(6370,3805).
att(4507,5707).
att(1617,461).
att(893,24).
att(4845,6878).
att(6854,5955).
att(491,4742).
att(1388,2060).
att(2310,1364).
att(4046,526).
att(5243,3895).
att(4845,2769).
att(2379,304).
att(653,414).
att(5420,749).
att(4491,2724).
att(5867,2640).
att(6161,2768).
att(2765,807).
att(3466,3220).
att(3117,2034).
att(720,2431).
att(2320,5486).
att(1756,6063).
att(5645,6498).
att(472,6802).
att(6666,5771).
att(4464,6979).
att(6469,6308).
att(3004,6421).
att(1335,2485).
att(11,5682).
att(5044,1728).
att(4278,938).
att(7146,4980).
att(7119,6897).
att(4389,3862).
att(6672,3109).
att(3875,3162).
att(2749,3236).
att(205,3778).
att(5620,753).
att(3828,1187).
att(5688,6323).
att(6339,4924).
att(6856,7177).
att(1655,1190).
att(2521,6009).
att(2649,4408).
att(1362,639).
att(328,5937).
att(2332,6914).
att(1221,180).
att(1936,1936).
att(5429,3703).
att(4760,3844).
att(3698,4710).
att(4890,811).
att(5705,3113).
att(688,3926).
att(4421,5214).
att(4565,3284).
att(1853,5183).
att(897,327).
att(4254,2672).
att(3750,1162).
att(4959,2971).
att(3256,6198).
att(4797,2413).
att(6997,3849).
att(7246,1313).
att(6260,3427).
att(4924,4812).
att(3368,348).
att(5250,3432).
att(5434,5439).
att(5469,5707).
att(4915,2195).
att(2589,1631).
att(4211,4380).
att(2483,6692).
att(2476,6586).
att(2028,7033).
att(2235,6530).
att(1929,824).
att(1007,7240).
att(643,1341).
att(6157,92).
att(1553,4248).
att(4492,1422).
att(6814,3979).
att(2390,6041).
att(680,3523).
att(5487,5280).
att(7101,6958).
att(6544,6751).
att(1413,2783).
att(2172,2240).
att(5107,2635).
att(1174,238).
att(561,1959).
att(255,7235).
att(5923,5139).
att(3857,1916).
att(1106,4193).
att(807,6206).
att(852,2421).
att(6892,3565).
att(600,3273).
att(4419,6655).
att(1582,2415).
att(183,5857).
att(2892,710).
att(6322,3508).
att(7058,1872).
att(2938,992).
att(3686,5702).
att(7132,3937).
att(6048,6917).
att(4622,5952).
att(7140,855).
att(4549,6513).
att(4668,2846).
att(546,5489).
att(7223,2302).
att(3070,6626).
att(6045,3545).
att(2892,4193).
att(25,4358).
att(3821,4681).
att(214,1604).
att(6230,4282).
att(5212,4405).
att(3273,1970).
att(5481,6489).
att(1509,6075).
att(3102,3930).
att(2477,2701).
att(6615,4544).
att(7248,6469).
att(3213,927).
att(4533,6865).
att(6543,2360).
att(3223,6939).
att(89,1678).
att(3245,4892).
att(4092,7339).
att(906,855).
att(5534,3892).
att(6947,3778).
att(2091,5936).
att(509,1343).
att(6552,1378).
att(3545,6045).
att(758,440).
att(5357,4411).
att(454,7010).
att(5738,4712).
att(7078,2512).
att(2014,1882).
att(7330,1717).
att(2357,1900).
att(3940,1379).
att(3255,2657).
att(4907,6023).
att(5012,1477).
att(3285,6778).
att(6195,4045).
att(2750,6772).
att(1057,2948).
att(1220,5755).
att(7165,5681).
att(1649,5532).
att(103,1706).
att(4342,2122).
att(4225,623).
att(5862,148).
att(4263,276).
att(4649,6376).
att(5870,3529).
att(7105,583).
att(3834,2501).
att(1442,6934).
att(3666,3737).
att(5438,4407).
att(2336,5006).
att(3478,4957).
att(261,7231).
att(460,6154).
att(5645,3905).
att(1999,1764).
att(6663,745).
att(4365,4507).
att(6486,3727).
att(3926,688).
att(4483,6001).
att(315,3619).
att(522,1793).
att(3060,5454).
att(5562,3848).
att(6193,2454).
att(6736,7266).
att(2636,4671).
att(5999,4854).
att(4389,785).
att(3127,7220).
att(1992,6857).
att(2583,6599).
att(4280,2503).
att(1444,7277).
att(2287,5940).
att(5261,2279).
att(6825,6445).
att(2906,2859).
att(2129,433).
att(175,4600).
att(135,7277).
att(4209,4811).
att(1493,2684).
att(2412,4743).
att(3772,3438).
att(6215,2910).
att(3051,2699).
att(5935,6171).
att(3029,377).
att(1131,1178).
att(5761,5242).
att(4707,1060).
att(1394,5832).
att(5440,6257).
att(6170,867).
att(5236,7169).
att(3819,3701).
att(2703,247).
att(3456,1566).
att(2741,1179).
att(4641,915).
att(6120,4993).
att(3474,4589).
att(647,1101).
att(4821,1150).
att(177,6717).
att(3763,5992).
att(5745,4668).
att(2022,5209).
att(6063,1542).
att(6380,1063).
att(597,4787).
att(6798,7082).
att(3811,4354).
att(934,5510).
att(6463,3044).
att(3683,6837).
att(6179,509).
att(1892,1872).
att(1399,4983).
att(63,675).
att(809,4489).
att(1297,6606).
att(120,6058).
att(6630,3728).
att(4595,1534).
att(4497,165).
att(2214,3741).
att(4094,4690).
att(93,929).
att(284,3465).
att(4307,4330).
att(1385,5671).
att(3748,1739).
att(222,533).
att(3787,5883).
att(5545,1034).
att(4181,2828).
att(2492,178).
att(1009,6074).
att(1095,6442).
att(108,2114).
att(6600,192).
att(4411,6005).
att(858,2180).
att(5202,3964).
att(6106,5852).
att(4330,2992).
att(4126,6582).
att(1071,6497).
att(586,5055).
att(5584,6819).
att(1691,4680).
att(6492,3247).
att(6030,2081).
att(3182,2957).
att(5961,2588).
att(6360,7195).
att(7059,7110).
att(1608,176).
att(5438,3751).
att(3217,1983).
att(2693,7179).
att(3398,934).
att(1411,2742).
att(6599,4916).
att(4701,176).
att(2154,2008).
att(313,1263).
att(6676,171).
att(1159,5303).
att(2646,6573).
att(1540,439).
att(604,1910).
att(4814,3643).
att(1747,6464).
att(6675,987).
att(836,6245).
att(1129,1199).
att(349,2898).
att(4184,114).
att(6763,796).
att(5615,943).
att(3158,4088).
att(1308,4686).
att(1594,879).
att(2092,4800).
att(4812,198).
att(6768,2702).
att(2663,3531).
att(4967,3090).
att(4513,7135).
att(7293,4809).
att(5086,566).
att(3659,5291).
att(6351,2800).
att(7228,6534).
att(3527,1569).
att(3721,2781).
att(7170,4379).
att(959,5949).
att(6235,57).
att(3929,1455).
att(3797,2967).
att(487,1532).
att(6320,6043).
att(838,4964).
att(4531,6709).
att(214,1554).
att(6729,5717).
att(7211,6149).
att(7193,5175).
att(2747,4044).
att(2262,7308).
att(4102,1710).
att(6239,4370).
att(4351,921).
att(535,4349).
att(2950,559).
att(3221,4713).
att(5491,5408).
att(5117,2133).
att(2640,5867).
att(1933,430).
att(1107,2637).
att(5071,2264).
att(5227,1339).
att(3191,2739).
att(1096,2921).
att(4760,3139).
att(3150,5023).
att(1920,4079).
att(3155,3027).
att(1386,5115).
att(4634,6345).
att(5684,3618).
att(3468,74).
att(4274,2452).
att(5264,1835).
att(4879,3495).
att(2549,2354).
att(4189,6398).
att(119,2091).
att(3623,3330).
att(6338,4053).
att(680,5610).
att(1000,7167).
att(2157,4582).
att(4292,5216).
att(5778,4200).
att(5546,5716).
att(2937,1900).
att(1504,5654).
att(7165,5146).
att(4370,6239).
att(3758,1023).
att(1688,3735).
att(242,5725).
att(6593,4008).
att(4150,1612).
att(2256,6919).
att(739,307).
att(1006,1369).
att(5809,83).
att(3055,5178).
att(829,3395).
att(5134,5294).
att(1568,1777).
att(5582,5312).
att(7012,1243).
att(5077,4492).
att(5907,4471).
att(2197,6783).
att(5929,3476).
att(1362,4342).
att(1154,5330).
att(5000,111).
att(3731,26).
att(4122,1486).
att(411,3365).
att(3074,4030).
att(4027,3758).
att(4462,3733).
att(7261,4258).
att(1391,4347).
att(507,2146).
att(3235,7120).
att(7031,1308).
att(6346,6239).
att(4537,2266).
att(3881,5094).
att(1466,6572).
att(2512,6792).
att(5292,2547).
att(5661,3614).
att(6379,3000).
att(523,5479).
att(6822,1913).
att(5053,5).
att(3329,1872).
att(5963,5547).
att(4285,1258).
att(2982,1544).
att(2687,5875).
att(6280,6512).
att(1064,142).
att(2638,3045).
att(114,744).
att(1086,4913).
att(3788,3101).
att(5818,6601).
att(4853,6534).
att(1766,4519).
att(4397,3176).
att(2704,4607).
att(4573,4155).
att(6787,119).
att(350,2517).
att(2832,5153).
att(3236,6427).
att(3477,3702).
att(329,7237).
att(5114,3098).
att(3984,5177).
att(2422,2615).
att(1178,3687).
att(84,2881).
att(444,3108).
att(4760,945).
att(4601,481).
att(2824,5975).
att(436,562).
att(1141,2568).
att(4447,4815).
att(2110,3453).
att(3765,1653).
att(2661,7230).
att(2294,4935).
att(4880,1745).
att(5997,4206).
att(6357,129).
att(4664,2963).
att(6499,1304).
att(2815,4073).
att(7162,1938).
att(1883,5309).
att(4156,4475).
att(6647,4930).
att(3133,3205).
att(2991,2900).
att(2150,5064).
att(1099,527).
att(3164,1573).
att(5659,5937).
att(3580,6087).
att(57,6235).
att(1043,5843).
att(792,2841).
att(679,1656).
att(6503,3194).
att(4883,441).
att(4865,3261).
att(6095,5219).
att(2128,235).
att(2619,5410).
att(1307,1416).
att(6286,5463).
att(54,8).
att(2533,4900).
att(285,4240).
att(1211,301).
att(5013,555).
att(4589,3474).
att(7019,1751).
att(2145,3408).
att(2698,78).
att(1681,583).
att(5796,5633).
att(7142,5368).
att(4767,4435).
att(1296,3890).
att(2050,3882).
att(1709,792).
att(1074,1510).
att(1693,1519).
att(3272,619).
att(4967,5938).
att(4971,1949).
att(4160,7201).
att(5107,1789).
att(3437,1135).
att(130,4814).
att(4151,2408).
att(1921,3932).
att(5479,6555).
att(5939,6928).
att(6467,7109).
att(2408,910).
att(2507,2411).
att(3326,4450).
att(1090,1399).
att(2620,6433).
att(399,7204).
att(3611,1914).
att(1257,4075).
att(4147,3952).
att(5475,5869).
att(254,1521).
att(569,2275).
att(3707,2940).
att(593,313).
att(2181,6121).
att(3112,4803).
att(6975,6769).
att(2749,6351).
att(3780,4120).
att(313,593).
att(3924,3475).
att(4466,2845).
att(4697,5388).
att(4715,978).
att(3982,4913).
att(5453,7327).
att(3305,6730).
att(6238,2348).
att(5625,1224).
att(6199,6815).
att(1845,7036).
att(1918,2401).
att(3272,2118).
att(815,1559).
att(1986,1054).
att(7258,5886).
att(1259,1973).
att(1657,3395).
att(876,4554).
att(5766,2504).
att(867,6382).
att(1994,2836).
att(4834,556).
att(2229,1917).
att(7171,1054).
att(1455,3929).
att(3260,864).
att(800,5592).
att(2207,2505).
att(2674,6944).
att(2206,40).
att(7037,6372).
att(3037,7284).
att(3058,6679).
att(4157,7084).
att(5975,2824).
att(1724,4915).
att(985,4235).
att(1342,1859).
att(4231,5724).
att(4152,6620).
att(1625,3999).
att(4381,7276).
att(1163,4974).
att(1631,5015).
att(1251,1774).
att(404,1740).
att(3007,6555).
att(5190,2755).
att(2823,6202).
att(1339,5227).
att(1107,2102).
att(6929,6574).
att(6308,7280).
att(3783,1092).
att(5060,3349).
att(2208,2649).
att(2036,4136).
att(380,4105).
att(4256,800).
att(1987,6956).
att(1022,3559).
att(6389,280).
att(1346,5343).
att(6226,4792).
att(229,3824).
att(1996,853).
att(2686,6164).
att(4107,352).
att(5321,2414).
att(2529,2202).
att(6400,5830).
att(6711,2703).
att(846,7131).
att(2876,164).
att(5159,1848).
att(1192,2183).
att(1492,2604).
att(2234,5877).
att(4818,4695).
att(2883,3697).
att(864,6269).
att(2279,5261).
att(1505,1669).
att(6167,224).
att(6299,4726).
att(175,5939).
att(1040,1825).
att(3487,7283).
att(6735,4174).
att(6211,4133).
att(5946,5738).
att(736,1908).
att(5851,230).
att(6986,4357).
att(3026,4710).
att(3870,2960).
att(3702,5447).
att(5275,6233).
att(5660,6989).
att(5913,87).
att(239,6438).
att(4103,6303).
att(3071,4855).
att(5719,3901).
att(1900,2357).
att(5340,3282).
att(6471,5811).
att(5490,6745).
att(3936,755).
att(6804,4624).
att(4136,6978).
att(1772,4199).
att(1440,1602).
att(791,6032).
att(5707,2677).
att(2901,2705).
att(2242,4536).
att(7198,1824).
att(7248,1765).
att(4533,3779).
att(5782,4447).
att(1319,1341).
att(4515,4961).
att(2553,2142).
att(1050,4568).
att(3789,2986).
att(1556,5414).
att(5412,3958).
att(310,5371).
att(2703,4087).
att(3905,5645).
att(3528,340).
att(7195,7288).
att(2651,4379).
att(926,255).
att(6475,2861).
att(2185,5674).
att(3102,5305).
att(5014,1647).
att(6360,2621).
att(2701,2477).
att(3417,696).
att(5304,819).
att(3708,3550).
att(4645,3586).
att(2620,3397).
att(1799,2154).
att(1044,7151).
att(1723,4260).
att(493,4977).
att(1094,4285).
att(4431,55).
att(343,5321).
att(1349,6444).
att(1467,6331).
att(3096,5138).
att(2513,5991).
att(6223,2478).
att(3505,4202).
att(5734,6434).
att(1386,6968).
att(5507,5872).
att(6407,2536).
att(3959,6293).
att(2344,278).
att(640,3482).
att(4308,1107).
att(1780,5175).
att(4145,1977).
att(68,6653).
att(4866,2623).
att(4709,5044).
att(1706,4708).
att(742,2838).
att(6191,1376).
att(1811,3511).
att(5023,855).
att(6,6513).
att(4029,495).
att(3377,4428).
att(1139,1226).
att(551,1302).
att(1616,3315).
att(1636,3899).
att(6322,4906).
att(2335,828).
att(7146,2331).
att(2363,6100).
att(3922,4401).
att(1456,6956).
att(3822,1456).
att(5676,4049).
att(911,3478).
att(5439,5434).
att(3648,3747).
att(2362,1780).
att(1619,3674).
att(7114,5815).
att(3734,6729).
att(6398,3587).
att(3037,5583).
att(3678,773).
