arg(1..120).
att(120,120).
att(120,118).
att(120,117).
att(120,114).
att(120,112).
att(120,111).
att(120,107).
att(120,104).
att(120,101).
att(120,98).
att(120,96).
att(120,95).
att(120,94).
att(120,93).
att(120,90).
att(120,89).
att(120,86).
att(120,82).
att(120,81).
att(120,79).
att(120,78).
att(120,75).
att(120,74).
att(120,71).
att(120,66).
att(120,62).
att(120,61).
att(120,60).
att(120,59).
att(120,55).
att(120,54).
att(120,51).
att(120,49).
att(120,48).
att(120,43).
att(120,40).
att(120,39).
att(120,38).
att(120,37).
att(120,36).
att(120,35).
att(120,34).
att(120,30).
att(120,25).
att(120,24).
att(120,21).
att(120,19).
att(120,18).
att(120,17).
att(120,16).
att(120,12).
att(120,11).
att(120,10).
att(120,9).
att(120,6).
att(120,5).
att(120,2).
att(119,120).
att(119,111).
att(119,98).
att(119,96).
att(119,94).
att(119,89).
att(119,83).
att(119,82).
att(119,78).
att(119,62).
att(119,60).
att(119,57).
att(119,54).
att(119,53).
att(119,51).
att(119,48).
att(119,47).
att(119,44).
att(119,40).
att(119,39).
att(119,37).
att(119,36).
att(119,33).
att(119,18).
att(119,17).
att(119,16).
att(119,15).
att(119,14).
att(119,12).
att(119,10).
att(119,9).
att(119,5).
att(118,120).
att(118,119).
att(118,118).
att(118,117).
att(118,114).
att(118,113).
att(118,112).
att(118,111).
att(118,109).
att(118,107).
att(118,106).
att(118,105).
att(118,104).
att(118,103).
att(118,102).
att(118,101).
att(118,98).
att(118,97).
att(118,96).
att(118,95).
att(118,94).
att(118,93).
att(118,92).
att(118,90).
att(118,89).
att(118,88).
att(118,87).
att(118,86).
att(118,84).
att(118,83).
att(118,82).
att(118,81).
att(118,80).
att(118,79).
att(118,78).
att(118,77).
att(118,76).
att(118,75).
att(118,74).
att(118,73).
att(118,71).
att(118,67).
att(118,66).
att(118,65).
att(118,63).
att(118,62).
att(118,61).
att(118,60).
att(118,59).
att(118,58).
att(118,55).
att(118,54).
att(118,53).
att(118,51).
att(118,50).
att(118,49).
att(118,48).
att(118,47).
att(118,45).
att(118,44).
att(118,43).
att(118,41).
att(118,40).
att(118,39).
att(118,38).
att(118,37).
att(118,36).
att(118,35).
att(118,34).
att(118,33).
att(118,32).
att(118,31).
att(118,30).
att(118,29).
att(118,28).
att(118,26).
att(118,25).
att(118,24).
att(118,22).
att(118,21).
att(118,20).
att(118,19).
att(118,18).
att(118,17).
att(118,16).
att(118,15).
att(118,14).
att(118,12).
att(118,11).
att(118,10).
att(118,9).
att(118,8).
att(118,7).
att(118,5).
att(118,4).
att(118,3).
att(118,2).
att(118,1).
att(117,120).
att(117,119).
att(117,118).
att(117,117).
att(117,114).
att(117,112).
att(117,111).
att(117,110).
att(117,107).
att(117,106).
att(117,104).
att(117,101).
att(117,98).
att(117,97).
att(117,96).
att(117,95).
att(117,94).
att(117,93).
att(117,92).
att(117,90).
att(117,89).
att(117,88).
att(117,87).
att(117,86).
att(117,83).
att(117,82).
att(117,81).
att(117,80).
att(117,79).
att(117,78).
att(117,77).
att(117,76).
att(117,75).
att(117,74).
att(117,73).
att(117,71).
att(117,67).
att(117,66).
att(117,65).
att(117,63).
att(117,62).
att(117,61).
att(117,60).
att(117,59).
att(117,58).
att(117,55).
att(117,54).
att(117,53).
att(117,52).
att(117,51).
att(117,50).
att(117,49).
att(117,48).
att(117,47).
att(117,45).
att(117,43).
att(117,41).
att(117,40).
att(117,39).
att(117,38).
att(117,37).
att(117,36).
att(117,35).
att(117,34).
att(117,32).
att(117,31).
att(117,30).
att(117,28).
att(117,26).
att(117,25).
att(117,24).
att(117,22).
att(117,21).
att(117,20).
att(117,19).
att(117,18).
att(117,17).
att(117,16).
att(117,15).
att(117,12).
att(117,11).
att(117,10).
att(117,9).
att(117,8).
att(117,7).
att(117,5).
att(117,4).
att(117,3).
att(117,2).
att(117,1).
att(115,119).
att(115,118).
att(115,117).
att(115,112).
att(115,111).
att(115,107).
att(115,102).
att(115,100).
att(115,98).
att(115,96).
att(115,93).
att(115,92).
att(115,90).
att(115,89).
att(115,84).
att(115,83).
att(115,82).
att(115,81).
att(115,78).
att(115,74).
att(115,66).
att(115,62).
att(115,54).
att(115,53).
att(115,51).
att(115,49).
att(115,48).
att(115,47).
att(115,43).
att(115,41).
att(115,40).
att(115,38).
att(115,34).
att(115,29).
att(115,21).
att(115,18).
att(115,17).
att(115,16).
att(115,15).
att(115,12).
att(115,10).
att(115,9).
att(115,6).
att(115,5).
att(114,120).
att(114,119).
att(114,118).
att(114,117).
att(114,114).
att(114,113).
att(114,112).
att(114,111).
att(114,110).
att(114,109).
att(114,107).
att(114,106).
att(114,105).
att(114,104).
att(114,103).
att(114,102).
att(114,101).
att(114,98).
att(114,97).
att(114,96).
att(114,95).
att(114,94).
att(114,93).
att(114,92).
att(114,90).
att(114,89).
att(114,88).
att(114,87).
att(114,86).
att(114,84).
att(114,83).
att(114,82).
att(114,81).
att(114,80).
att(114,79).
att(114,78).
att(114,77).
att(114,76).
att(114,75).
att(114,74).
att(114,73).
att(114,71).
att(114,67).
att(114,66).
att(114,65).
att(114,63).
att(114,62).
att(114,61).
att(114,60).
att(114,59).
att(114,58).
att(114,57).
att(114,55).
att(114,54).
att(114,53).
att(114,52).
att(114,51).
att(114,50).
att(114,49).
att(114,48).
att(114,47).
att(114,45).
att(114,43).
att(114,41).
att(114,40).
att(114,39).
att(114,38).
att(114,37).
att(114,36).
att(114,35).
att(114,34).
att(114,33).
att(114,32).
att(114,31).
att(114,30).
att(114,29).
att(114,28).
att(114,26).
att(114,25).
att(114,24).
att(114,21).
att(114,20).
att(114,19).
att(114,18).
att(114,17).
att(114,16).
att(114,15).
att(114,12).
att(114,11).
att(114,10).
att(114,9).
att(114,7).
att(114,5).
att(114,4).
att(114,3).
att(114,2).
att(114,1).
att(113,120).
att(113,119).
att(113,118).
att(113,117).
att(113,114).
att(113,112).
att(113,111).
att(113,110).
att(113,107).
att(113,106).
att(113,104).
att(113,101).
att(113,98).
att(113,97).
att(113,96).
att(113,95).
att(113,94).
att(113,93).
att(113,92).
att(113,90).
att(113,89).
att(113,88).
att(113,87).
att(113,86).
att(113,83).
att(113,82).
att(113,81).
att(113,80).
att(113,79).
att(113,78).
att(113,77).
att(113,76).
att(113,75).
att(113,74).
att(113,73).
att(113,71).
att(113,67).
att(113,66).
att(113,65).
att(113,62).
att(113,61).
att(113,60).
att(113,59).
att(113,58).
att(113,55).
att(113,54).
att(113,53).
att(113,52).
att(113,51).
att(113,50).
att(113,49).
att(113,48).
att(113,47).
att(113,45).
att(113,44).
att(113,43).
att(113,41).
att(113,40).
att(113,39).
att(113,38).
att(113,37).
att(113,36).
att(113,35).
att(113,34).
att(113,33).
att(113,32).
att(113,31).
att(113,30).
att(113,28).
att(113,26).
att(113,25).
att(113,24).
att(113,21).
att(113,20).
att(113,19).
att(113,18).
att(113,17).
att(113,16).
att(113,15).
att(113,14).
att(113,12).
att(113,11).
att(113,10).
att(113,9).
att(113,7).
att(113,5).
att(113,4).
att(113,3).
att(113,2).
att(113,1).
att(112,120).
att(112,119).
att(112,112).
att(112,111).
att(112,102).
att(112,100).
att(112,98).
att(112,96).
att(112,94).
att(112,93).
att(112,92).
att(112,90).
att(112,89).
att(112,84).
att(112,83).
att(112,82).
att(112,78).
att(112,74).
att(112,62).
att(112,60).
att(112,54).
att(112,53).
att(112,51).
att(112,49).
att(112,48).
att(112,47).
att(112,44).
att(112,41).
att(112,40).
att(112,37).
att(112,36).
att(112,34).
att(112,33).
att(112,29).
att(112,21).
att(112,18).
att(112,17).
att(112,16).
att(112,15).
att(112,14).
att(112,12).
att(112,10).
att(112,9).
att(112,5).
att(111,120).
att(111,119).
att(111,118).
att(111,117).
att(111,114).
att(111,113).
att(111,112).
att(111,111).
att(111,110).
att(111,109).
att(111,107).
att(111,106).
att(111,105).
att(111,104).
att(111,103).
att(111,102).
att(111,101).
att(111,98).
att(111,97).
att(111,96).
att(111,95).
att(111,94).
att(111,93).
att(111,92).
att(111,90).
att(111,89).
att(111,88).
att(111,87).
att(111,86).
att(111,84).
att(111,83).
att(111,82).
att(111,81).
att(111,80).
att(111,79).
att(111,78).
att(111,77).
att(111,76).
att(111,75).
att(111,74).
att(111,73).
att(111,71).
att(111,67).
att(111,66).
att(111,65).
att(111,63).
att(111,62).
att(111,61).
att(111,60).
att(111,59).
att(111,58).
att(111,57).
att(111,55).
att(111,54).
att(111,53).
att(111,52).
att(111,51).
att(111,50).
att(111,49).
att(111,48).
att(111,47).
att(111,46).
att(111,45).
att(111,43).
att(111,41).
att(111,40).
att(111,39).
att(111,38).
att(111,37).
att(111,36).
att(111,35).
att(111,34).
att(111,33).
att(111,32).
att(111,31).
att(111,30).
att(111,29).
att(111,28).
att(111,26).
att(111,25).
att(111,24).
att(111,22).
att(111,21).
att(111,20).
att(111,19).
att(111,18).
att(111,17).
att(111,16).
att(111,15).
att(111,13).
att(111,12).
att(111,11).
att(111,10).
att(111,9).
att(111,8).
att(111,7).
att(111,5).
att(111,4).
att(111,3).
att(111,2).
att(111,1).
att(110,120).
att(110,119).
att(110,118).
att(110,117).
att(110,114).
att(110,112).
att(110,111).
att(110,110).
att(110,107).
att(110,106).
att(110,104).
att(110,101).
att(110,98).
att(110,97).
att(110,96).
att(110,95).
att(110,94).
att(110,93).
att(110,92).
att(110,90).
att(110,89).
att(110,88).
att(110,87).
att(110,86).
att(110,83).
att(110,82).
att(110,81).
att(110,80).
att(110,79).
att(110,78).
att(110,77).
att(110,76).
att(110,75).
att(110,74).
att(110,71).
att(110,67).
att(110,66).
att(110,65).
att(110,62).
att(110,61).
att(110,60).
att(110,59).
att(110,57).
att(110,55).
att(110,54).
att(110,53).
att(110,52).
att(110,51).
att(110,50).
att(110,49).
att(110,48).
att(110,47).
att(110,45).
att(110,43).
att(110,41).
att(110,40).
att(110,39).
att(110,38).
att(110,37).
att(110,36).
att(110,35).
att(110,34).
att(110,32).
att(110,31).
att(110,30).
att(110,25).
att(110,24).
att(110,21).
att(110,19).
att(110,18).
att(110,17).
att(110,16).
att(110,15).
att(110,12).
att(110,11).
att(110,10).
att(110,9).
att(110,5).
att(110,4).
att(110,3).
att(110,2).
att(109,120).
att(109,118).
att(109,117).
att(109,114).
att(109,112).
att(109,111).
att(109,107).
att(109,106).
att(109,104).
att(109,101).
att(109,98).
att(109,97).
att(109,96).
att(109,95).
att(109,94).
att(109,93).
att(109,90).
att(109,89).
att(109,88).
att(109,87).
att(109,86).
att(109,82).
att(109,81).
att(109,79).
att(109,78).
att(109,75).
att(109,74).
att(109,71).
att(109,67).
att(109,66).
att(109,62).
att(109,61).
att(109,60).
att(109,59).
att(109,55).
att(109,54).
att(109,51).
att(109,50).
att(109,49).
att(109,48).
att(109,45).
att(109,43).
att(109,41).
att(109,40).
att(109,39).
att(109,38).
att(109,37).
att(109,36).
att(109,35).
att(109,34).
att(109,32).
att(109,31).
att(109,30).
att(109,25).
att(109,24).
att(109,21).
att(109,19).
att(109,18).
att(109,16).
att(109,12).
att(109,11).
att(109,10).
att(109,9).
att(109,5).
att(109,2).
att(108,119).
att(108,118).
att(108,117).
att(108,114).
att(108,112).
att(108,111).
att(108,110).
att(108,109).
att(108,106).
att(108,103).
att(108,102).
att(108,98).
att(108,96).
att(108,94).
att(108,93).
att(108,92).
att(108,89).
att(108,84).
att(108,82).
att(108,81).
att(108,80).
att(108,79).
att(108,78).
att(108,66).
att(108,65).
att(108,63).
att(108,61).
att(108,54).
att(108,53).
att(108,51).
att(108,46).
att(108,45).
att(108,43).
att(108,41).
att(108,40).
att(108,38).
att(108,35).
att(108,34).
att(108,33).
att(108,31).
att(108,30).
att(108,29).
att(108,26).
att(108,22).
att(108,20).
att(108,19).
att(108,18).
att(108,16).
att(108,13).
att(108,12).
att(108,11).
att(108,9).
att(108,7).
att(107,120).
att(107,119).
att(107,118).
att(107,117).
att(107,113).
att(107,112).
att(107,111).
att(107,109).
att(107,107).
att(107,106).
att(107,105).
att(107,103).
att(107,102).
att(107,98).
att(107,96).
att(107,95).
att(107,94).
att(107,93).
att(107,92).
att(107,89).
att(107,88).
att(107,84).
att(107,83).
att(107,82).
att(107,81).
att(107,79).
att(107,78).
att(107,77).
att(107,76).
att(107,73).
att(107,67).
att(107,66).
att(107,65).
att(107,63).
att(107,62).
att(107,61).
att(107,60).
att(107,59).
att(107,58).
att(107,54).
att(107,53).
att(107,51).
att(107,49).
att(107,48).
att(107,47).
att(107,45).
att(107,44).
att(107,43).
att(107,41).
att(107,40).
att(107,39).
att(107,38).
att(107,37).
att(107,36).
att(107,35).
att(107,34).
att(107,33).
att(107,31).
att(107,30).
att(107,29).
att(107,28).
att(107,26).
att(107,22).
att(107,20).
att(107,19).
att(107,18).
att(107,17).
att(107,16).
att(107,15).
att(107,14).
att(107,12).
att(107,11).
att(107,10).
att(107,9).
att(107,8).
att(107,7).
att(107,5).
att(107,3).
att(107,1).
att(106,120).
att(106,118).
att(106,117).
att(106,114).
att(106,112).
att(106,111).
att(106,107).
att(106,106).
att(106,104).
att(106,101).
att(106,98).
att(106,97).
att(106,96).
att(106,95).
att(106,94).
att(106,93).
att(106,90).
att(106,89).
att(106,88).
att(106,87).
att(106,86).
att(106,82).
att(106,81).
att(106,79).
att(106,78).
att(106,75).
att(106,74).
att(106,71).
att(106,67).
att(106,66).
att(106,62).
att(106,61).
att(106,60).
att(106,59).
att(106,55).
att(106,54).
att(106,51).
att(106,50).
att(106,49).
att(106,48).
att(106,45).
att(106,43).
att(106,41).
att(106,40).
att(106,39).
att(106,38).
att(106,37).
att(106,36).
att(106,35).
att(106,34).
att(106,32).
att(106,31).
att(106,30).
att(106,25).
att(106,24).
att(106,21).
att(106,19).
att(106,18).
att(106,16).
att(106,12).
att(106,11).
att(106,10).
att(106,9).
att(106,5).
att(106,2).
att(104,120).
att(104,119).
att(104,118).
att(104,117).
att(104,114).
att(104,112).
att(104,111).
att(104,110).
att(104,107).
att(104,106).
att(104,104).
att(104,101).
att(104,98).
att(104,97).
att(104,96).
att(104,95).
att(104,94).
att(104,93).
att(104,92).
att(104,90).
att(104,89).
att(104,88).
att(104,87).
att(104,86).
att(104,83).
att(104,82).
att(104,81).
att(104,80).
att(104,79).
att(104,78).
att(104,77).
att(104,76).
att(104,75).
att(104,74).
att(104,73).
att(104,71).
att(104,67).
att(104,66).
att(104,65).
att(104,62).
att(104,61).
att(104,60).
att(104,59).
att(104,58).
att(104,55).
att(104,54).
att(104,53).
att(104,52).
att(104,51).
att(104,50).
att(104,49).
att(104,48).
att(104,47).
att(104,45).
att(104,44).
att(104,43).
att(104,41).
att(104,40).
att(104,39).
att(104,38).
att(104,37).
att(104,36).
att(104,35).
att(104,34).
att(104,33).
att(104,32).
att(104,31).
att(104,30).
att(104,28).
att(104,26).
att(104,25).
att(104,24).
att(104,21).
att(104,20).
att(104,19).
att(104,18).
att(104,17).
att(104,16).
att(104,15).
att(104,14).
att(104,12).
att(104,11).
att(104,10).
att(104,9).
att(104,7).
att(104,5).
att(104,4).
att(104,3).
att(104,2).
att(104,1).
att(103,120).
att(103,118).
att(103,117).
att(103,114).
att(103,112).
att(103,111).
att(103,107).
att(103,106).
att(103,104).
att(103,101).
att(103,98).
att(103,97).
att(103,96).
att(103,95).
att(103,94).
att(103,93).
att(103,90).
att(103,89).
att(103,88).
att(103,87).
att(103,86).
att(103,82).
att(103,81).
att(103,79).
att(103,78).
att(103,75).
att(103,74).
att(103,71).
att(103,67).
att(103,66).
att(103,62).
att(103,61).
att(103,60).
att(103,59).
att(103,55).
att(103,54).
att(103,51).
att(103,50).
att(103,49).
att(103,48).
att(103,45).
att(103,43).
att(103,41).
att(103,40).
att(103,39).
att(103,38).
att(103,37).
att(103,36).
att(103,35).
att(103,34).
att(103,32).
att(103,31).
att(103,30).
att(103,25).
att(103,24).
att(103,21).
att(103,19).
att(103,18).
att(103,16).
att(103,12).
att(103,11).
att(103,10).
att(103,9).
att(103,5).
att(103,2).
att(102,120).
att(102,119).
att(102,118).
att(102,117).
att(102,112).
att(102,111).
att(102,107).
att(102,102).
att(102,100).
att(102,98).
att(102,96).
att(102,94).
att(102,93).
att(102,92).
att(102,90).
att(102,89).
att(102,84).
att(102,83).
att(102,82).
att(102,81).
att(102,78).
att(102,74).
att(102,66).
att(102,62).
att(102,60).
att(102,54).
att(102,53).
att(102,51).
att(102,49).
att(102,48).
att(102,47).
att(102,44).
att(102,43).
att(102,41).
att(102,40).
att(102,38).
att(102,37).
att(102,36).
att(102,34).
att(102,33).
att(102,29).
att(102,21).
att(102,18).
att(102,17).
att(102,16).
att(102,15).
att(102,14).
att(102,12).
att(102,10).
att(102,9).
att(102,6).
att(102,5).
att(101,119).
att(101,118).
att(101,117).
att(101,114).
att(101,112).
att(101,111).
att(101,110).
att(101,109).
att(101,106).
att(101,103).
att(101,102).
att(101,98).
att(101,96).
att(101,94).
att(101,93).
att(101,92).
att(101,89).
att(101,84).
att(101,82).
att(101,81).
att(101,80).
att(101,79).
att(101,78).
att(101,66).
att(101,65).
att(101,63).
att(101,61).
att(101,54).
att(101,53).
att(101,51).
att(101,46).
att(101,45).
att(101,43).
att(101,41).
att(101,40).
att(101,38).
att(101,35).
att(101,34).
att(101,33).
att(101,31).
att(101,30).
att(101,29).
att(101,26).
att(101,22).
att(101,20).
att(101,19).
att(101,18).
att(101,16).
att(101,13).
att(101,12).
att(101,11).
att(101,9).
att(101,7).
att(98,120).
att(98,119).
att(98,118).
att(98,117).
att(98,114).
att(98,113).
att(98,112).
att(98,111).
att(98,110).
att(98,109).
att(98,107).
att(98,106).
att(98,105).
att(98,104).
att(98,103).
att(98,102).
att(98,101).
att(98,98).
att(98,97).
att(98,96).
att(98,95).
att(98,94).
att(98,93).
att(98,92).
att(98,90).
att(98,89).
att(98,88).
att(98,87).
att(98,86).
att(98,84).
att(98,83).
att(98,82).
att(98,81).
att(98,80).
att(98,79).
att(98,78).
att(98,77).
att(98,76).
att(98,75).
att(98,74).
att(98,73).
att(98,71).
att(98,67).
att(98,66).
att(98,65).
att(98,63).
att(98,62).
att(98,61).
att(98,60).
att(98,59).
att(98,58).
att(98,57).
att(98,55).
att(98,54).
att(98,53).
att(98,52).
att(98,51).
att(98,50).
att(98,49).
att(98,48).
att(98,47).
att(98,46).
att(98,45).
att(98,44).
att(98,43).
att(98,41).
att(98,40).
att(98,39).
att(98,38).
att(98,37).
att(98,36).
att(98,35).
att(98,34).
att(98,33).
att(98,32).
att(98,31).
att(98,30).
att(98,29).
att(98,28).
att(98,26).
att(98,25).
att(98,24).
att(98,22).
att(98,21).
att(98,20).
att(98,19).
att(98,18).
att(98,17).
att(98,16).
att(98,15).
att(98,14).
att(98,13).
att(98,12).
att(98,11).
att(98,10).
att(98,9).
att(98,8).
att(98,7).
att(98,5).
att(98,4).
att(98,3).
att(98,2).
att(98,1).
att(97,120).
att(97,118).
att(97,114).
att(97,112).
att(97,111).
att(97,107).
att(97,104).
att(97,101).
att(97,98).
att(97,96).
att(97,95).
att(97,94).
att(97,93).
att(97,90).
att(97,89).
att(97,86).
att(97,82).
att(97,81).
att(97,79).
att(97,78).
att(97,75).
att(97,74).
att(97,71).
att(97,66).
att(97,62).
att(97,61).
att(97,60).
att(97,59).
att(97,55).
att(97,54).
att(97,51).
att(97,49).
att(97,48).
att(97,43).
att(97,40).
att(97,39).
att(97,38).
att(97,37).
att(97,36).
att(97,35).
att(97,34).
att(97,30).
att(97,25).
att(97,24).
att(97,21).
att(97,19).
att(97,18).
att(97,16).
att(97,12).
att(97,11).
att(97,10).
att(97,9).
att(97,5).
att(97,2).
att(96,120).
att(96,119).
att(96,118).
att(96,117).
att(96,114).
att(96,113).
att(96,112).
att(96,111).
att(96,109).
att(96,107).
att(96,106).
att(96,105).
att(96,104).
att(96,103).
att(96,102).
att(96,101).
att(96,98).
att(96,97).
att(96,96).
att(96,95).
att(96,94).
att(96,93).
att(96,92).
att(96,90).
att(96,89).
att(96,88).
att(96,87).
att(96,86).
att(96,84).
att(96,83).
att(96,82).
att(96,81).
att(96,80).
att(96,79).
att(96,78).
att(96,77).
att(96,76).
att(96,75).
att(96,74).
att(96,73).
att(96,71).
att(96,67).
att(96,66).
att(96,65).
att(96,63).
att(96,62).
att(96,61).
att(96,60).
att(96,59).
att(96,58).
att(96,55).
att(96,54).
att(96,53).
att(96,51).
att(96,50).
att(96,49).
att(96,48).
att(96,47).
att(96,45).
att(96,44).
att(96,43).
att(96,41).
att(96,40).
att(96,39).
att(96,38).
att(96,37).
att(96,36).
att(96,35).
att(96,34).
att(96,33).
att(96,32).
att(96,31).
att(96,30).
att(96,29).
att(96,28).
att(96,26).
att(96,25).
att(96,24).
att(96,22).
att(96,21).
att(96,20).
att(96,19).
att(96,18).
att(96,17).
att(96,16).
att(96,15).
att(96,14).
att(96,12).
att(96,11).
att(96,10).
att(96,9).
att(96,8).
att(96,7).
att(96,5).
att(96,4).
att(96,3).
att(96,2).
att(96,1).
att(95,120).
att(95,119).
att(95,118).
att(95,113).
att(95,112).
att(95,111).
att(95,110).
att(95,109).
att(95,107).
att(95,106).
att(95,105).
att(95,104).
att(95,103).
att(95,102).
att(95,98).
att(95,97).
att(95,96).
att(95,95).
att(95,94).
att(95,93).
att(95,92).
att(95,89).
att(95,88).
att(95,84).
att(95,83).
att(95,82).
att(95,81).
att(95,78).
att(95,77).
att(95,76).
att(95,73).
att(95,71).
att(95,67).
att(95,66).
att(95,65).
att(95,63).
att(95,62).
att(95,61).
att(95,60).
att(95,59).
att(95,58).
att(95,55).
att(95,54).
att(95,53).
att(95,52).
att(95,51).
att(95,49).
att(95,48).
att(95,47).
att(95,45).
att(95,44).
att(95,43).
att(95,41).
att(95,40).
att(95,39).
att(95,38).
att(95,37).
att(95,36).
att(95,35).
att(95,34).
att(95,33).
att(95,32).
att(95,31).
att(95,30).
att(95,29).
att(95,28).
att(95,26).
att(95,20).
att(95,18).
att(95,17).
att(95,16).
att(95,15).
att(95,14).
att(95,12).
att(95,11).
att(95,10).
att(95,9).
att(95,7).
att(95,5).
att(95,3).
att(95,1).
att(94,120).
att(94,119).
att(94,118).
att(94,117).
att(94,114).
att(94,112).
att(94,111).
att(94,107).
att(94,106).
att(94,104).
att(94,101).
att(94,98).
att(94,97).
att(94,96).
att(94,95).
att(94,94).
att(94,93).
att(94,90).
att(94,89).
att(94,88).
att(94,87).
att(94,86).
att(94,83).
att(94,82).
att(94,81).
att(94,80).
att(94,79).
att(94,78).
att(94,77).
att(94,76).
att(94,75).
att(94,74).
att(94,71).
att(94,67).
att(94,66).
att(94,65).
att(94,62).
att(94,61).
att(94,60).
att(94,59).
att(94,55).
att(94,54).
att(94,53).
att(94,51).
att(94,50).
att(94,49).
att(94,48).
att(94,47).
att(94,45).
att(94,43).
att(94,41).
att(94,40).
att(94,39).
att(94,38).
att(94,37).
att(94,36).
att(94,35).
att(94,34).
att(94,32).
att(94,31).
att(94,30).
att(94,25).
att(94,24).
att(94,21).
att(94,19).
att(94,18).
att(94,16).
att(94,12).
att(94,11).
att(94,10).
att(94,9).
att(94,5).
att(94,4).
att(94,3).
att(94,2).
att(93,120).
att(93,119).
att(93,118).
att(93,113).
att(93,112).
att(93,111).
att(93,110).
att(93,109).
att(93,107).
att(93,106).
att(93,105).
att(93,104).
att(93,103).
att(93,102).
att(93,98).
att(93,97).
att(93,96).
att(93,95).
att(93,93).
att(93,92).
att(93,89).
att(93,88).
att(93,84).
att(93,83).
att(93,82).
att(93,81).
att(93,78).
att(93,77).
att(93,76).
att(93,73).
att(93,71).
att(93,67).
att(93,66).
att(93,65).
att(93,63).
att(93,62).
att(93,61).
att(93,60).
att(93,59).
att(93,58).
att(93,57).
att(93,55).
att(93,54).
att(93,53).
att(93,52).
att(93,51).
att(93,49).
att(93,48).
att(93,47).
att(93,45).
att(93,43).
att(93,41).
att(93,40).
att(93,39).
att(93,38).
att(93,36).
att(93,35).
att(93,34).
att(93,33).
att(93,32).
att(93,31).
att(93,30).
att(93,29).
att(93,28).
att(93,26).
att(93,20).
att(93,18).
att(93,17).
att(93,16).
att(93,15).
att(93,12).
att(93,11).
att(93,10).
att(93,9).
att(93,7).
att(93,5).
att(93,3).
att(93,1).
att(92,111).
att(92,110).
att(92,106).
att(92,104).
att(92,98).
att(92,97).
att(92,95).
att(92,92).
att(92,89).
att(92,82).
att(92,81).
att(92,78).
att(92,71).
att(92,62).
att(92,57).
att(92,55).
att(92,54).
att(92,52).
att(92,45).
att(92,40).
att(92,39).
att(92,35).
att(92,32).
att(92,18).
att(92,17).
att(92,16).
att(92,15).
att(92,12).
att(92,9).
att(92,5).
att(91,120).
att(91,119).
att(91,118).
att(91,117).
att(91,114).
att(91,112).
att(91,111).
att(91,110).
att(91,107).
att(91,106).
att(91,104).
att(91,101).
att(91,98).
att(91,97).
att(91,96).
att(91,95).
att(91,94).
att(91,93).
att(91,92).
att(91,90).
att(91,89).
att(91,88).
att(91,87).
att(91,86).
att(91,83).
att(91,82).
att(91,81).
att(91,80).
att(91,79).
att(91,78).
att(91,77).
att(91,76).
att(91,75).
att(91,74).
att(91,71).
att(91,67).
att(91,66).
att(91,65).
att(91,62).
att(91,61).
att(91,60).
att(91,59).
att(91,55).
att(91,54).
att(91,53).
att(91,52).
att(91,51).
att(91,50).
att(91,49).
att(91,48).
att(91,47).
att(91,45).
att(91,44).
att(91,43).
att(91,41).
att(91,40).
att(91,39).
att(91,38).
att(91,37).
att(91,36).
att(91,35).
att(91,34).
att(91,33).
att(91,32).
att(91,31).
att(91,30).
att(91,25).
att(91,24).
att(91,21).
att(91,19).
att(91,18).
att(91,17).
att(91,16).
att(91,15).
att(91,14).
att(91,12).
att(91,11).
att(91,10).
att(91,9).
att(91,6).
att(91,5).
att(91,4).
att(91,3).
att(91,2).
att(90,120).
att(90,119).
att(90,118).
att(90,117).
att(90,114).
att(90,112).
att(90,111).
att(90,110).
att(90,109).
att(90,107).
att(90,106).
att(90,104).
att(90,103).
att(90,102).
att(90,101).
att(90,100).
att(90,98).
att(90,97).
att(90,96).
att(90,95).
att(90,94).
att(90,93).
att(90,92).
att(90,90).
att(90,89).
att(90,88).
att(90,87).
att(90,86).
att(90,84).
att(90,83).
att(90,82).
att(90,81).
att(90,80).
att(90,79).
att(90,78).
att(90,77).
att(90,76).
att(90,75).
att(90,74).
att(90,71).
att(90,67).
att(90,66).
att(90,65).
att(90,63).
att(90,62).
att(90,61).
att(90,60).
att(90,59).
att(90,55).
att(90,54).
att(90,53).
att(90,52).
att(90,51).
att(90,50).
att(90,49).
att(90,48).
att(90,47).
att(90,46).
att(90,45).
att(90,44).
att(90,43).
att(90,41).
att(90,40).
att(90,39).
att(90,38).
att(90,37).
att(90,36).
att(90,35).
att(90,34).
att(90,33).
att(90,32).
att(90,31).
att(90,30).
att(90,29).
att(90,26).
att(90,25).
att(90,24).
att(90,22).
att(90,21).
att(90,20).
att(90,19).
att(90,18).
att(90,17).
att(90,16).
att(90,15).
att(90,14).
att(90,13).
att(90,12).
att(90,11).
att(90,10).
att(90,9).
att(90,7).
att(90,6).
att(90,5).
att(90,4).
att(90,3).
att(90,2).
att(89,120).
att(89,119).
att(89,118).
att(89,117).
att(89,114).
att(89,113).
att(89,112).
att(89,111).
att(89,110).
att(89,109).
att(89,107).
att(89,106).
att(89,105).
att(89,104).
att(89,103).
att(89,102).
att(89,101).
att(89,98).
att(89,97).
att(89,96).
att(89,95).
att(89,94).
att(89,93).
att(89,92).
att(89,90).
att(89,89).
att(89,88).
att(89,87).
att(89,86).
att(89,84).
att(89,83).
att(89,82).
att(89,81).
att(89,80).
att(89,79).
att(89,78).
att(89,77).
att(89,76).
att(89,75).
att(89,74).
att(89,73).
att(89,71).
att(89,67).
att(89,66).
att(89,65).
att(89,63).
att(89,62).
att(89,61).
att(89,60).
att(89,59).
att(89,58).
att(89,57).
att(89,55).
att(89,54).
att(89,53).
att(89,52).
att(89,51).
att(89,50).
att(89,49).
att(89,48).
att(89,47).
att(89,46).
att(89,45).
att(89,43).
att(89,41).
att(89,40).
att(89,39).
att(89,38).
att(89,37).
att(89,36).
att(89,35).
att(89,34).
att(89,33).
att(89,32).
att(89,31).
att(89,30).
att(89,29).
att(89,28).
att(89,26).
att(89,25).
att(89,24).
att(89,22).
att(89,21).
att(89,20).
att(89,19).
att(89,18).
att(89,17).
att(89,16).
att(89,15).
att(89,13).
att(89,12).
att(89,11).
att(89,10).
att(89,9).
att(89,8).
att(89,7).
att(89,5).
att(89,4).
att(89,3).
att(89,2).
att(89,1).
att(86,120).
att(86,119).
att(86,118).
att(86,117).
att(86,114).
att(86,112).
att(86,111).
att(86,110).
att(86,107).
att(86,106).
att(86,104).
att(86,102).
att(86,101).
att(86,100).
att(86,98).
att(86,97).
att(86,96).
att(86,95).
att(86,94).
att(86,93).
att(86,92).
att(86,90).
att(86,89).
att(86,88).
att(86,87).
att(86,86).
att(86,84).
att(86,83).
att(86,82).
att(86,81).
att(86,80).
att(86,79).
att(86,78).
att(86,77).
att(86,76).
att(86,75).
att(86,74).
att(86,71).
att(86,67).
att(86,66).
att(86,65).
att(86,62).
att(86,61).
att(86,60).
att(86,59).
att(86,55).
att(86,54).
att(86,53).
att(86,52).
att(86,51).
att(86,50).
att(86,49).
att(86,48).
att(86,47).
att(86,45).
att(86,43).
att(86,41).
att(86,40).
att(86,39).
att(86,38).
att(86,37).
att(86,36).
att(86,35).
att(86,34).
att(86,32).
att(86,31).
att(86,30).
att(86,29).
att(86,25).
att(86,24).
att(86,21).
att(86,19).
att(86,18).
att(86,17).
att(86,16).
att(86,15).
att(86,12).
att(86,11).
att(86,10).
att(86,9).
att(86,6).
att(86,5).
att(86,4).
att(86,3).
att(86,2).
att(85,120).
att(85,119).
att(85,118).
att(85,117).
att(85,114).
att(85,113).
att(85,112).
att(85,111).
att(85,110).
att(85,109).
att(85,107).
att(85,106).
att(85,105).
att(85,104).
att(85,103).
att(85,102).
att(85,101).
att(85,98).
att(85,97).
att(85,96).
att(85,95).
att(85,94).
att(85,93).
att(85,92).
att(85,90).
att(85,89).
att(85,88).
att(85,87).
att(85,86).
att(85,84).
att(85,83).
att(85,82).
att(85,81).
att(85,80).
att(85,79).
att(85,78).
att(85,77).
att(85,76).
att(85,75).
att(85,74).
att(85,73).
att(85,71).
att(85,67).
att(85,66).
att(85,65).
att(85,63).
att(85,62).
att(85,61).
att(85,60).
att(85,59).
att(85,58).
att(85,55).
att(85,54).
att(85,53).
att(85,52).
att(85,51).
att(85,50).
att(85,49).
att(85,48).
att(85,47).
att(85,45).
att(85,43).
att(85,41).
att(85,40).
att(85,39).
att(85,38).
att(85,37).
att(85,36).
att(85,35).
att(85,34).
att(85,33).
att(85,32).
att(85,31).
att(85,30).
att(85,29).
att(85,28).
att(85,26).
att(85,25).
att(85,24).
att(85,21).
att(85,20).
att(85,19).
att(85,18).
att(85,16).
att(85,15).
att(85,12).
att(85,11).
att(85,10).
att(85,9).
att(85,7).
att(85,5).
att(85,4).
att(85,3).
att(85,2).
att(85,1).
att(83,120).
att(83,118).
att(83,117).
att(83,114).
att(83,112).
att(83,111).
att(83,107).
att(83,104).
att(83,101).
att(83,98).
att(83,96).
att(83,95).
att(83,94).
att(83,93).
att(83,90).
att(83,89).
att(83,86).
att(83,82).
att(83,81).
att(83,79).
att(83,78).
att(83,75).
att(83,74).
att(83,71).
att(83,66).
att(83,62).
att(83,61).
att(83,60).
att(83,59).
att(83,55).
att(83,54).
att(83,51).
att(83,49).
att(83,48).
att(83,43).
att(83,40).
att(83,39).
att(83,38).
att(83,37).
att(83,36).
att(83,35).
att(83,34).
att(83,30).
att(83,25).
att(83,24).
att(83,21).
att(83,19).
att(83,18).
att(83,17).
att(83,16).
att(83,12).
att(83,11).
att(83,10).
att(83,9).
att(83,6).
att(83,5).
att(83,2).
att(82,120).
att(82,119).
att(82,118).
att(82,117).
att(82,114).
att(82,113).
att(82,112).
att(82,111).
att(82,110).
att(82,109).
att(82,107).
att(82,106).
att(82,105).
att(82,104).
att(82,103).
att(82,102).
att(82,101).
att(82,98).
att(82,97).
att(82,96).
att(82,95).
att(82,94).
att(82,93).
att(82,92).
att(82,90).
att(82,89).
att(82,88).
att(82,87).
att(82,86).
att(82,84).
att(82,83).
att(82,82).
att(82,81).
att(82,80).
att(82,79).
att(82,78).
att(82,77).
att(82,76).
att(82,75).
att(82,74).
att(82,73).
att(82,71).
att(82,67).
att(82,66).
att(82,65).
att(82,63).
att(82,62).
att(82,61).
att(82,60).
att(82,59).
att(82,58).
att(82,57).
att(82,55).
att(82,54).
att(82,53).
att(82,52).
att(82,51).
att(82,50).
att(82,49).
att(82,48).
att(82,47).
att(82,46).
att(82,45).
att(82,44).
att(82,43).
att(82,41).
att(82,40).
att(82,39).
att(82,38).
att(82,37).
att(82,36).
att(82,35).
att(82,34).
att(82,33).
att(82,32).
att(82,31).
att(82,30).
att(82,29).
att(82,28).
att(82,26).
att(82,25).
att(82,24).
att(82,22).
att(82,21).
att(82,20).
att(82,19).
att(82,18).
att(82,17).
att(82,16).
att(82,15).
att(82,14).
att(82,13).
att(82,12).
att(82,11).
att(82,10).
att(82,9).
att(82,8).
att(82,7).
att(82,5).
att(82,4).
att(82,3).
att(82,2).
att(82,1).
att(81,120).
att(81,119).
att(81,118).
att(81,117).
att(81,114).
att(81,113).
att(81,112).
att(81,111).
att(81,109).
att(81,107).
att(81,106).
att(81,105).
att(81,104).
att(81,103).
att(81,102).
att(81,101).
att(81,98).
att(81,97).
att(81,96).
att(81,95).
att(81,94).
att(81,93).
att(81,92).
att(81,90).
att(81,89).
att(81,88).
att(81,87).
att(81,86).
att(81,84).
att(81,83).
att(81,82).
att(81,81).
att(81,80).
att(81,79).
att(81,78).
att(81,77).
att(81,76).
att(81,75).
att(81,74).
att(81,73).
att(81,71).
att(81,67).
att(81,66).
att(81,65).
att(81,63).
att(81,62).
att(81,61).
att(81,60).
att(81,59).
att(81,58).
att(81,55).
att(81,54).
att(81,53).
att(81,51).
att(81,50).
att(81,49).
att(81,48).
att(81,47).
att(81,45).
att(81,44).
att(81,43).
att(81,41).
att(81,40).
att(81,39).
att(81,38).
att(81,37).
att(81,36).
att(81,35).
att(81,34).
att(81,33).
att(81,32).
att(81,31).
att(81,30).
att(81,29).
att(81,28).
att(81,26).
att(81,25).
att(81,24).
att(81,22).
att(81,21).
att(81,20).
att(81,19).
att(81,18).
att(81,17).
att(81,16).
att(81,15).
att(81,14).
att(81,12).
att(81,11).
att(81,10).
att(81,9).
att(81,8).
att(81,7).
att(81,5).
att(81,4).
att(81,3).
att(81,2).
att(81,1).
att(80,120).
att(80,119).
att(80,118).
att(80,117).
att(80,115).
att(80,114).
att(80,112).
att(80,111).
att(80,110).
att(80,107).
att(80,106).
att(80,104).
att(80,102).
att(80,101).
att(80,98).
att(80,97).
att(80,96).
att(80,95).
att(80,94).
att(80,93).
att(80,92).
att(80,90).
att(80,89).
att(80,88).
att(80,87).
att(80,86).
att(80,84).
att(80,83).
att(80,82).
att(80,81).
att(80,80).
att(80,79).
att(80,78).
att(80,77).
att(80,76).
att(80,75).
att(80,74).
att(80,72).
att(80,71).
att(80,69).
att(80,67).
att(80,66).
att(80,65).
att(80,62).
att(80,61).
att(80,60).
att(80,59).
att(80,57).
att(80,55).
att(80,54).
att(80,53).
att(80,52).
att(80,51).
att(80,50).
att(80,49).
att(80,48).
att(80,47).
att(80,45).
att(80,43).
att(80,41).
att(80,40).
att(80,39).
att(80,38).
att(80,37).
att(80,36).
att(80,35).
att(80,34).
att(80,32).
att(80,31).
att(80,30).
att(80,29).
att(80,25).
att(80,24).
att(80,21).
att(80,19).
att(80,18).
att(80,17).
att(80,16).
att(80,15).
att(80,12).
att(80,11).
att(80,10).
att(80,9).
att(80,7).
att(80,5).
att(80,4).
att(80,3).
att(80,2).
att(79,120).
att(79,119).
att(79,118).
att(79,117).
att(79,114).
att(79,112).
att(79,111).
att(79,107).
att(79,106).
att(79,104).
att(79,101).
att(79,98).
att(79,97).
att(79,96).
att(79,95).
att(79,94).
att(79,93).
att(79,90).
att(79,89).
att(79,88).
att(79,87).
att(79,86).
att(79,83).
att(79,82).
att(79,81).
att(79,80).
att(79,79).
att(79,78).
att(79,77).
att(79,76).
att(79,75).
att(79,74).
att(79,71).
att(79,67).
att(79,66).
att(79,65).
att(79,62).
att(79,61).
att(79,60).
att(79,59).
att(79,55).
att(79,54).
att(79,53).
att(79,51).
att(79,50).
att(79,49).
att(79,48).
att(79,47).
att(79,45).
att(79,43).
att(79,41).
att(79,40).
att(79,39).
att(79,38).
att(79,37).
att(79,36).
att(79,35).
att(79,34).
att(79,32).
att(79,31).
att(79,30).
att(79,25).
att(79,24).
att(79,21).
att(79,19).
att(79,18).
att(79,16).
att(79,12).
att(79,11).
att(79,10).
att(79,9).
att(79,5).
att(79,4).
att(79,3).
att(79,2).
att(78,120).
att(78,119).
att(78,112).
att(78,111).
att(78,102).
att(78,100).
att(78,98).
att(78,96).
att(78,94).
att(78,93).
att(78,92).
att(78,90).
att(78,89).
att(78,84).
att(78,83).
att(78,82).
att(78,78).
att(78,74).
att(78,62).
att(78,60).
att(78,54).
att(78,53).
att(78,51).
att(78,49).
att(78,48).
att(78,47).
att(78,44).
att(78,41).
att(78,40).
att(78,37).
att(78,36).
att(78,34).
att(78,33).
att(78,29).
att(78,21).
att(78,18).
att(78,17).
att(78,16).
att(78,15).
att(78,14).
att(78,12).
att(78,10).
att(78,9).
att(78,5).
att(77,120).
att(77,119).
att(77,118).
att(77,117).
att(77,114).
att(77,112).
att(77,111).
att(77,110).
att(77,107).
att(77,106).
att(77,104).
att(77,101).
att(77,98).
att(77,97).
att(77,96).
att(77,95).
att(77,94).
att(77,93).
att(77,92).
att(77,90).
att(77,89).
att(77,88).
att(77,87).
att(77,86).
att(77,83).
att(77,82).
att(77,81).
att(77,80).
att(77,79).
att(77,78).
att(77,77).
att(77,76).
att(77,75).
att(77,74).
att(77,71).
att(77,67).
att(77,66).
att(77,65).
att(77,62).
att(77,61).
att(77,60).
att(77,59).
att(77,57).
att(77,55).
att(77,54).
att(77,53).
att(77,52).
att(77,51).
att(77,50).
att(77,49).
att(77,48).
att(77,47).
att(77,45).
att(77,44).
att(77,43).
att(77,41).
att(77,40).
att(77,39).
att(77,38).
att(77,37).
att(77,36).
att(77,35).
att(77,34).
att(77,33).
att(77,32).
att(77,31).
att(77,30).
att(77,25).
att(77,24).
att(77,21).
att(77,19).
att(77,18).
att(77,17).
att(77,16).
att(77,15).
att(77,14).
att(77,12).
att(77,11).
att(77,10).
att(77,9).
att(77,6).
att(77,5).
att(77,4).
att(77,3).
att(77,2).
att(75,120).
att(75,119).
att(75,118).
att(75,113).
att(75,112).
att(75,111).
att(75,109).
att(75,107).
att(75,106).
att(75,105).
att(75,103).
att(75,102).
att(75,98).
att(75,96).
att(75,95).
att(75,94).
att(75,93).
att(75,92).
att(75,89).
att(75,88).
att(75,84).
att(75,83).
att(75,82).
att(75,81).
att(75,78).
att(75,77).
att(75,76).
att(75,73).
att(75,67).
att(75,66).
att(75,65).
att(75,63).
att(75,62).
att(75,61).
att(75,60).
att(75,59).
att(75,58).
att(75,54).
att(75,53).
att(75,51).
att(75,49).
att(75,48).
att(75,47).
att(75,45).
att(75,44).
att(75,43).
att(75,41).
att(75,40).
att(75,39).
att(75,38).
att(75,37).
att(75,36).
att(75,34).
att(75,33).
att(75,31).
att(75,30).
att(75,29).
att(75,28).
att(75,26).
att(75,20).
att(75,18).
att(75,17).
att(75,16).
att(75,15).
att(75,14).
att(75,12).
att(75,11).
att(75,10).
att(75,9).
att(75,7).
att(75,5).
att(75,3).
att(75,1).
att(74,120).
att(74,119).
att(74,118).
att(74,117).
att(74,114).
att(74,112).
att(74,111).
att(74,110).
att(74,109).
att(74,107).
att(74,106).
att(74,104).
att(74,103).
att(74,102).
att(74,101).
att(74,100).
att(74,98).
att(74,97).
att(74,96).
att(74,95).
att(74,94).
att(74,93).
att(74,92).
att(74,90).
att(74,89).
att(74,88).
att(74,87).
att(74,86).
att(74,84).
att(74,83).
att(74,82).
att(74,81).
att(74,80).
att(74,79).
att(74,78).
att(74,77).
att(74,76).
att(74,75).
att(74,74).
att(74,71).
att(74,67).
att(74,66).
att(74,65).
att(74,63).
att(74,62).
att(74,61).
att(74,60).
att(74,59).
att(74,55).
att(74,54).
att(74,53).
att(74,52).
att(74,51).
att(74,50).
att(74,49).
att(74,48).
att(74,47).
att(74,46).
att(74,45).
att(74,43).
att(74,41).
att(74,40).
att(74,39).
att(74,38).
att(74,37).
att(74,36).
att(74,35).
att(74,34).
att(74,33).
att(74,32).
att(74,31).
att(74,30).
att(74,29).
att(74,26).
att(74,25).
att(74,24).
att(74,22).
att(74,21).
att(74,20).
att(74,19).
att(74,18).
att(74,17).
att(74,16).
att(74,15).
att(74,13).
att(74,12).
att(74,11).
att(74,10).
att(74,9).
att(74,7).
att(74,6).
att(74,5).
att(74,4).
att(74,3).
att(74,2).
att(73,120).
att(73,118).
att(73,114).
att(73,112).
att(73,111).
att(73,107).
att(73,104).
att(73,101).
att(73,98).
att(73,96).
att(73,95).
att(73,94).
att(73,93).
att(73,90).
att(73,89).
att(73,86).
att(73,82).
att(73,81).
att(73,79).
att(73,78).
att(73,75).
att(73,74).
att(73,71).
att(73,66).
att(73,62).
att(73,61).
att(73,60).
att(73,59).
att(73,55).
att(73,54).
att(73,51).
att(73,49).
att(73,48).
att(73,43).
att(73,40).
att(73,39).
att(73,38).
att(73,37).
att(73,36).
att(73,35).
att(73,34).
att(73,30).
att(73,25).
att(73,24).
att(73,21).
att(73,19).
att(73,18).
att(73,16).
att(73,12).
att(73,11).
att(73,10).
att(73,9).
att(73,5).
att(73,2).
att(72,120).
att(72,119).
att(72,118).
att(72,117).
att(72,114).
att(72,112).
att(72,111).
att(72,110).
att(72,107).
att(72,106).
att(72,104).
att(72,102).
att(72,101).
att(72,100).
att(72,98).
att(72,97).
att(72,96).
att(72,95).
att(72,94).
att(72,93).
att(72,92).
att(72,90).
att(72,89).
att(72,88).
att(72,87).
att(72,86).
att(72,84).
att(72,83).
att(72,82).
att(72,81).
att(72,80).
att(72,79).
att(72,78).
att(72,77).
att(72,76).
att(72,75).
att(72,74).
att(72,71).
att(72,67).
att(72,66).
att(72,65).
att(72,62).
att(72,61).
att(72,60).
att(72,59).
att(72,55).
att(72,54).
att(72,53).
att(72,52).
att(72,51).
att(72,50).
att(72,49).
att(72,48).
att(72,47).
att(72,45).
att(72,44).
att(72,43).
att(72,41).
att(72,40).
att(72,39).
att(72,38).
att(72,37).
att(72,36).
att(72,35).
att(72,34).
att(72,33).
att(72,32).
att(72,31).
att(72,30).
att(72,29).
att(72,25).
att(72,24).
att(72,21).
att(72,19).
att(72,18).
att(72,17).
att(72,16).
att(72,15).
att(72,14).
att(72,12).
att(72,11).
att(72,10).
att(72,9).
att(72,6).
att(72,5).
att(72,4).
att(72,3).
att(72,2).
att(71,120).
att(71,119).
att(71,118).
att(71,113).
att(71,112).
att(71,111).
att(71,110).
att(71,109).
att(71,107).
att(71,106).
att(71,105).
att(71,104).
att(71,103).
att(71,102).
att(71,98).
att(71,97).
att(71,96).
att(71,95).
att(71,94).
att(71,93).
att(71,92).
att(71,89).
att(71,88).
att(71,84).
att(71,83).
att(71,82).
att(71,81).
att(71,78).
att(71,77).
att(71,76).
att(71,73).
att(71,71).
att(71,67).
att(71,66).
att(71,65).
att(71,63).
att(71,62).
att(71,61).
att(71,60).
att(71,59).
att(71,58).
att(71,55).
att(71,54).
att(71,53).
att(71,52).
att(71,51).
att(71,49).
att(71,48).
att(71,47).
att(71,45).
att(71,44).
att(71,43).
att(71,41).
att(71,40).
att(71,39).
att(71,38).
att(71,37).
att(71,36).
att(71,35).
att(71,34).
att(71,33).
att(71,32).
att(71,31).
att(71,30).
att(71,29).
att(71,28).
att(71,26).
att(71,20).
att(71,18).
att(71,17).
att(71,16).
att(71,15).
att(71,14).
att(71,12).
att(71,11).
att(71,10).
att(71,9).
att(71,7).
att(71,5).
att(71,3).
att(71,1).
att(68,120).
att(68,111).
att(68,98).
att(68,96).
att(68,94).
att(68,89).
att(68,83).
att(68,82).
att(68,60).
att(68,54).
att(68,53).
att(68,51).
att(68,48).
att(68,47).
att(68,44).
att(68,40).
att(68,37).
att(68,36).
att(68,33).
att(68,18).
att(68,17).
att(68,16).
att(68,14).
att(68,12).
att(68,10).
att(68,9).
att(67,110).
att(67,106).
att(67,104).
att(67,97).
att(67,95).
att(67,92).
att(67,89).
att(67,81).
att(67,78).
att(67,71).
att(67,62).
att(67,55).
att(67,52).
att(67,45).
att(67,39).
att(67,35).
att(67,32).
att(67,18).
att(67,15).
att(67,5).
att(66,120).
att(66,119).
att(66,118).
att(66,117).
att(66,114).
att(66,113).
att(66,112).
att(66,111).
att(66,109).
att(66,107).
att(66,106).
att(66,105).
att(66,104).
att(66,103).
att(66,102).
att(66,101).
att(66,98).
att(66,97).
att(66,96).
att(66,95).
att(66,94).
att(66,93).
att(66,92).
att(66,90).
att(66,89).
att(66,88).
att(66,87).
att(66,86).
att(66,84).
att(66,83).
att(66,82).
att(66,81).
att(66,80).
att(66,79).
att(66,78).
att(66,77).
att(66,76).
att(66,75).
att(66,74).
att(66,73).
att(66,71).
att(66,67).
att(66,66).
att(66,65).
att(66,63).
att(66,62).
att(66,61).
att(66,60).
att(66,59).
att(66,58).
att(66,55).
att(66,54).
att(66,53).
att(66,51).
att(66,50).
att(66,49).
att(66,48).
att(66,47).
att(66,45).
att(66,44).
att(66,43).
att(66,41).
att(66,40).
att(66,39).
att(66,38).
att(66,37).
att(66,36).
att(66,35).
att(66,34).
att(66,33).
att(66,32).
att(66,31).
att(66,30).
att(66,29).
att(66,28).
att(66,26).
att(66,25).
att(66,24).
att(66,22).
att(66,21).
att(66,20).
att(66,19).
att(66,18).
att(66,17).
att(66,16).
att(66,15).
att(66,14).
att(66,12).
att(66,11).
att(66,10).
att(66,9).
att(66,8).
att(66,7).
att(66,5).
att(66,4).
att(66,3).
att(66,2).
att(66,1).
att(65,118).
att(65,117).
att(65,111).
att(65,107).
att(65,106).
att(65,101).
att(65,98).
att(65,97).
att(65,96).
att(65,94).
att(65,90).
att(65,89).
att(65,88).
att(65,87).
att(65,82).
att(65,81).
att(65,79).
att(65,74).
att(65,67).
att(65,66).
att(65,54).
att(65,50).
att(65,49).
att(65,48).
att(65,45).
att(65,43).
att(65,41).
att(65,40).
att(65,38).
att(65,35).
att(65,32).
att(65,31).
att(65,30).
att(65,21).
att(65,19).
att(65,18).
att(65,16).
att(65,12).
att(65,11).
att(65,10).
att(65,9).
att(64,120).
att(64,118).
att(64,117).
att(64,114).
att(64,112).
att(64,111).
att(64,107).
att(64,106).
att(64,104).
att(64,101).
att(64,98).
att(64,97).
att(64,96).
att(64,95).
att(64,94).
att(64,93).
att(64,90).
att(64,89).
att(64,88).
att(64,87).
att(64,86).
att(64,82).
att(64,81).
att(64,79).
att(64,78).
att(64,75).
att(64,74).
att(64,71).
att(64,67).
att(64,66).
att(64,62).
att(64,61).
att(64,60).
att(64,59).
att(64,55).
att(64,54).
att(64,51).
att(64,50).
att(64,49).
att(64,48).
att(64,45).
att(64,43).
att(64,41).
att(64,40).
att(64,39).
att(64,38).
att(64,37).
att(64,36).
att(64,35).
att(64,34).
att(64,32).
att(64,31).
att(64,30).
att(64,25).
att(64,24).
att(64,21).
att(64,19).
att(64,18).
att(64,16).
att(64,12).
att(64,11).
att(64,10).
att(64,9).
att(64,5).
att(64,2).
att(63,118).
att(63,117).
att(63,111).
att(63,107).
att(63,106).
att(63,101).
att(63,98).
att(63,97).
att(63,96).
att(63,94).
att(63,90).
att(63,89).
att(63,88).
att(63,87).
att(63,82).
att(63,81).
att(63,79).
att(63,74).
att(63,67).
att(63,66).
att(63,54).
att(63,50).
att(63,49).
att(63,48).
att(63,45).
att(63,43).
att(63,41).
att(63,40).
att(63,38).
att(63,35).
att(63,32).
att(63,31).
att(63,30).
att(63,21).
att(63,19).
att(63,18).
att(63,16).
att(63,12).
att(63,11).
att(63,10).
att(63,9).
att(62,120).
att(62,119).
att(62,118).
att(62,113).
att(62,112).
att(62,111).
att(62,109).
att(62,107).
att(62,106).
att(62,105).
att(62,103).
att(62,102).
att(62,98).
att(62,96).
att(62,95).
att(62,94).
att(62,93).
att(62,92).
att(62,89).
att(62,88).
att(62,84).
att(62,83).
att(62,82).
att(62,81).
att(62,78).
att(62,77).
att(62,76).
att(62,73).
att(62,67).
att(62,66).
att(62,65).
att(62,63).
att(62,62).
att(62,61).
att(62,60).
att(62,59).
att(62,58).
att(62,54).
att(62,53).
att(62,51).
att(62,49).
att(62,48).
att(62,47).
att(62,45).
att(62,44).
att(62,43).
att(62,41).
att(62,40).
att(62,39).
att(62,38).
att(62,37).
att(62,36).
att(62,34).
att(62,33).
att(62,31).
att(62,30).
att(62,29).
att(62,28).
att(62,26).
att(62,20).
att(62,18).
att(62,17).
att(62,16).
att(62,15).
att(62,14).
att(62,12).
att(62,11).
att(62,10).
att(62,9).
att(62,7).
att(62,5).
att(62,3).
att(62,1).
att(61,119).
att(61,118).
att(61,117).
att(61,114).
att(61,112).
att(61,111).
att(61,110).
att(61,109).
att(61,106).
att(61,103).
att(61,102).
att(61,98).
att(61,96).
att(61,94).
att(61,93).
att(61,92).
att(61,89).
att(61,84).
att(61,82).
att(61,81).
att(61,80).
att(61,79).
att(61,78).
att(61,66).
att(61,65).
att(61,63).
att(61,61).
att(61,54).
att(61,53).
att(61,51).
att(61,46).
att(61,45).
att(61,43).
att(61,41).
att(61,40).
att(61,38).
att(61,35).
att(61,34).
att(61,33).
att(61,31).
att(61,30).
att(61,29).
att(61,26).
att(61,22).
att(61,20).
att(61,19).
att(61,18).
att(61,16).
att(61,13).
att(61,12).
att(61,11).
att(61,9).
att(61,7).
att(60,120).
att(60,119).
att(60,118).
att(60,117).
att(60,114).
att(60,112).
att(60,111).
att(60,110).
att(60,107).
att(60,106).
att(60,104).
att(60,101).
att(60,98).
att(60,97).
att(60,96).
att(60,95).
att(60,94).
att(60,93).
att(60,92).
att(60,90).
att(60,89).
att(60,88).
att(60,87).
att(60,86).
att(60,83).
att(60,82).
att(60,81).
att(60,80).
att(60,79).
att(60,78).
att(60,77).
att(60,76).
att(60,75).
att(60,74).
att(60,71).
att(60,67).
att(60,66).
att(60,65).
att(60,62).
att(60,61).
att(60,60).
att(60,59).
att(60,55).
att(60,54).
att(60,53).
att(60,52).
att(60,51).
att(60,50).
att(60,49).
att(60,48).
att(60,47).
att(60,45).
att(60,44).
att(60,43).
att(60,41).
att(60,40).
att(60,39).
att(60,38).
att(60,37).
att(60,36).
att(60,35).
att(60,34).
att(60,33).
att(60,32).
att(60,31).
att(60,30).
att(60,25).
att(60,24).
att(60,21).
att(60,19).
att(60,18).
att(60,17).
att(60,16).
att(60,15).
att(60,14).
att(60,12).
att(60,11).
att(60,10).
att(60,9).
att(60,6).
att(60,5).
att(60,4).
att(60,3).
att(60,2).
att(59,120).
att(59,119).
att(59,118).
att(59,113).
att(59,112).
att(59,111).
att(59,109).
att(59,107).
att(59,106).
att(59,105).
att(59,103).
att(59,102).
att(59,98).
att(59,96).
att(59,95).
att(59,94).
att(59,93).
att(59,92).
att(59,89).
att(59,88).
att(59,84).
att(59,83).
att(59,82).
att(59,81).
att(59,78).
att(59,77).
att(59,76).
att(59,73).
att(59,67).
att(59,66).
att(59,65).
att(59,63).
att(59,62).
att(59,61).
att(59,60).
att(59,59).
att(59,58).
att(59,54).
att(59,53).
att(59,51).
att(59,49).
att(59,48).
att(59,47).
att(59,45).
att(59,44).
att(59,43).
att(59,41).
att(59,40).
att(59,39).
att(59,38).
att(59,37).
att(59,36).
att(59,34).
att(59,33).
att(59,31).
att(59,30).
att(59,29).
att(59,28).
att(59,26).
att(59,20).
att(59,18).
att(59,17).
att(59,16).
att(59,15).
att(59,14).
att(59,12).
att(59,11).
att(59,10).
att(59,9).
att(59,7).
att(59,5).
att(59,3).
att(59,1).
att(58,120).
att(58,118).
att(58,114).
att(58,112).
att(58,111).
att(58,107).
att(58,104).
att(58,101).
att(58,98).
att(58,96).
att(58,95).
att(58,94).
att(58,93).
att(58,90).
att(58,89).
att(58,86).
att(58,82).
att(58,81).
att(58,79).
att(58,78).
att(58,75).
att(58,74).
att(58,71).
att(58,66).
att(58,62).
att(58,61).
att(58,60).
att(58,59).
att(58,55).
att(58,54).
att(58,51).
att(58,49).
att(58,48).
att(58,43).
att(58,40).
att(58,39).
att(58,38).
att(58,37).
att(58,36).
att(58,35).
att(58,34).
att(58,30).
att(58,25).
att(58,24).
att(58,21).
att(58,19).
att(58,18).
att(58,16).
att(58,12).
att(58,11).
att(58,10).
att(58,9).
att(58,5).
att(58,2).
att(55,120).
att(55,119).
att(55,118).
att(55,117).
att(55,115).
att(55,114).
att(55,112).
att(55,111).
att(55,110).
att(55,109).
att(55,106).
att(55,104).
att(55,103).
att(55,102).
att(55,98).
att(55,97).
att(55,96).
att(55,95).
att(55,94).
att(55,93).
att(55,92).
att(55,90).
att(55,89).
att(55,84).
att(55,82).
att(55,81).
att(55,80).
att(55,79).
att(55,78).
att(55,74).
att(55,72).
att(55,71).
att(55,69).
att(55,66).
att(55,65).
att(55,63).
att(55,62).
att(55,61).
att(55,60).
att(55,55).
att(55,54).
att(55,53).
att(55,52).
att(55,51).
att(55,50).
att(55,49).
att(55,48).
att(55,47).
att(55,46).
att(55,45).
att(55,43).
att(55,41).
att(55,40).
att(55,39).
att(55,38).
att(55,35).
att(55,34).
att(55,33).
att(55,32).
att(55,31).
att(55,30).
att(55,29).
att(55,26).
att(55,22).
att(55,21).
att(55,20).
att(55,19).
att(55,18).
att(55,16).
att(55,15).
att(55,13).
att(55,12).
att(55,11).
att(55,10).
att(55,9).
att(55,7).
att(55,5).
att(54,120).
att(54,119).
att(54,118).
att(54,117).
att(54,114).
att(54,113).
att(54,112).
att(54,111).
att(54,110).
att(54,109).
att(54,107).
att(54,106).
att(54,105).
att(54,104).
att(54,103).
att(54,102).
att(54,101).
att(54,98).
att(54,97).
att(54,96).
att(54,95).
att(54,94).
att(54,93).
att(54,92).
att(54,90).
att(54,89).
att(54,88).
att(54,87).
att(54,86).
att(54,84).
att(54,83).
att(54,82).
att(54,81).
att(54,80).
att(54,79).
att(54,78).
att(54,77).
att(54,76).
att(54,75).
att(54,74).
att(54,73).
att(54,71).
att(54,67).
att(54,66).
att(54,65).
att(54,63).
att(54,62).
att(54,61).
att(54,60).
att(54,59).
att(54,58).
att(54,57).
att(54,55).
att(54,54).
att(54,53).
att(54,52).
att(54,51).
att(54,50).
att(54,49).
att(54,48).
att(54,47).
att(54,46).
att(54,45).
att(54,43).
att(54,41).
att(54,40).
att(54,39).
att(54,38).
att(54,37).
att(54,36).
att(54,35).
att(54,34).
att(54,33).
att(54,32).
att(54,31).
att(54,30).
att(54,29).
att(54,28).
att(54,26).
att(54,25).
att(54,24).
att(54,22).
att(54,21).
att(54,20).
att(54,19).
att(54,18).
att(54,17).
att(54,16).
att(54,15).
att(54,13).
att(54,12).
att(54,11).
att(54,10).
att(54,9).
att(54,8).
att(54,7).
att(54,5).
att(54,4).
att(54,3).
att(54,2).
att(54,1).
att(53,120).
att(53,118).
att(53,117).
att(53,114).
att(53,112).
att(53,111).
att(53,107).
att(53,104).
att(53,101).
att(53,98).
att(53,96).
att(53,95).
att(53,94).
att(53,93).
att(53,90).
att(53,89).
att(53,86).
att(53,83).
att(53,82).
att(53,81).
att(53,79).
att(53,78).
att(53,75).
att(53,74).
att(53,71).
att(53,66).
att(53,62).
att(53,61).
att(53,60).
att(53,59).
att(53,55).
att(53,54).
att(53,53).
att(53,51).
att(53,49).
att(53,48).
att(53,47).
att(53,44).
att(53,43).
att(53,40).
att(53,39).
att(53,38).
att(53,37).
att(53,36).
att(53,35).
att(53,34).
att(53,33).
att(53,30).
att(53,25).
att(53,24).
att(53,21).
att(53,19).
att(53,18).
att(53,17).
att(53,16).
att(53,14).
att(53,12).
att(53,11).
att(53,10).
att(53,9).
att(53,6).
att(53,5).
att(53,2).
att(52,110).
att(52,106).
att(52,104).
att(52,97).
att(52,95).
att(52,92).
att(52,89).
att(52,81).
att(52,78).
att(52,71).
att(52,62).
att(52,55).
att(52,52).
att(52,45).
att(52,39).
att(52,35).
att(52,32).
att(52,18).
att(52,15).
att(52,5).
att(51,120).
att(51,118).
att(51,117).
att(51,114).
att(51,112).
att(51,111).
att(51,107).
att(51,104).
att(51,101).
att(51,98).
att(51,96).
att(51,95).
att(51,94).
att(51,93).
att(51,90).
att(51,89).
att(51,86).
att(51,83).
att(51,82).
att(51,81).
att(51,79).
att(51,78).
att(51,75).
att(51,74).
att(51,71).
att(51,66).
att(51,62).
att(51,61).
att(51,60).
att(51,59).
att(51,55).
att(51,54).
att(51,53).
att(51,51).
att(51,49).
att(51,48).
att(51,47).
att(51,44).
att(51,43).
att(51,40).
att(51,39).
att(51,38).
att(51,37).
att(51,36).
att(51,35).
att(51,34).
att(51,33).
att(51,30).
att(51,25).
att(51,24).
att(51,21).
att(51,19).
att(51,18).
att(51,17).
att(51,16).
att(51,14).
att(51,12).
att(51,11).
att(51,10).
att(51,9).
att(51,6).
att(51,5).
att(51,2).
att(49,120).
att(49,119).
att(49,118).
att(49,117).
att(49,114).
att(49,112).
att(49,111).
att(49,110).
att(49,109).
att(49,107).
att(49,106).
att(49,104).
att(49,103).
att(49,102).
att(49,101).
att(49,100).
att(49,98).
att(49,97).
att(49,96).
att(49,95).
att(49,94).
att(49,93).
att(49,92).
att(49,90).
att(49,89).
att(49,88).
att(49,87).
att(49,86).
att(49,84).
att(49,83).
att(49,82).
att(49,81).
att(49,80).
att(49,79).
att(49,78).
att(49,77).
att(49,76).
att(49,75).
att(49,74).
att(49,71).
att(49,67).
att(49,66).
att(49,65).
att(49,63).
att(49,62).
att(49,61).
att(49,60).
att(49,59).
att(49,55).
att(49,54).
att(49,53).
att(49,52).
att(49,51).
att(49,50).
att(49,49).
att(49,48).
att(49,47).
att(49,46).
att(49,45).
att(49,43).
att(49,41).
att(49,40).
att(49,39).
att(49,38).
att(49,37).
att(49,36).
att(49,35).
att(49,34).
att(49,33).
att(49,32).
att(49,31).
att(49,30).
att(49,29).
att(49,26).
att(49,25).
att(49,24).
att(49,22).
att(49,21).
att(49,20).
att(49,19).
att(49,18).
att(49,17).
att(49,16).
att(49,15).
att(49,13).
att(49,12).
att(49,11).
att(49,10).
att(49,9).
att(49,7).
att(49,6).
att(49,5).
att(49,4).
att(49,3).
att(49,2).
att(48,120).
att(48,119).
att(48,118).
att(48,117).
att(48,114).
att(48,112).
att(48,111).
att(48,110).
att(48,109).
att(48,107).
att(48,106).
att(48,104).
att(48,103).
att(48,102).
att(48,101).
att(48,100).
att(48,98).
att(48,97).
att(48,96).
att(48,95).
att(48,94).
att(48,93).
att(48,92).
att(48,90).
att(48,89).
att(48,88).
att(48,87).
att(48,86).
att(48,84).
att(48,83).
att(48,82).
att(48,81).
att(48,80).
att(48,79).
att(48,78).
att(48,77).
att(48,76).
att(48,75).
att(48,74).
att(48,71).
att(48,67).
att(48,66).
att(48,65).
att(48,63).
att(48,62).
att(48,61).
att(48,60).
att(48,59).
att(48,55).
att(48,54).
att(48,53).
att(48,52).
att(48,51).
att(48,50).
att(48,49).
att(48,48).
att(48,47).
att(48,46).
att(48,45).
att(48,43).
att(48,41).
att(48,40).
att(48,39).
att(48,38).
att(48,37).
att(48,36).
att(48,35).
att(48,34).
att(48,33).
att(48,32).
att(48,31).
att(48,30).
att(48,29).
att(48,26).
att(48,25).
att(48,24).
att(48,22).
att(48,21).
att(48,20).
att(48,19).
att(48,18).
att(48,17).
att(48,16).
att(48,15).
att(48,13).
att(48,12).
att(48,11).
att(48,10).
att(48,9).
att(48,7).
att(48,6).
att(48,5).
att(48,4).
att(48,3).
att(48,2).
att(47,120).
att(47,119).
att(47,118).
att(47,117).
att(47,114).
att(47,112).
att(47,111).
att(47,110).
att(47,107).
att(47,106).
att(47,104).
att(47,101).
att(47,98).
att(47,97).
att(47,96).
att(47,95).
att(47,94).
att(47,93).
att(47,92).
att(47,90).
att(47,89).
att(47,88).
att(47,87).
att(47,86).
att(47,83).
att(47,82).
att(47,81).
att(47,80).
att(47,79).
att(47,78).
att(47,77).
att(47,76).
att(47,75).
att(47,74).
att(47,71).
att(47,67).
att(47,66).
att(47,65).
att(47,62).
att(47,61).
att(47,60).
att(47,59).
att(47,55).
att(47,54).
att(47,53).
att(47,52).
att(47,51).
att(47,50).
att(47,49).
att(47,48).
att(47,47).
att(47,45).
att(47,44).
att(47,43).
att(47,41).
att(47,40).
att(47,39).
att(47,38).
att(47,37).
att(47,36).
att(47,35).
att(47,34).
att(47,33).
att(47,32).
att(47,31).
att(47,30).
att(47,25).
att(47,24).
att(47,21).
att(47,19).
att(47,18).
att(47,17).
att(47,16).
att(47,15).
att(47,14).
att(47,12).
att(47,11).
att(47,10).
att(47,9).
att(47,6).
att(47,5).
att(47,4).
att(47,3).
att(47,2).
att(45,120).
att(45,119).
att(45,118).
att(45,117).
att(45,113).
att(45,112).
att(45,111).
att(45,109).
att(45,107).
att(45,106).
att(45,105).
att(45,103).
att(45,102).
att(45,101).
att(45,100).
att(45,98).
att(45,97).
att(45,96).
att(45,95).
att(45,94).
att(45,93).
att(45,92).
att(45,90).
att(45,89).
att(45,88).
att(45,87).
att(45,84).
att(45,83).
att(45,82).
att(45,81).
att(45,79).
att(45,78).
att(45,77).
att(45,76).
att(45,74).
att(45,73).
att(45,67).
att(45,66).
att(45,65).
att(45,63).
att(45,62).
att(45,61).
att(45,60).
att(45,59).
att(45,58).
att(45,54).
att(45,53).
att(45,51).
att(45,50).
att(45,49).
att(45,48).
att(45,47).
att(45,45).
att(45,43).
att(45,41).
att(45,40).
att(45,39).
att(45,38).
att(45,36).
att(45,35).
att(45,34).
att(45,33).
att(45,32).
att(45,31).
att(45,30).
att(45,29).
att(45,28).
att(45,26).
att(45,21).
att(45,20).
att(45,19).
att(45,18).
att(45,16).
att(45,15).
att(45,12).
att(45,11).
att(45,10).
att(45,9).
att(45,7).
att(45,5).
att(45,3).
att(45,1).
att(44,120).
att(44,118).
att(44,114).
att(44,112).
att(44,111).
att(44,107).
att(44,104).
att(44,101).
att(44,98).
att(44,96).
att(44,95).
att(44,94).
att(44,93).
att(44,90).
att(44,89).
att(44,86).
att(44,82).
att(44,81).
att(44,79).
att(44,78).
att(44,75).
att(44,74).
att(44,71).
att(44,66).
att(44,62).
att(44,61).
att(44,60).
att(44,59).
att(44,55).
att(44,54).
att(44,51).
att(44,49).
att(44,48).
att(44,43).
att(44,40).
att(44,39).
att(44,38).
att(44,37).
att(44,36).
att(44,35).
att(44,34).
att(44,30).
att(44,25).
att(44,24).
att(44,21).
att(44,19).
att(44,18).
att(44,16).
att(44,12).
att(44,11).
att(44,10).
att(44,9).
att(44,5).
att(44,2).
att(43,120).
att(43,119).
att(43,118).
att(43,117).
att(43,114).
att(43,113).
att(43,112).
att(43,111).
att(43,109).
att(43,107).
att(43,106).
att(43,105).
att(43,104).
att(43,103).
att(43,102).
att(43,101).
att(43,98).
att(43,97).
att(43,96).
att(43,95).
att(43,94).
att(43,93).
att(43,92).
att(43,90).
att(43,89).
att(43,88).
att(43,87).
att(43,86).
att(43,84).
att(43,83).
att(43,82).
att(43,81).
att(43,80).
att(43,79).
att(43,78).
att(43,77).
att(43,76).
att(43,75).
att(43,74).
att(43,73).
att(43,71).
att(43,67).
att(43,66).
att(43,65).
att(43,63).
att(43,62).
att(43,61).
att(43,60).
att(43,59).
att(43,58).
att(43,55).
att(43,54).
att(43,53).
att(43,51).
att(43,50).
att(43,49).
att(43,48).
att(43,47).
att(43,45).
att(43,44).
att(43,43).
att(43,41).
att(43,40).
att(43,39).
att(43,38).
att(43,37).
att(43,36).
att(43,35).
att(43,34).
att(43,33).
att(43,32).
att(43,31).
att(43,30).
att(43,29).
att(43,28).
att(43,26).
att(43,25).
att(43,24).
att(43,22).
att(43,21).
att(43,20).
att(43,19).
att(43,18).
att(43,17).
att(43,16).
att(43,15).
att(43,14).
att(43,12).
att(43,11).
att(43,10).
att(43,9).
att(43,8).
att(43,7).
att(43,5).
att(43,4).
att(43,3).
att(43,2).
att(43,1).
att(42,120).
att(42,119).
att(42,118).
att(42,117).
att(42,114).
att(42,112).
att(42,111).
att(42,110).
att(42,107).
att(42,106).
att(42,104).
att(42,101).
att(42,98).
att(42,97).
att(42,96).
att(42,95).
att(42,94).
att(42,93).
att(42,92).
att(42,90).
att(42,89).
att(42,88).
att(42,87).
att(42,86).
att(42,83).
att(42,82).
att(42,81).
att(42,80).
att(42,79).
att(42,78).
att(42,77).
att(42,76).
att(42,75).
att(42,74).
att(42,71).
att(42,67).
att(42,66).
att(42,65).
att(42,62).
att(42,61).
att(42,60).
att(42,59).
att(42,55).
att(42,54).
att(42,53).
att(42,52).
att(42,51).
att(42,50).
att(42,49).
att(42,48).
att(42,47).
att(42,45).
att(42,43).
att(42,41).
att(42,40).
att(42,39).
att(42,38).
att(42,37).
att(42,36).
att(42,35).
att(42,34).
att(42,32).
att(42,31).
att(42,30).
att(42,25).
att(42,24).
att(42,21).
att(42,19).
att(42,18).
att(42,17).
att(42,16).
att(42,15).
att(42,12).
att(42,11).
att(42,10).
att(42,9).
att(42,6).
att(42,5).
att(42,4).
att(42,3).
att(42,2).
att(41,111).
att(41,110).
att(41,106).
att(41,104).
att(41,98).
att(41,97).
att(41,95).
att(41,92).
att(41,89).
att(41,82).
att(41,81).
att(41,78).
att(41,71).
att(41,62).
att(41,57).
att(41,55).
att(41,54).
att(41,52).
att(41,45).
att(41,40).
att(41,39).
att(41,35).
att(41,32).
att(41,18).
att(41,17).
att(41,16).
att(41,15).
att(41,12).
att(41,9).
att(41,5).
att(40,120).
att(40,119).
att(40,118).
att(40,117).
att(40,114).
att(40,113).
att(40,112).
att(40,111).
att(40,110).
att(40,109).
att(40,107).
att(40,106).
att(40,105).
att(40,104).
att(40,103).
att(40,102).
att(40,101).
att(40,98).
att(40,97).
att(40,96).
att(40,95).
att(40,94).
att(40,93).
att(40,92).
att(40,90).
att(40,89).
att(40,88).
att(40,87).
att(40,86).
att(40,84).
att(40,83).
att(40,82).
att(40,81).
att(40,80).
att(40,79).
att(40,78).
att(40,77).
att(40,76).
att(40,75).
att(40,74).
att(40,73).
att(40,71).
att(40,67).
att(40,66).
att(40,65).
att(40,63).
att(40,62).
att(40,61).
att(40,60).
att(40,59).
att(40,58).
att(40,57).
att(40,55).
att(40,54).
att(40,53).
att(40,52).
att(40,51).
att(40,50).
att(40,49).
att(40,48).
att(40,47).
att(40,46).
att(40,45).
att(40,43).
att(40,41).
att(40,40).
att(40,39).
att(40,38).
att(40,37).
att(40,36).
att(40,35).
att(40,34).
att(40,33).
att(40,32).
att(40,31).
att(40,30).
att(40,29).
att(40,28).
att(40,26).
att(40,25).
att(40,24).
att(40,22).
att(40,21).
att(40,20).
att(40,19).
att(40,18).
att(40,17).
att(40,16).
att(40,15).
att(40,13).
att(40,12).
att(40,11).
att(40,10).
att(40,9).
att(40,8).
att(40,7).
att(40,5).
att(40,4).
att(40,3).
att(40,2).
att(40,1).
att(39,120).
att(39,119).
att(39,118).
att(39,113).
att(39,112).
att(39,111).
att(39,109).
att(39,107).
att(39,106).
att(39,105).
att(39,103).
att(39,102).
att(39,98).
att(39,96).
att(39,95).
att(39,93).
att(39,92).
att(39,89).
att(39,88).
att(39,84).
att(39,83).
att(39,82).
att(39,81).
att(39,78).
att(39,77).
att(39,76).
att(39,73).
att(39,67).
att(39,66).
att(39,65).
att(39,63).
att(39,62).
att(39,61).
att(39,60).
att(39,59).
att(39,58).
att(39,57).
att(39,54).
att(39,53).
att(39,51).
att(39,49).
att(39,48).
att(39,47).
att(39,45).
att(39,43).
att(39,41).
att(39,40).
att(39,39).
att(39,38).
att(39,36).
att(39,34).
att(39,33).
att(39,31).
att(39,30).
att(39,29).
att(39,28).
att(39,26).
att(39,20).
att(39,18).
att(39,17).
att(39,16).
att(39,15).
att(39,12).
att(39,11).
att(39,10).
att(39,9).
att(39,7).
att(39,5).
att(39,3).
att(39,1).
att(38,120).
att(38,119).
att(38,118).
att(38,117).
att(38,114).
att(38,113).
att(38,112).
att(38,111).
att(38,109).
att(38,107).
att(38,106).
att(38,105).
att(38,104).
att(38,103).
att(38,102).
att(38,101).
att(38,98).
att(38,97).
att(38,96).
att(38,95).
att(38,94).
att(38,93).
att(38,92).
att(38,90).
att(38,89).
att(38,88).
att(38,87).
att(38,86).
att(38,84).
att(38,83).
att(38,82).
att(38,81).
att(38,80).
att(38,79).
att(38,78).
att(38,77).
att(38,76).
att(38,75).
att(38,74).
att(38,73).
att(38,71).
att(38,67).
att(38,66).
att(38,65).
att(38,63).
att(38,62).
att(38,61).
att(38,60).
att(38,59).
att(38,58).
att(38,55).
att(38,54).
att(38,53).
att(38,51).
att(38,50).
att(38,49).
att(38,48).
att(38,47).
att(38,45).
att(38,44).
att(38,43).
att(38,41).
att(38,40).
att(38,39).
att(38,38).
att(38,37).
att(38,36).
att(38,35).
att(38,34).
att(38,33).
att(38,32).
att(38,31).
att(38,30).
att(38,29).
att(38,28).
att(38,26).
att(38,25).
att(38,24).
att(38,22).
att(38,21).
att(38,20).
att(38,19).
att(38,18).
att(38,17).
att(38,16).
att(38,15).
att(38,14).
att(38,12).
att(38,11).
att(38,10).
att(38,9).
att(38,8).
att(38,7).
att(38,5).
att(38,4).
att(38,3).
att(38,2).
att(38,1).
att(37,120).
att(37,119).
att(37,118).
att(37,117).
att(37,114).
att(37,112).
att(37,111).
att(37,110).
att(37,109).
att(37,107).
att(37,106).
att(37,103).
att(37,102).
att(37,101).
att(37,100).
att(37,98).
att(37,97).
att(37,96).
att(37,94).
att(37,93).
att(37,92).
att(37,90).
att(37,89).
att(37,88).
att(37,87).
att(37,84).
att(37,83).
att(37,82).
att(37,81).
att(37,80).
att(37,79).
att(37,78).
att(37,74).
att(37,67).
att(37,66).
att(37,65).
att(37,63).
att(37,62).
att(37,61).
att(37,60).
att(37,54).
att(37,53).
att(37,51).
att(37,50).
att(37,49).
att(37,48).
att(37,47).
att(37,46).
att(37,45).
att(37,44).
att(37,43).
att(37,41).
att(37,40).
att(37,38).
att(37,37).
att(37,36).
att(37,35).
att(37,34).
att(37,33).
att(37,32).
att(37,31).
att(37,30).
att(37,29).
att(37,26).
att(37,22).
att(37,21).
att(37,20).
att(37,19).
att(37,18).
att(37,17).
att(37,16).
att(37,15).
att(37,14).
att(37,13).
att(37,12).
att(37,11).
att(37,10).
att(37,9).
att(37,7).
att(37,5).
att(35,120).
att(35,119).
att(35,118).
att(35,117).
att(35,114).
att(35,112).
att(35,111).
att(35,107).
att(35,106).
att(35,104).
att(35,101).
att(35,98).
att(35,97).
att(35,96).
att(35,95).
att(35,94).
att(35,93).
att(35,90).
att(35,89).
att(35,88).
att(35,87).
att(35,86).
att(35,83).
att(35,82).
att(35,81).
att(35,80).
att(35,79).
att(35,78).
att(35,77).
att(35,76).
att(35,75).
att(35,74).
att(35,71).
att(35,67).
att(35,66).
att(35,65).
att(35,62).
att(35,61).
att(35,60).
att(35,59).
att(35,55).
att(35,54).
att(35,53).
att(35,51).
att(35,50).
att(35,49).
att(35,48).
att(35,47).
att(35,45).
att(35,43).
att(35,41).
att(35,40).
att(35,39).
att(35,38).
att(35,37).
att(35,36).
att(35,35).
att(35,34).
att(35,32).
att(35,31).
att(35,30).
att(35,25).
att(35,24).
att(35,21).
att(35,19).
att(35,18).
att(35,16).
att(35,12).
att(35,11).
att(35,10).
att(35,9).
att(35,5).
att(35,4).
att(35,3).
att(35,2).
att(34,120).
att(34,119).
att(34,112).
att(34,111).
att(34,102).
att(34,100).
att(34,98).
att(34,96).
att(34,94).
att(34,93).
att(34,92).
att(34,90).
att(34,89).
att(34,84).
att(34,83).
att(34,82).
att(34,78).
att(34,74).
att(34,62).
att(34,60).
att(34,54).
att(34,53).
att(34,51).
att(34,49).
att(34,48).
att(34,47).
att(34,44).
att(34,41).
att(34,40).
att(34,37).
att(34,36).
att(34,34).
att(34,33).
att(34,29).
att(34,21).
att(34,18).
att(34,17).
att(34,16).
att(34,15).
att(34,14).
att(34,12).
att(34,10).
att(34,9).
att(34,5).
att(33,120).
att(33,118).
att(33,117).
att(33,114).
att(33,112).
att(33,111).
att(33,107).
att(33,106).
att(33,104).
att(33,101).
att(33,98).
att(33,97).
att(33,96).
att(33,95).
att(33,94).
att(33,93).
att(33,90).
att(33,89).
att(33,88).
att(33,87).
att(33,86).
att(33,82).
att(33,81).
att(33,79).
att(33,78).
att(33,75).
att(33,74).
att(33,71).
att(33,67).
att(33,66).
att(33,62).
att(33,61).
att(33,60).
att(33,59).
att(33,55).
att(33,54).
att(33,51).
att(33,50).
att(33,49).
att(33,48).
att(33,45).
att(33,43).
att(33,41).
att(33,40).
att(33,39).
att(33,38).
att(33,37).
att(33,36).
att(33,35).
att(33,34).
att(33,32).
att(33,31).
att(33,30).
att(33,25).
att(33,24).
att(33,21).
att(33,19).
att(33,18).
att(33,16).
att(33,12).
att(33,11).
att(33,10).
att(33,9).
att(33,5).
att(33,2).
att(32,120).
att(32,118).
att(32,114).
att(32,112).
att(32,111).
att(32,107).
att(32,104).
att(32,101).
att(32,98).
att(32,96).
att(32,95).
att(32,94).
att(32,93).
att(32,90).
att(32,89).
att(32,86).
att(32,82).
att(32,81).
att(32,79).
att(32,78).
att(32,75).
att(32,74).
att(32,71).
att(32,66).
att(32,62).
att(32,61).
att(32,60).
att(32,59).
att(32,55).
att(32,54).
att(32,51).
att(32,49).
att(32,48).
att(32,43).
att(32,40).
att(32,39).
att(32,38).
att(32,37).
att(32,36).
att(32,35).
att(32,34).
att(32,30).
att(32,25).
att(32,24).
att(32,21).
att(32,19).
att(32,18).
att(32,16).
att(32,12).
att(32,11).
att(32,10).
att(32,9).
att(32,5).
att(32,2).
att(31,120).
att(31,119).
att(31,118).
att(31,117).
att(31,114).
att(31,112).
att(31,111).
att(31,110).
att(31,107).
att(31,106).
att(31,104).
att(31,101).
att(31,98).
att(31,97).
att(31,96).
att(31,95).
att(31,94).
att(31,93).
att(31,92).
att(31,90).
att(31,89).
att(31,88).
att(31,87).
att(31,86).
att(31,83).
att(31,82).
att(31,81).
att(31,80).
att(31,79).
att(31,78).
att(31,77).
att(31,76).
att(31,75).
att(31,74).
att(31,71).
att(31,67).
att(31,66).
att(31,65).
att(31,62).
att(31,61).
att(31,60).
att(31,59).
att(31,57).
att(31,55).
att(31,54).
att(31,53).
att(31,52).
att(31,51).
att(31,50).
att(31,49).
att(31,48).
att(31,47).
att(31,45).
att(31,43).
att(31,41).
att(31,40).
att(31,39).
att(31,38).
att(31,37).
att(31,36).
att(31,35).
att(31,34).
att(31,32).
att(31,31).
att(31,30).
att(31,25).
att(31,24).
att(31,21).
att(31,19).
att(31,18).
att(31,17).
att(31,16).
att(31,15).
att(31,12).
att(31,11).
att(31,10).
att(31,9).
att(31,5).
att(31,4).
att(31,3).
att(31,2).
att(30,120).
att(30,119).
att(30,118).
att(30,117).
att(30,114).
att(30,112).
att(30,111).
att(30,107).
att(30,106).
att(30,104).
att(30,101).
att(30,98).
att(30,97).
att(30,96).
att(30,95).
att(30,94).
att(30,93).
att(30,90).
att(30,89).
att(30,88).
att(30,87).
att(30,86).
att(30,83).
att(30,82).
att(30,81).
att(30,80).
att(30,79).
att(30,78).
att(30,77).
att(30,76).
att(30,75).
att(30,74).
att(30,71).
att(30,67).
att(30,66).
att(30,65).
att(30,62).
att(30,61).
att(30,60).
att(30,59).
att(30,55).
att(30,54).
att(30,53).
att(30,51).
att(30,50).
att(30,49).
att(30,48).
att(30,47).
att(30,45).
att(30,43).
att(30,41).
att(30,40).
att(30,39).
att(30,38).
att(30,37).
att(30,36).
att(30,35).
att(30,34).
att(30,32).
att(30,31).
att(30,30).
att(30,25).
att(30,24).
att(30,21).
att(30,19).
att(30,18).
att(30,16).
att(30,12).
att(30,11).
att(30,10).
att(30,9).
att(30,5).
att(30,4).
att(30,3).
att(30,2).
att(29,120).
att(29,119).
att(29,118).
att(29,117).
att(29,114).
att(29,112).
att(29,111).
att(29,110).
att(29,107).
att(29,106).
att(29,104).
att(29,101).
att(29,98).
att(29,97).
att(29,96).
att(29,95).
att(29,94).
att(29,93).
att(29,92).
att(29,90).
att(29,89).
att(29,88).
att(29,87).
att(29,86).
att(29,83).
att(29,82).
att(29,81).
att(29,80).
att(29,79).
att(29,78).
att(29,77).
att(29,76).
att(29,75).
att(29,74).
att(29,71).
att(29,67).
att(29,66).
att(29,65).
att(29,62).
att(29,61).
att(29,60).
att(29,59).
att(29,57).
att(29,55).
att(29,54).
att(29,53).
att(29,52).
att(29,51).
att(29,50).
att(29,49).
att(29,48).
att(29,47).
att(29,45).
att(29,43).
att(29,41).
att(29,40).
att(29,39).
att(29,38).
att(29,37).
att(29,36).
att(29,35).
att(29,34).
att(29,32).
att(29,31).
att(29,30).
att(29,25).
att(29,24).
att(29,21).
att(29,19).
att(29,18).
att(29,17).
att(29,16).
att(29,15).
att(29,12).
att(29,11).
att(29,10).
att(29,9).
att(29,5).
att(29,4).
att(29,3).
att(29,2).
att(26,120).
att(26,118).
att(26,117).
att(26,114).
att(26,112).
att(26,111).
att(26,107).
att(26,106).
att(26,104).
att(26,101).
att(26,98).
att(26,97).
att(26,96).
att(26,95).
att(26,94).
att(26,93).
att(26,90).
att(26,89).
att(26,88).
att(26,87).
att(26,86).
att(26,82).
att(26,81).
att(26,79).
att(26,78).
att(26,75).
att(26,74).
att(26,71).
att(26,67).
att(26,66).
att(26,62).
att(26,61).
att(26,60).
att(26,59).
att(26,55).
att(26,54).
att(26,51).
att(26,50).
att(26,49).
att(26,48).
att(26,45).
att(26,43).
att(26,41).
att(26,40).
att(26,39).
att(26,38).
att(26,37).
att(26,36).
att(26,35).
att(26,34).
att(26,32).
att(26,31).
att(26,30).
att(26,25).
att(26,24).
att(26,21).
att(26,19).
att(26,18).
att(26,16).
att(26,12).
att(26,11).
att(26,10).
att(26,9).
att(26,5).
att(26,2).
att(25,120).
att(25,119).
att(25,118).
att(25,113).
att(25,112).
att(25,110).
att(25,109).
att(25,107).
att(25,106).
att(25,105).
att(25,104).
att(25,103).
att(25,102).
att(25,98).
att(25,97).
att(25,96).
att(25,95).
att(25,93).
att(25,92).
att(25,89).
att(25,88).
att(25,84).
att(25,83).
att(25,82).
att(25,81).
att(25,78).
att(25,77).
att(25,76).
att(25,73).
att(25,71).
att(25,67).
att(25,66).
att(25,65).
att(25,63).
att(25,62).
att(25,61).
att(25,60).
att(25,59).
att(25,58).
att(25,55).
att(25,54).
att(25,53).
att(25,52).
att(25,51).
att(25,49).
att(25,48).
att(25,47).
att(25,45).
att(25,43).
att(25,41).
att(25,40).
att(25,39).
att(25,38).
att(25,36).
att(25,35).
att(25,34).
att(25,33).
att(25,32).
att(25,31).
att(25,30).
att(25,29).
att(25,28).
att(25,26).
att(25,20).
att(25,18).
att(25,16).
att(25,15).
att(25,12).
att(25,11).
att(25,10).
att(25,7).
att(25,5).
att(25,3).
att(25,1).
att(23,119).
att(23,112).
att(23,102).
att(23,100).
att(23,93).
att(23,92).
att(23,90).
att(23,84).
att(23,83).
att(23,78).
att(23,74).
att(23,62).
att(23,53).
att(23,51).
att(23,49).
att(23,48).
att(23,47).
att(23,41).
att(23,34).
att(23,29).
att(23,21).
att(23,15).
att(23,10).
att(23,5).
att(22,111).
att(22,98).
att(22,89).
att(22,82).
att(22,78).
att(22,62).
att(22,57).
att(22,54).
att(22,40).
att(22,39).
att(22,18).
att(22,17).
att(22,16).
att(22,15).
att(22,12).
att(22,9).
att(22,5).
att(21,120).
att(21,119).
att(21,118).
att(21,117).
att(21,114).
att(21,112).
att(21,111).
att(21,110).
att(21,109).
att(21,107).
att(21,106).
att(21,104).
att(21,103).
att(21,102).
att(21,101).
att(21,100).
att(21,98).
att(21,97).
att(21,96).
att(21,95).
att(21,94).
att(21,93).
att(21,92).
att(21,90).
att(21,89).
att(21,88).
att(21,87).
att(21,86).
att(21,84).
att(21,83).
att(21,82).
att(21,81).
att(21,80).
att(21,79).
att(21,78).
att(21,77).
att(21,76).
att(21,75).
att(21,74).
att(21,71).
att(21,67).
att(21,66).
att(21,65).
att(21,63).
att(21,62).
att(21,61).
att(21,60).
att(21,59).
att(21,55).
att(21,54).
att(21,53).
att(21,52).
att(21,51).
att(21,50).
att(21,49).
att(21,48).
att(21,47).
att(21,46).
att(21,45).
att(21,43).
att(21,41).
att(21,40).
att(21,39).
att(21,38).
att(21,37).
att(21,36).
att(21,35).
att(21,34).
att(21,33).
att(21,32).
att(21,31).
att(21,30).
att(21,29).
att(21,26).
att(21,25).
att(21,24).
att(21,22).
att(21,21).
att(21,20).
att(21,19).
att(21,18).
att(21,17).
att(21,16).
att(21,15).
att(21,13).
att(21,12).
att(21,11).
att(21,10).
att(21,9).
att(21,7).
att(21,6).
att(21,5).
att(21,4).
att(21,3).
att(21,2).
att(20,119).
att(20,118).
att(20,117).
att(20,114).
att(20,112).
att(20,111).
att(20,110).
att(20,109).
att(20,106).
att(20,103).
att(20,102).
att(20,98).
att(20,96).
att(20,94).
att(20,93).
att(20,92).
att(20,89).
att(20,84).
att(20,82).
att(20,81).
att(20,80).
att(20,79).
att(20,78).
att(20,66).
att(20,65).
att(20,63).
att(20,61).
att(20,54).
att(20,53).
att(20,51).
att(20,46).
att(20,45).
att(20,43).
att(20,41).
att(20,40).
att(20,38).
att(20,35).
att(20,34).
att(20,33).
att(20,31).
att(20,30).
att(20,29).
att(20,26).
att(20,22).
att(20,20).
att(20,19).
att(20,18).
att(20,16).
att(20,13).
att(20,12).
att(20,11).
att(20,9).
att(20,7).
att(19,120).
att(19,119).
att(19,118).
att(19,117).
att(19,114).
att(19,112).
att(19,111).
att(19,107).
att(19,106).
att(19,104).
att(19,101).
att(19,98).
att(19,97).
att(19,96).
att(19,95).
att(19,94).
att(19,93).
att(19,90).
att(19,89).
att(19,88).
att(19,87).
att(19,86).
att(19,83).
att(19,82).
att(19,81).
att(19,80).
att(19,79).
att(19,78).
att(19,77).
att(19,76).
att(19,75).
att(19,74).
att(19,71).
att(19,67).
att(19,66).
att(19,65).
att(19,62).
att(19,61).
att(19,60).
att(19,59).
att(19,55).
att(19,54).
att(19,53).
att(19,51).
att(19,50).
att(19,49).
att(19,48).
att(19,47).
att(19,45).
att(19,43).
att(19,41).
att(19,40).
att(19,39).
att(19,38).
att(19,37).
att(19,36).
att(19,35).
att(19,34).
att(19,32).
att(19,31).
att(19,30).
att(19,25).
att(19,24).
att(19,21).
att(19,19).
att(19,18).
att(19,16).
att(19,12).
att(19,11).
att(19,10).
att(19,9).
att(19,5).
att(19,4).
att(19,3).
att(19,2).
att(18,120).
att(18,119).
att(18,118).
att(18,117).
att(18,114).
att(18,113).
att(18,112).
att(18,111).
att(18,110).
att(18,109).
att(18,107).
att(18,106).
att(18,105).
att(18,104).
att(18,103).
att(18,102).
att(18,101).
att(18,98).
att(18,97).
att(18,96).
att(18,95).
att(18,94).
att(18,93).
att(18,92).
att(18,90).
att(18,89).
att(18,88).
att(18,87).
att(18,86).
att(18,84).
att(18,83).
att(18,82).
att(18,81).
att(18,80).
att(18,79).
att(18,78).
att(18,77).
att(18,76).
att(18,75).
att(18,74).
att(18,73).
att(18,71).
att(18,67).
att(18,66).
att(18,65).
att(18,63).
att(18,62).
att(18,61).
att(18,60).
att(18,59).
att(18,58).
att(18,57).
att(18,55).
att(18,54).
att(18,53).
att(18,52).
att(18,51).
att(18,50).
att(18,49).
att(18,48).
att(18,47).
att(18,46).
att(18,45).
att(18,44).
att(18,43).
att(18,41).
att(18,40).
att(18,39).
att(18,38).
att(18,37).
att(18,36).
att(18,35).
att(18,34).
att(18,33).
att(18,32).
att(18,31).
att(18,30).
att(18,29).
att(18,28).
att(18,26).
att(18,25).
att(18,24).
att(18,22).
att(18,21).
att(18,20).
att(18,19).
att(18,18).
att(18,17).
att(18,16).
att(18,15).
att(18,14).
att(18,13).
att(18,12).
att(18,11).
att(18,10).
att(18,9).
att(18,8).
att(18,7).
att(18,5).
att(18,4).
att(18,3).
att(18,2).
att(18,1).
att(17,120).
att(17,119).
att(17,118).
att(17,117).
att(17,114).
att(17,113).
att(17,112).
att(17,111).
att(17,110).
att(17,109).
att(17,107).
att(17,106).
att(17,105).
att(17,104).
att(17,103).
att(17,102).
att(17,101).
att(17,98).
att(17,97).
att(17,96).
att(17,95).
att(17,94).
att(17,93).
att(17,92).
att(17,90).
att(17,89).
att(17,88).
att(17,87).
att(17,86).
att(17,84).
att(17,83).
att(17,82).
att(17,81).
att(17,80).
att(17,79).
att(17,78).
att(17,77).
att(17,76).
att(17,75).
att(17,74).
att(17,73).
att(17,71).
att(17,67).
att(17,66).
att(17,65).
att(17,63).
att(17,62).
att(17,61).
att(17,60).
att(17,59).
att(17,58).
att(17,57).
att(17,55).
att(17,54).
att(17,53).
att(17,52).
att(17,51).
att(17,50).
att(17,49).
att(17,48).
att(17,47).
att(17,46).
att(17,45).
att(17,43).
att(17,41).
att(17,40).
att(17,39).
att(17,38).
att(17,37).
att(17,36).
att(17,35).
att(17,34).
att(17,33).
att(17,32).
att(17,31).
att(17,30).
att(17,29).
att(17,28).
att(17,26).
att(17,25).
att(17,24).
att(17,22).
att(17,21).
att(17,20).
att(17,19).
att(17,18).
att(17,17).
att(17,16).
att(17,15).
att(17,13).
att(17,12).
att(17,11).
att(17,10).
att(17,9).
att(17,8).
att(17,7).
att(17,5).
att(17,4).
att(17,3).
att(17,2).
att(17,1).
att(16,120).
att(16,119).
att(16,118).
att(16,117).
att(16,114).
att(16,113).
att(16,112).
att(16,111).
att(16,110).
att(16,109).
att(16,107).
att(16,106).
att(16,105).
att(16,104).
att(16,103).
att(16,102).
att(16,101).
att(16,98).
att(16,97).
att(16,96).
att(16,95).
att(16,94).
att(16,93).
att(16,92).
att(16,90).
att(16,89).
att(16,88).
att(16,87).
att(16,86).
att(16,84).
att(16,83).
att(16,82).
att(16,81).
att(16,80).
att(16,79).
att(16,78).
att(16,77).
att(16,76).
att(16,75).
att(16,74).
att(16,73).
att(16,71).
att(16,67).
att(16,66).
att(16,65).
att(16,63).
att(16,62).
att(16,61).
att(16,60).
att(16,59).
att(16,58).
att(16,57).
att(16,55).
att(16,54).
att(16,53).
att(16,52).
att(16,51).
att(16,50).
att(16,49).
att(16,48).
att(16,47).
att(16,46).
att(16,45).
att(16,44).
att(16,43).
att(16,41).
att(16,40).
att(16,39).
att(16,38).
att(16,37).
att(16,36).
att(16,35).
att(16,34).
att(16,33).
att(16,32).
att(16,31).
att(16,30).
att(16,29).
att(16,28).
att(16,26).
att(16,25).
att(16,24).
att(16,22).
att(16,21).
att(16,20).
att(16,19).
att(16,18).
att(16,17).
att(16,16).
att(16,15).
att(16,14).
att(16,13).
att(16,12).
att(16,11).
att(16,10).
att(16,9).
att(16,8).
att(16,7).
att(16,5).
att(16,4).
att(16,3).
att(16,2).
att(16,1).
att(15,120).
att(15,111).
att(15,98).
att(15,96).
att(15,94).
att(15,89).
att(15,83).
att(15,82).
att(15,60).
att(15,54).
att(15,53).
att(15,51).
att(15,48).
att(15,47).
att(15,44).
att(15,40).
att(15,37).
att(15,36).
att(15,33).
att(15,18).
att(15,17).
att(15,16).
att(15,14).
att(15,12).
att(15,10).
att(15,9).
att(14,120).
att(14,118).
att(14,114).
att(14,112).
att(14,111).
att(14,107).
att(14,104).
att(14,101).
att(14,98).
att(14,96).
att(14,95).
att(14,94).
att(14,93).
att(14,90).
att(14,89).
att(14,86).
att(14,82).
att(14,81).
att(14,79).
att(14,78).
att(14,75).
att(14,74).
att(14,71).
att(14,66).
att(14,62).
att(14,61).
att(14,60).
att(14,59).
att(14,55).
att(14,54).
att(14,51).
att(14,49).
att(14,48).
att(14,43).
att(14,40).
att(14,39).
att(14,38).
att(14,37).
att(14,36).
att(14,35).
att(14,34).
att(14,30).
att(14,25).
att(14,24).
att(14,21).
att(14,19).
att(14,18).
att(14,16).
att(14,12).
att(14,11).
att(14,10).
att(14,9).
att(14,5).
att(14,2).
att(13,120).
att(13,119).
att(13,118).
att(13,117).
att(13,114).
att(13,112).
att(13,111).
att(13,110).
att(13,107).
att(13,106).
att(13,104).
att(13,101).
att(13,98).
att(13,97).
att(13,96).
att(13,95).
att(13,94).
att(13,93).
att(13,92).
att(13,90).
att(13,89).
att(13,88).
att(13,87).
att(13,86).
att(13,83).
att(13,82).
att(13,81).
att(13,80).
att(13,79).
att(13,78).
att(13,77).
att(13,76).
att(13,75).
att(13,74).
att(13,71).
att(13,67).
att(13,66).
att(13,65).
att(13,62).
att(13,61).
att(13,60).
att(13,59).
att(13,57).
att(13,55).
att(13,54).
att(13,53).
att(13,52).
att(13,51).
att(13,50).
att(13,49).
att(13,48).
att(13,47).
att(13,45).
att(13,43).
att(13,41).
att(13,40).
att(13,39).
att(13,38).
att(13,37).
att(13,36).
att(13,35).
att(13,34).
att(13,32).
att(13,31).
att(13,30).
att(13,25).
att(13,24).
att(13,21).
att(13,19).
att(13,18).
att(13,17).
att(13,16).
att(13,15).
att(13,12).
att(13,11).
att(13,10).
att(13,9).
att(13,5).
att(13,4).
att(13,3).
att(13,2).
att(12,120).
att(12,119).
att(12,118).
att(12,117).
att(12,114).
att(12,113).
att(12,112).
att(12,111).
att(12,110).
att(12,109).
att(12,107).
att(12,106).
att(12,105).
att(12,104).
att(12,103).
att(12,102).
att(12,101).
att(12,98).
att(12,97).
att(12,96).
att(12,95).
att(12,94).
att(12,93).
att(12,92).
att(12,90).
att(12,89).
att(12,88).
att(12,87).
att(12,86).
att(12,84).
att(12,83).
att(12,82).
att(12,81).
att(12,80).
att(12,79).
att(12,78).
att(12,77).
att(12,76).
att(12,75).
att(12,74).
att(12,73).
att(12,71).
att(12,67).
att(12,66).
att(12,65).
att(12,63).
att(12,62).
att(12,61).
att(12,60).
att(12,59).
att(12,58).
att(12,57).
att(12,55).
att(12,54).
att(12,53).
att(12,52).
att(12,51).
att(12,50).
att(12,49).
att(12,48).
att(12,47).
att(12,46).
att(12,45).
att(12,44).
att(12,43).
att(12,41).
att(12,40).
att(12,39).
att(12,38).
att(12,37).
att(12,36).
att(12,35).
att(12,34).
att(12,33).
att(12,32).
att(12,31).
att(12,30).
att(12,29).
att(12,28).
att(12,26).
att(12,25).
att(12,24).
att(12,22).
att(12,21).
att(12,20).
att(12,19).
att(12,18).
att(12,17).
att(12,16).
att(12,15).
att(12,14).
att(12,13).
att(12,12).
att(12,11).
att(12,10).
att(12,9).
att(12,8).
att(12,7).
att(12,5).
att(12,4).
att(12,3).
att(12,2).
att(12,1).
att(11,120).
att(11,119).
att(11,118).
att(11,117).
att(11,114).
att(11,112).
att(11,111).
att(11,107).
att(11,106).
att(11,104).
att(11,101).
att(11,98).
att(11,97).
att(11,96).
att(11,95).
att(11,94).
att(11,93).
att(11,90).
att(11,89).
att(11,88).
att(11,87).
att(11,86).
att(11,83).
att(11,82).
att(11,81).
att(11,80).
att(11,79).
att(11,78).
att(11,77).
att(11,76).
att(11,75).
att(11,74).
att(11,71).
att(11,67).
att(11,66).
att(11,65).
att(11,62).
att(11,61).
att(11,60).
att(11,59).
att(11,55).
att(11,54).
att(11,53).
att(11,51).
att(11,50).
att(11,49).
att(11,48).
att(11,47).
att(11,45).
att(11,43).
att(11,41).
att(11,40).
att(11,39).
att(11,38).
att(11,37).
att(11,36).
att(11,35).
att(11,34).
att(11,32).
att(11,31).
att(11,30).
att(11,25).
att(11,24).
att(11,21).
att(11,19).
att(11,18).
att(11,16).
att(11,12).
att(11,11).
att(11,10).
att(11,9).
att(11,5).
att(11,4).
att(11,3).
att(11,2).
att(10,120).
att(10,119).
att(10,118).
att(10,117).
att(10,114).
att(10,112).
att(10,111).
att(10,110).
att(10,109).
att(10,107).
att(10,106).
att(10,104).
att(10,103).
att(10,102).
att(10,101).
att(10,100).
att(10,98).
att(10,97).
att(10,96).
att(10,95).
att(10,94).
att(10,93).
att(10,92).
att(10,90).
att(10,89).
att(10,88).
att(10,87).
att(10,86).
att(10,84).
att(10,83).
att(10,82).
att(10,81).
att(10,80).
att(10,79).
att(10,78).
att(10,77).
att(10,76).
att(10,75).
att(10,74).
att(10,71).
att(10,67).
att(10,66).
att(10,65).
att(10,63).
att(10,62).
att(10,61).
att(10,60).
att(10,59).
att(10,55).
att(10,54).
att(10,53).
att(10,52).
att(10,51).
att(10,50).
att(10,49).
att(10,48).
att(10,47).
att(10,46).
att(10,45).
att(10,43).
att(10,41).
att(10,40).
att(10,39).
att(10,38).
att(10,37).
att(10,36).
att(10,35).
att(10,34).
att(10,33).
att(10,32).
att(10,31).
att(10,30).
att(10,29).
att(10,26).
att(10,25).
att(10,24).
att(10,22).
att(10,21).
att(10,20).
att(10,19).
att(10,18).
att(10,17).
att(10,16).
att(10,15).
att(10,13).
att(10,12).
att(10,11).
att(10,10).
att(10,9).
att(10,7).
att(10,6).
att(10,5).
att(10,4).
att(10,3).
att(10,2).
att(9,120).
att(9,119).
att(9,118).
att(9,117).
att(9,114).
att(9,113).
att(9,112).
att(9,111).
att(9,110).
att(9,109).
att(9,107).
att(9,106).
att(9,105).
att(9,104).
att(9,103).
att(9,102).
att(9,101).
att(9,98).
att(9,97).
att(9,96).
att(9,95).
att(9,94).
att(9,93).
att(9,92).
att(9,90).
att(9,89).
att(9,88).
att(9,87).
att(9,86).
att(9,84).
att(9,83).
att(9,82).
att(9,81).
att(9,80).
att(9,79).
att(9,78).
att(9,77).
att(9,76).
att(9,75).
att(9,74).
att(9,73).
att(9,71).
att(9,67).
att(9,66).
att(9,65).
att(9,63).
att(9,62).
att(9,61).
att(9,60).
att(9,59).
att(9,58).
att(9,57).
att(9,55).
att(9,54).
att(9,53).
att(9,52).
att(9,51).
att(9,50).
att(9,49).
att(9,48).
att(9,47).
att(9,46).
att(9,45).
att(9,43).
att(9,41).
att(9,40).
att(9,39).
att(9,38).
att(9,37).
att(9,36).
att(9,35).
att(9,34).
att(9,33).
att(9,32).
att(9,31).
att(9,30).
att(9,29).
att(9,28).
att(9,26).
att(9,25).
att(9,24).
att(9,22).
att(9,21).
att(9,20).
att(9,19).
att(9,18).
att(9,17).
att(9,16).
att(9,15).
att(9,13).
att(9,12).
att(9,11).
att(9,10).
att(9,9).
att(9,8).
att(9,7).
att(9,5).
att(9,4).
att(9,3).
att(9,2).
att(9,1).
att(8,111).
att(8,98).
att(8,89).
att(8,82).
att(8,78).
att(8,62).
att(8,57).
att(8,54).
att(8,40).
att(8,39).
att(8,18).
att(8,17).
att(8,16).
att(8,15).
att(8,12).
att(8,9).
att(8,5).
att(7,120).
att(7,119).
att(7,118).
att(7,117).
att(7,114).
att(7,113).
att(7,112).
att(7,111).
att(7,110).
att(7,109).
att(7,107).
att(7,106).
att(7,105).
att(7,104).
att(7,103).
att(7,102).
att(7,101).
att(7,98).
att(7,97).
att(7,96).
att(7,95).
att(7,94).
att(7,93).
att(7,92).
att(7,90).
att(7,89).
att(7,88).
att(7,87).
att(7,86).
att(7,84).
att(7,83).
att(7,82).
att(7,81).
att(7,80).
att(7,79).
att(7,78).
att(7,77).
att(7,76).
att(7,75).
att(7,74).
att(7,73).
att(7,71).
att(7,67).
att(7,66).
att(7,65).
att(7,63).
att(7,62).
att(7,61).
att(7,60).
att(7,59).
att(7,58).
att(7,57).
att(7,55).
att(7,54).
att(7,53).
att(7,52).
att(7,51).
att(7,50).
att(7,49).
att(7,48).
att(7,47).
att(7,45).
att(7,44).
att(7,43).
att(7,41).
att(7,40).
att(7,39).
att(7,38).
att(7,37).
att(7,36).
att(7,35).
att(7,34).
att(7,33).
att(7,32).
att(7,31).
att(7,30).
att(7,29).
att(7,28).
att(7,26).
att(7,25).
att(7,24).
att(7,21).
att(7,20).
att(7,19).
att(7,18).
att(7,17).
att(7,16).
att(7,15).
att(7,14).
att(7,12).
att(7,11).
att(7,10).
att(7,9).
att(7,7).
att(7,5).
att(7,4).
att(7,3).
att(7,2).
att(7,1).
att(6,119).
att(6,118).
att(6,117).
att(6,111).
att(6,107).
att(6,98).
att(6,96).
att(6,94).
att(6,89).
att(6,82).
att(6,81).
att(6,79).
att(6,77).
att(6,66).
att(6,63).
att(6,54).
att(6,43).
att(6,40).
att(6,38).
att(6,35).
att(6,30).
att(6,22).
att(6,19).
att(6,18).
att(6,17).
att(6,16).
att(6,12).
att(6,11).
att(6,9).
att(6,8).
att(6,7).
att(5,120).
att(5,119).
att(5,118).
att(5,113).
att(5,112).
att(5,111).
att(5,110).
att(5,109).
att(5,107).
att(5,106).
att(5,105).
att(5,104).
att(5,103).
att(5,102).
att(5,98).
att(5,97).
att(5,96).
att(5,95).
att(5,94).
att(5,93).
att(5,92).
att(5,89).
att(5,88).
att(5,84).
att(5,83).
att(5,82).
att(5,81).
att(5,78).
att(5,77).
att(5,76).
att(5,73).
att(5,71).
att(5,67).
att(5,66).
att(5,65).
att(5,63).
att(5,62).
att(5,61).
att(5,60).
att(5,59).
att(5,58).
att(5,55).
att(5,54).
att(5,53).
att(5,52).
att(5,51).
att(5,49).
att(5,48).
att(5,47).
att(5,45).
att(5,44).
att(5,43).
att(5,41).
att(5,40).
att(5,39).
att(5,38).
att(5,37).
att(5,36).
att(5,35).
att(5,34).
att(5,33).
att(5,32).
att(5,31).
att(5,30).
att(5,29).
att(5,28).
att(5,26).
att(5,20).
att(5,18).
att(5,17).
att(5,16).
att(5,15).
att(5,14).
att(5,12).
att(5,11).
att(5,10).
att(5,9).
att(5,7).
att(5,5).
att(5,3).
att(5,1).
att(3,118).
att(3,117).
att(3,111).
att(3,107).
att(3,98).
att(3,96).
att(3,89).
att(3,82).
att(3,81).
att(3,66).
att(3,54).
att(3,43).
att(3,40).
att(3,38).
att(3,18).
att(3,17).
att(3,16).
att(3,12).
att(3,9).
att(3,6).
att(1,120).
att(1,111).
att(1,98).
att(1,96).
att(1,94).
att(1,89).
att(1,83).
att(1,82).
att(1,60).
att(1,54).
att(1,53).
att(1,51).
att(1,48).
att(1,47).
att(1,44).
att(1,40).
att(1,37).
att(1,36).
att(1,33).
att(1,18).
att(1,17).
att(1,16).
att(1,14).
att(1,12).
att(1,10).
att(1,9).
