arg(1..108).
att(108,107).
att(108,106).
att(108,104).
att(108,102).
att(108,101).
att(108,97).
att(108,94).
att(108,89).
att(108,88).
att(108,83).
att(108,82).
att(108,78).
att(108,76).
att(108,75).
att(108,72).
att(108,70).
att(108,68).
att(108,66).
att(108,65).
att(108,64).
att(108,62).
att(108,61).
att(108,60).
att(108,58).
att(108,57).
att(108,56).
att(108,54).
att(108,53).
att(108,51).
att(108,48).
att(108,45).
att(108,44).
att(108,43).
att(108,33).
att(108,32).
att(108,30).
att(108,29).
att(108,26).
att(108,25).
att(108,24).
att(108,23).
att(108,22).
att(108,20).
att(108,18).
att(108,14).
att(108,12).
att(108,10).
att(108,7).
att(108,3).
att(108,2).
att(107,107).
att(107,106).
att(107,105).
att(107,104).
att(107,103).
att(107,101).
att(107,100).
att(107,98).
att(107,97).
att(107,95).
att(107,94).
att(107,93).
att(107,91).
att(107,90).
att(107,89).
att(107,88).
att(107,87).
att(107,86).
att(107,85).
att(107,84).
att(107,83).
att(107,82).
att(107,80).
att(107,79).
att(107,78).
att(107,77).
att(107,76).
att(107,74).
att(107,72).
att(107,71).
att(107,70).
att(107,68).
att(107,67).
att(107,66).
att(107,65).
att(107,64).
att(107,63).
att(107,62).
att(107,61).
att(107,60).
att(107,57).
att(107,56).
att(107,54).
att(107,53).
att(107,51).
att(107,49).
att(107,48).
att(107,47).
att(107,45).
att(107,44).
att(107,43).
att(107,42).
att(107,41).
att(107,38).
att(107,37).
att(107,36).
att(107,34).
att(107,33).
att(107,32).
att(107,31).
att(107,30).
att(107,29).
att(107,25).
att(107,24).
att(107,23).
att(107,22).
att(107,21).
att(107,20).
att(107,19).
att(107,18).
att(107,16).
att(107,14).
att(107,13).
att(107,12).
att(107,11).
att(107,10).
att(107,9).
att(107,7).
att(107,4).
att(107,3).
att(107,2).
att(107,1).
att(106,107).
att(106,106).
att(106,105).
att(106,104).
att(106,103).
att(106,102).
att(106,101).
att(106,98).
att(106,97).
att(106,95).
att(106,94).
att(106,91).
att(106,90).
att(106,89).
att(106,88).
att(106,86).
att(106,85).
att(106,84).
att(106,83).
att(106,82).
att(106,80).
att(106,79).
att(106,78).
att(106,77).
att(106,76).
att(106,72).
att(106,71).
att(106,70).
att(106,68).
att(106,67).
att(106,66).
att(106,65).
att(106,64).
att(106,63).
att(106,62).
att(106,61).
att(106,60).
att(106,59).
att(106,57).
att(106,56).
att(106,54).
att(106,53).
att(106,51).
att(106,49).
att(106,48).
att(106,47).
att(106,45).
att(106,44).
att(106,43).
att(106,42).
att(106,41).
att(106,38).
att(106,36).
att(106,34).
att(106,33).
att(106,32).
att(106,31).
att(106,30).
att(106,29).
att(106,25).
att(106,24).
att(106,23).
att(106,22).
att(106,21).
att(106,20).
att(106,19).
att(106,18).
att(106,16).
att(106,14).
att(106,13).
att(106,12).
att(106,11).
att(106,10).
att(106,9).
att(106,7).
att(106,4).
att(106,3).
att(106,2).
att(105,107).
att(105,106).
att(105,104).
att(105,100).
att(105,94).
att(105,82).
att(105,78).
att(105,77).
att(105,76).
att(105,74).
att(105,72).
att(105,65).
att(105,61).
att(105,56).
att(105,54).
att(105,53).
att(105,52).
att(105,51).
att(105,47).
att(105,45).
att(105,44).
att(105,43).
att(105,33).
att(105,24).
att(105,23).
att(105,22).
att(105,20).
att(105,18).
att(105,12).
att(105,11).
att(105,7).
att(105,2).
att(105,1).
att(104,107).
att(104,106).
att(104,105).
att(104,104).
att(104,103).
att(104,102).
att(104,101).
att(104,98).
att(104,97).
att(104,95).
att(104,94).
att(104,91).
att(104,90).
att(104,89).
att(104,88).
att(104,86).
att(104,85).
att(104,84).
att(104,83).
att(104,82).
att(104,80).
att(104,79).
att(104,78).
att(104,77).
att(104,76).
att(104,72).
att(104,71).
att(104,70).
att(104,68).
att(104,67).
att(104,66).
att(104,65).
att(104,64).
att(104,63).
att(104,62).
att(104,61).
att(104,60).
att(104,59).
att(104,57).
att(104,56).
att(104,54).
att(104,53).
att(104,51).
att(104,49).
att(104,48).
att(104,47).
att(104,45).
att(104,44).
att(104,43).
att(104,42).
att(104,41).
att(104,38).
att(104,36).
att(104,34).
att(104,33).
att(104,32).
att(104,31).
att(104,30).
att(104,29).
att(104,25).
att(104,24).
att(104,23).
att(104,22).
att(104,21).
att(104,20).
att(104,19).
att(104,18).
att(104,16).
att(104,14).
att(104,13).
att(104,12).
att(104,11).
att(104,10).
att(104,9).
att(104,7).
att(104,4).
att(104,3).
att(104,2).
att(103,107).
att(103,106).
att(103,105).
att(103,104).
att(103,102).
att(103,101).
att(103,97).
att(103,95).
att(103,94).
att(103,91).
att(103,89).
att(103,88).
att(103,86).
att(103,85).
att(103,84).
att(103,83).
att(103,82).
att(103,81).
att(103,80).
att(103,78).
att(103,77).
att(103,76).
att(103,75).
att(103,72).
att(103,71).
att(103,70).
att(103,68).
att(103,67).
att(103,66).
att(103,65).
att(103,64).
att(103,63).
att(103,62).
att(103,61).
att(103,60).
att(103,59).
att(103,58).
att(103,57).
att(103,56).
att(103,54).
att(103,53).
att(103,51).
att(103,48).
att(103,47).
att(103,45).
att(103,44).
att(103,43).
att(103,42).
att(103,41).
att(103,38).
att(103,36).
att(103,33).
att(103,32).
att(103,30).
att(103,29).
att(103,26).
att(103,25).
att(103,24).
att(103,23).
att(103,22).
att(103,21).
att(103,20).
att(103,18).
att(103,17).
att(103,14).
att(103,13).
att(103,12).
att(103,11).
att(103,10).
att(103,8).
att(103,7).
att(103,4).
att(103,3).
att(103,2).
att(102,107).
att(102,106).
att(102,105).
att(102,104).
att(102,100).
att(102,94).
att(102,82).
att(102,79).
att(102,78).
att(102,77).
att(102,76).
att(102,74).
att(102,72).
att(102,65).
att(102,61).
att(102,56).
att(102,55).
att(102,54).
att(102,53).
att(102,51).
att(102,47).
att(102,45).
att(102,44).
att(102,41).
att(102,33).
att(102,24).
att(102,23).
att(102,22).
att(102,20).
att(102,18).
att(102,12).
att(102,11).
att(102,7).
att(102,4).
att(102,2).
att(102,1).
att(101,107).
att(101,106).
att(101,104).
att(101,103).
att(101,102).
att(101,101).
att(101,98).
att(101,97).
att(101,96).
att(101,95).
att(101,94).
att(101,90).
att(101,89).
att(101,88).
att(101,86).
att(101,85).
att(101,84).
att(101,83).
att(101,82).
att(101,80).
att(101,79).
att(101,78).
att(101,77).
att(101,76).
att(101,73).
att(101,72).
att(101,71).
att(101,70).
att(101,68).
att(101,67).
att(101,66).
att(101,65).
att(101,64).
att(101,63).
att(101,62).
att(101,61).
att(101,60).
att(101,57).
att(101,56).
att(101,54).
att(101,53).
att(101,51).
att(101,49).
att(101,48).
att(101,47).
att(101,45).
att(101,44).
att(101,43).
att(101,42).
att(101,41).
att(101,40).
att(101,38).
att(101,36).
att(101,35).
att(101,34).
att(101,33).
att(101,32).
att(101,31).
att(101,30).
att(101,29).
att(101,26).
att(101,25).
att(101,24).
att(101,23).
att(101,22).
att(101,20).
att(101,19).
att(101,18).
att(101,16).
att(101,14).
att(101,13).
att(101,12).
att(101,11).
att(101,10).
att(101,9).
att(101,7).
att(101,3).
att(101,2).
att(100,107).
att(100,106).
att(100,105).
att(100,104).
att(100,101).
att(100,97).
att(100,94).
att(100,91).
att(100,84).
att(100,82).
att(100,78).
att(100,77).
att(100,76).
att(100,72).
att(100,68).
att(100,65).
att(100,61).
att(100,60).
att(100,56).
att(100,54).
att(100,53).
att(100,51).
att(100,45).
att(100,44).
att(100,41).
att(100,38).
att(100,33).
att(100,30).
att(100,24).
att(100,23).
att(100,22).
att(100,21).
att(100,20).
att(100,18).
att(100,12).
att(100,10).
att(100,7).
att(100,4).
att(100,2).
att(98,107).
att(98,106).
att(98,103).
att(98,102).
att(98,98).
att(98,97).
att(98,95).
att(98,94).
att(98,91).
att(98,90).
att(98,89).
att(98,88).
att(98,86).
att(98,85).
att(98,84).
att(98,83).
att(98,80).
att(98,78).
att(98,77).
att(98,76).
att(98,74).
att(98,72).
att(98,71).
att(98,70).
att(98,69).
att(98,68).
att(98,67).
att(98,66).
att(98,65).
att(98,64).
att(98,63).
att(98,62).
att(98,61).
att(98,60).
att(98,57).
att(98,56).
att(98,53).
att(98,48).
att(98,47).
att(98,45).
att(98,42).
att(98,41).
att(98,39).
att(98,38).
att(98,33).
att(98,31).
att(98,30).
att(98,29).
att(98,28).
att(98,25).
att(98,23).
att(98,22).
att(98,20).
att(98,19).
att(98,18).
att(98,14).
att(98,13).
att(98,12).
att(98,11).
att(98,10).
att(98,7).
att(98,5).
att(98,3).
att(98,2).
att(97,107).
att(97,103).
att(97,102).
att(97,98).
att(97,97).
att(97,95).
att(97,94).
att(97,89).
att(97,88).
att(97,86).
att(97,85).
att(97,84).
att(97,83).
att(97,80).
att(97,79).
att(97,78).
att(97,77).
att(97,76).
att(97,72).
att(97,71).
att(97,70).
att(97,68).
att(97,67).
att(97,66).
att(97,65).
att(97,64).
att(97,63).
att(97,62).
att(97,61).
att(97,60).
att(97,57).
att(97,56).
att(97,53).
att(97,48).
att(97,47).
att(97,43).
att(97,42).
att(97,41).
att(97,40).
att(97,38).
att(97,36).
att(97,35).
att(97,34).
att(97,31).
att(97,29).
att(97,25).
att(97,23).
att(97,20).
att(97,19).
att(97,16).
att(97,14).
att(97,13).
att(97,12).
att(97,11).
att(97,10).
att(97,9).
att(97,7).
att(97,3).
att(95,107).
att(95,106).
att(95,104).
att(95,103).
att(95,102).
att(95,100).
att(95,99).
att(95,98).
att(95,97).
att(95,95).
att(95,94).
att(95,91).
att(95,90).
att(95,89).
att(95,88).
att(95,86).
att(95,85).
att(95,84).
att(95,83).
att(95,82).
att(95,80).
att(95,79).
att(95,78).
att(95,77).
att(95,76).
att(95,74).
att(95,72).
att(95,71).
att(95,70).
att(95,69).
att(95,68).
att(95,67).
att(95,66).
att(95,65).
att(95,64).
att(95,63).
att(95,62).
att(95,61).
att(95,60).
att(95,59).
att(95,57).
att(95,56).
att(95,54).
att(95,53).
att(95,51).
att(95,48).
att(95,47).
att(95,45).
att(95,44).
att(95,43).
att(95,42).
att(95,41).
att(95,39).
att(95,38).
att(95,36).
att(95,34).
att(95,33).
att(95,31).
att(95,30).
att(95,29).
att(95,28).
att(95,25).
att(95,24).
att(95,23).
att(95,22).
att(95,20).
att(95,19).
att(95,18).
att(95,16).
att(95,14).
att(95,13).
att(95,12).
att(95,11).
att(95,10).
att(95,9).
att(95,7).
att(95,5).
att(95,3).
att(95,2).
att(95,1).
att(94,107).
att(94,106).
att(94,105).
att(94,104).
att(94,103).
att(94,102).
att(94,101).
att(94,100).
att(94,98).
att(94,97).
att(94,95).
att(94,94).
att(94,93).
att(94,91).
att(94,90).
att(94,89).
att(94,88).
att(94,87).
att(94,86).
att(94,85).
att(94,84).
att(94,83).
att(94,82).
att(94,80).
att(94,79).
att(94,78).
att(94,77).
att(94,76).
att(94,74).
att(94,72).
att(94,71).
att(94,70).
att(94,68).
att(94,67).
att(94,66).
att(94,65).
att(94,64).
att(94,63).
att(94,62).
att(94,61).
att(94,60).
att(94,59).
att(94,57).
att(94,56).
att(94,54).
att(94,53).
att(94,51).
att(94,49).
att(94,48).
att(94,47).
att(94,45).
att(94,44).
att(94,43).
att(94,42).
att(94,41).
att(94,38).
att(94,37).
att(94,36).
att(94,34).
att(94,33).
att(94,32).
att(94,31).
att(94,30).
att(94,29).
att(94,25).
att(94,24).
att(94,23).
att(94,22).
att(94,21).
att(94,20).
att(94,19).
att(94,18).
att(94,16).
att(94,14).
att(94,13).
att(94,12).
att(94,11).
att(94,10).
att(94,9).
att(94,7).
att(94,4).
att(94,3).
att(94,2).
att(94,1).
att(93,107).
att(93,106).
att(93,105).
att(93,104).
att(93,103).
att(93,102).
att(93,101).
att(93,97).
att(93,95).
att(93,94).
att(93,91).
att(93,90).
att(93,89).
att(93,88).
att(93,84).
att(93,83).
att(93,82).
att(93,81).
att(93,80).
att(93,78).
att(93,77).
att(93,76).
att(93,72).
att(93,71).
att(93,70).
att(93,68).
att(93,66).
att(93,65).
att(93,64).
att(93,62).
att(93,61).
att(93,60).
att(93,57).
att(93,56).
att(93,54).
att(93,53).
att(93,51).
att(93,49).
att(93,48).
att(93,47).
att(93,45).
att(93,44).
att(93,43).
att(93,42).
att(93,41).
att(93,38).
att(93,36).
att(93,33).
att(93,32).
att(93,30).
att(93,29).
att(93,25).
att(93,24).
att(93,23).
att(93,22).
att(93,21).
att(93,20).
att(93,19).
att(93,18).
att(93,17).
att(93,14).
att(93,13).
att(93,12).
att(93,11).
att(93,10).
att(93,7).
att(93,4).
att(93,3).
att(93,2).
att(92,107).
att(92,106).
att(92,104).
att(92,100).
att(92,94).
att(92,82).
att(92,78).
att(92,77).
att(92,76).
att(92,74).
att(92,72).
att(92,65).
att(92,61).
att(92,56).
att(92,54).
att(92,53).
att(92,51).
att(92,47).
att(92,45).
att(92,44).
att(92,33).
att(92,24).
att(92,23).
att(92,22).
att(92,20).
att(92,18).
att(92,12).
att(92,11).
att(92,7).
att(92,2).
att(92,1).
att(90,107).
att(90,106).
att(90,105).
att(90,104).
att(90,102).
att(90,101).
att(90,97).
att(90,94).
att(90,91).
att(90,89).
att(90,88).
att(90,86).
att(90,85).
att(90,84).
att(90,83).
att(90,82).
att(90,78).
att(90,77).
att(90,76).
att(90,75).
att(90,72).
att(90,70).
att(90,68).
att(90,67).
att(90,66).
att(90,65).
att(90,64).
att(90,63).
att(90,62).
att(90,61).
att(90,60).
att(90,58).
att(90,57).
att(90,56).
att(90,54).
att(90,53).
att(90,51).
att(90,48).
att(90,47).
att(90,45).
att(90,44).
att(90,43).
att(90,41).
att(90,38).
att(90,33).
att(90,32).
att(90,30).
att(90,29).
att(90,26).
att(90,25).
att(90,24).
att(90,23).
att(90,22).
att(90,21).
att(90,20).
att(90,18).
att(90,14).
att(90,12).
att(90,11).
att(90,10).
att(90,8).
att(90,7).
att(90,4).
att(90,3).
att(90,2).
att(89,107).
att(89,106).
att(89,104).
att(89,103).
att(89,102).
att(89,100).
att(89,99).
att(89,98).
att(89,97).
att(89,95).
att(89,94).
att(89,93).
att(89,91).
att(89,90).
att(89,89).
att(89,88).
att(89,86).
att(89,85).
att(89,84).
att(89,83).
att(89,82).
att(89,80).
att(89,79).
att(89,78).
att(89,77).
att(89,76).
att(89,74).
att(89,72).
att(89,71).
att(89,70).
att(89,69).
att(89,68).
att(89,67).
att(89,66).
att(89,65).
att(89,64).
att(89,63).
att(89,62).
att(89,61).
att(89,60).
att(89,57).
att(89,56).
att(89,53).
att(89,48).
att(89,47).
att(89,45).
att(89,44).
att(89,43).
att(89,42).
att(89,41).
att(89,39).
att(89,38).
att(89,37).
att(89,36).
att(89,34).
att(89,33).
att(89,31).
att(89,30).
att(89,29).
att(89,28).
att(89,25).
att(89,24).
att(89,23).
att(89,22).
att(89,20).
att(89,19).
att(89,18).
att(89,16).
att(89,14).
att(89,13).
att(89,12).
att(89,11).
att(89,10).
att(89,9).
att(89,7).
att(89,5).
att(89,3).
att(89,2).
att(88,107).
att(88,106).
att(88,105).
att(88,104).
att(88,103).
att(88,102).
att(88,101).
att(88,99).
att(88,98).
att(88,97).
att(88,95).
att(88,94).
att(88,91).
att(88,90).
att(88,89).
att(88,88).
att(88,87).
att(88,86).
att(88,85).
att(88,84).
att(88,83).
att(88,82).
att(88,80).
att(88,79).
att(88,78).
att(88,77).
att(88,76).
att(88,75).
att(88,74).
att(88,72).
att(88,71).
att(88,70).
att(88,69).
att(88,68).
att(88,67).
att(88,66).
att(88,65).
att(88,64).
att(88,63).
att(88,62).
att(88,61).
att(88,60).
att(88,58).
att(88,57).
att(88,56).
att(88,54).
att(88,53).
att(88,51).
att(88,48).
att(88,47).
att(88,45).
att(88,44).
att(88,43).
att(88,42).
att(88,41).
att(88,39).
att(88,38).
att(88,36).
att(88,34).
att(88,33).
att(88,32).
att(88,31).
att(88,30).
att(88,29).
att(88,28).
att(88,26).
att(88,25).
att(88,24).
att(88,23).
att(88,22).
att(88,21).
att(88,20).
att(88,19).
att(88,18).
att(88,16).
att(88,14).
att(88,13).
att(88,12).
att(88,11).
att(88,10).
att(88,9).
att(88,8).
att(88,7).
att(88,5).
att(88,4).
att(88,3).
att(88,2).
att(85,107).
att(85,106).
att(85,103).
att(85,102).
att(85,98).
att(85,97).
att(85,95).
att(85,94).
att(85,91).
att(85,90).
att(85,89).
att(85,88).
att(85,86).
att(85,85).
att(85,84).
att(85,83).
att(85,80).
att(85,79).
att(85,78).
att(85,77).
att(85,76).
att(85,74).
att(85,72).
att(85,71).
att(85,70).
att(85,69).
att(85,68).
att(85,67).
att(85,66).
att(85,65).
att(85,64).
att(85,63).
att(85,62).
att(85,61).
att(85,60).
att(85,57).
att(85,56).
att(85,53).
att(85,48).
att(85,47).
att(85,45).
att(85,42).
att(85,41).
att(85,39).
att(85,38).
att(85,36).
att(85,34).
att(85,33).
att(85,31).
att(85,30).
att(85,29).
att(85,28).
att(85,25).
att(85,23).
att(85,22).
att(85,20).
att(85,19).
att(85,18).
att(85,16).
att(85,14).
att(85,13).
att(85,12).
att(85,11).
att(85,10).
att(85,9).
att(85,7).
att(85,5).
att(85,3).
att(85,2).
att(84,107).
att(84,106).
att(84,103).
att(84,102).
att(84,98).
att(84,97).
att(84,95).
att(84,94).
att(84,91).
att(84,90).
att(84,89).
att(84,88).
att(84,86).
att(84,85).
att(84,84).
att(84,83).
att(84,80).
att(84,79).
att(84,78).
att(84,77).
att(84,76).
att(84,74).
att(84,72).
att(84,71).
att(84,70).
att(84,69).
att(84,68).
att(84,67).
att(84,66).
att(84,65).
att(84,64).
att(84,63).
att(84,62).
att(84,61).
att(84,60).
att(84,59).
att(84,57).
att(84,56).
att(84,53).
att(84,48).
att(84,47).
att(84,45).
att(84,43).
att(84,42).
att(84,41).
att(84,39).
att(84,38).
att(84,36).
att(84,34).
att(84,33).
att(84,31).
att(84,30).
att(84,29).
att(84,28).
att(84,25).
att(84,23).
att(84,22).
att(84,20).
att(84,19).
att(84,18).
att(84,16).
att(84,14).
att(84,13).
att(84,12).
att(84,11).
att(84,10).
att(84,9).
att(84,7).
att(84,5).
att(84,3).
att(84,2).
att(83,107).
att(83,106).
att(83,104).
att(83,103).
att(83,102).
att(83,100).
att(83,99).
att(83,98).
att(83,97).
att(83,95).
att(83,94).
att(83,93).
att(83,91).
att(83,90).
att(83,89).
att(83,88).
att(83,86).
att(83,85).
att(83,84).
att(83,83).
att(83,82).
att(83,80).
att(83,79).
att(83,78).
att(83,77).
att(83,76).
att(83,74).
att(83,72).
att(83,71).
att(83,70).
att(83,69).
att(83,68).
att(83,67).
att(83,66).
att(83,65).
att(83,64).
att(83,63).
att(83,62).
att(83,61).
att(83,60).
att(83,57).
att(83,56).
att(83,53).
att(83,48).
att(83,47).
att(83,45).
att(83,44).
att(83,43).
att(83,42).
att(83,41).
att(83,39).
att(83,38).
att(83,37).
att(83,36).
att(83,34).
att(83,33).
att(83,31).
att(83,30).
att(83,29).
att(83,28).
att(83,25).
att(83,24).
att(83,23).
att(83,22).
att(83,20).
att(83,19).
att(83,18).
att(83,16).
att(83,14).
att(83,13).
att(83,12).
att(83,11).
att(83,10).
att(83,9).
att(83,7).
att(83,5).
att(83,3).
att(83,2).
att(82,107).
att(82,106).
att(82,105).
att(82,104).
att(82,103).
att(82,102).
att(82,101).
att(82,98).
att(82,97).
att(82,95).
att(82,94).
att(82,91).
att(82,90).
att(82,89).
att(82,88).
att(82,86).
att(82,85).
att(82,84).
att(82,83).
att(82,82).
att(82,80).
att(82,79).
att(82,78).
att(82,77).
att(82,76).
att(82,72).
att(82,71).
att(82,70).
att(82,68).
att(82,67).
att(82,66).
att(82,65).
att(82,64).
att(82,63).
att(82,62).
att(82,61).
att(82,60).
att(82,59).
att(82,57).
att(82,56).
att(82,54).
att(82,53).
att(82,51).
att(82,49).
att(82,48).
att(82,47).
att(82,45).
att(82,44).
att(82,43).
att(82,42).
att(82,41).
att(82,38).
att(82,36).
att(82,34).
att(82,33).
att(82,32).
att(82,31).
att(82,30).
att(82,29).
att(82,25).
att(82,24).
att(82,23).
att(82,22).
att(82,21).
att(82,20).
att(82,19).
att(82,18).
att(82,16).
att(82,14).
att(82,13).
att(82,12).
att(82,11).
att(82,10).
att(82,9).
att(82,7).
att(82,4).
att(82,3).
att(82,2).
att(81,107).
att(81,106).
att(81,104).
att(81,103).
att(81,101).
att(81,100).
att(81,98).
att(81,97).
att(81,96).
att(81,95).
att(81,94).
att(81,90).
att(81,89).
att(81,88).
att(81,86).
att(81,85).
att(81,84).
att(81,83).
att(81,82).
att(81,80).
att(81,79).
att(81,78).
att(81,77).
att(81,76).
att(81,74).
att(81,73).
att(81,72).
att(81,71).
att(81,70).
att(81,68).
att(81,67).
att(81,66).
att(81,65).
att(81,64).
att(81,63).
att(81,62).
att(81,61).
att(81,60).
att(81,57).
att(81,56).
att(81,54).
att(81,53).
att(81,52).
att(81,51).
att(81,49).
att(81,48).
att(81,47).
att(81,45).
att(81,44).
att(81,43).
att(81,42).
att(81,41).
att(81,40).
att(81,38).
att(81,36).
att(81,34).
att(81,33).
att(81,32).
att(81,31).
att(81,30).
att(81,29).
att(81,26).
att(81,25).
att(81,24).
att(81,23).
att(81,22).
att(81,20).
att(81,19).
att(81,18).
att(81,16).
att(81,14).
att(81,13).
att(81,12).
att(81,11).
att(81,10).
att(81,9).
att(81,7).
att(81,3).
att(81,2).
att(81,1).
att(80,107).
att(80,106).
att(80,103).
att(80,102).
att(80,99).
att(80,98).
att(80,97).
att(80,95).
att(80,94).
att(80,91).
att(80,90).
att(80,89).
att(80,88).
att(80,86).
att(80,85).
att(80,84).
att(80,83).
att(80,80).
att(80,79).
att(80,78).
att(80,77).
att(80,76).
att(80,74).
att(80,72).
att(80,71).
att(80,70).
att(80,69).
att(80,68).
att(80,67).
att(80,66).
att(80,65).
att(80,64).
att(80,63).
att(80,62).
att(80,61).
att(80,60).
att(80,57).
att(80,56).
att(80,53).
att(80,48).
att(80,47).
att(80,45).
att(80,42).
att(80,41).
att(80,39).
att(80,38).
att(80,36).
att(80,34).
att(80,33).
att(80,31).
att(80,30).
att(80,29).
att(80,28).
att(80,25).
att(80,23).
att(80,22).
att(80,20).
att(80,19).
att(80,18).
att(80,16).
att(80,14).
att(80,13).
att(80,12).
att(80,11).
att(80,10).
att(80,9).
att(80,7).
att(80,5).
att(80,3).
att(80,2).
att(79,107).
att(79,106).
att(79,104).
att(79,103).
att(79,102).
att(79,101).
att(79,99).
att(79,97).
att(79,96).
att(79,95).
att(79,94).
att(79,90).
att(79,89).
att(79,88).
att(79,85).
att(79,84).
att(79,83).
att(79,82).
att(79,80).
att(79,79).
att(79,78).
att(79,77).
att(79,76).
att(79,75).
att(79,73).
att(79,72).
att(79,71).
att(79,70).
att(79,68).
att(79,67).
att(79,66).
att(79,65).
att(79,64).
att(79,63).
att(79,62).
att(79,61).
att(79,60).
att(79,58).
att(79,57).
att(79,56).
att(79,54).
att(79,53).
att(79,51).
att(79,48).
att(79,45).
att(79,44).
att(79,43).
att(79,42).
att(79,40).
att(79,38).
att(79,36).
att(79,33).
att(79,32).
att(79,30).
att(79,29).
att(79,26).
att(79,25).
att(79,24).
att(79,23).
att(79,22).
att(79,20).
att(79,19).
att(79,18).
att(79,14).
att(79,13).
att(79,12).
att(79,10).
att(79,7).
att(79,3).
att(79,2).
att(78,107).
att(78,106).
att(78,105).
att(78,104).
att(78,103).
att(78,102).
att(78,101).
att(78,99).
att(78,98).
att(78,97).
att(78,95).
att(78,94).
att(78,91).
att(78,90).
att(78,89).
att(78,88).
att(78,87).
att(78,86).
att(78,85).
att(78,84).
att(78,83).
att(78,82).
att(78,80).
att(78,79).
att(78,78).
att(78,77).
att(78,76).
att(78,75).
att(78,74).
att(78,72).
att(78,71).
att(78,70).
att(78,69).
att(78,68).
att(78,67).
att(78,66).
att(78,65).
att(78,64).
att(78,63).
att(78,62).
att(78,61).
att(78,60).
att(78,59).
att(78,58).
att(78,57).
att(78,56).
att(78,54).
att(78,53).
att(78,51).
att(78,49).
att(78,48).
att(78,47).
att(78,45).
att(78,44).
att(78,43).
att(78,42).
att(78,41).
att(78,39).
att(78,38).
att(78,36).
att(78,34).
att(78,33).
att(78,32).
att(78,31).
att(78,30).
att(78,29).
att(78,28).
att(78,26).
att(78,25).
att(78,24).
att(78,23).
att(78,22).
att(78,21).
att(78,20).
att(78,19).
att(78,18).
att(78,16).
att(78,14).
att(78,13).
att(78,12).
att(78,11).
att(78,10).
att(78,9).
att(78,8).
att(78,7).
att(78,5).
att(78,4).
att(78,3).
att(78,2).
att(77,107).
att(77,106).
att(77,104).
att(77,102).
att(77,101).
att(77,97).
att(77,94).
att(77,89).
att(77,88).
att(77,83).
att(77,82).
att(77,78).
att(77,76).
att(77,75).
att(77,72).
att(77,70).
att(77,68).
att(77,66).
att(77,65).
att(77,64).
att(77,62).
att(77,61).
att(77,60).
att(77,59).
att(77,58).
att(77,57).
att(77,56).
att(77,54).
att(77,53).
att(77,51).
att(77,48).
att(77,45).
att(77,44).
att(77,43).
att(77,33).
att(77,32).
att(77,30).
att(77,29).
att(77,26).
att(77,25).
att(77,24).
att(77,23).
att(77,22).
att(77,20).
att(77,18).
att(77,14).
att(77,12).
att(77,10).
att(77,7).
att(77,3).
att(77,2).
att(76,107).
att(76,106).
att(76,105).
att(76,104).
att(76,103).
att(76,102).
att(76,101).
att(76,100).
att(76,99).
att(76,98).
att(76,97).
att(76,95).
att(76,94).
att(76,93).
att(76,91).
att(76,90).
att(76,89).
att(76,88).
att(76,87).
att(76,86).
att(76,85).
att(76,84).
att(76,83).
att(76,82).
att(76,80).
att(76,79).
att(76,78).
att(76,77).
att(76,76).
att(76,75).
att(76,74).
att(76,72).
att(76,71).
att(76,70).
att(76,69).
att(76,68).
att(76,67).
att(76,66).
att(76,65).
att(76,64).
att(76,63).
att(76,62).
att(76,61).
att(76,60).
att(76,58).
att(76,57).
att(76,56).
att(76,54).
att(76,53).
att(76,51).
att(76,49).
att(76,48).
att(76,47).
att(76,45).
att(76,44).
att(76,43).
att(76,42).
att(76,41).
att(76,39).
att(76,38).
att(76,37).
att(76,36).
att(76,34).
att(76,33).
att(76,32).
att(76,31).
att(76,30).
att(76,29).
att(76,28).
att(76,26).
att(76,25).
att(76,24).
att(76,23).
att(76,22).
att(76,21).
att(76,20).
att(76,19).
att(76,18).
att(76,16).
att(76,14).
att(76,13).
att(76,12).
att(76,11).
att(76,10).
att(76,9).
att(76,8).
att(76,7).
att(76,5).
att(76,4).
att(76,3).
att(76,2).
att(76,1).
att(75,107).
att(75,106).
att(75,104).
att(75,103).
att(75,100).
att(75,94).
att(75,93).
att(75,90).
att(75,88).
att(75,82).
att(75,78).
att(75,76).
att(75,72).
att(75,70).
att(75,61).
att(75,56).
att(75,53).
att(75,44).
att(75,43).
att(75,41).
att(75,37).
att(75,24).
att(75,22).
att(75,20).
att(75,19).
att(75,18).
att(75,7).
att(75,2).
att(74,97).
att(74,89).
att(74,86).
att(74,85).
att(74,83).
att(74,77).
att(74,68).
att(74,67).
att(74,66).
att(74,64).
att(74,63).
att(74,62).
att(74,60).
att(74,57).
att(74,47).
att(74,29).
att(74,25).
att(74,14).
att(74,11).
att(74,10).
att(74,3).
att(72,107).
att(72,106).
att(72,105).
att(72,104).
att(72,103).
att(72,102).
att(72,101).
att(72,99).
att(72,98).
att(72,97).
att(72,95).
att(72,94).
att(72,91).
att(72,90).
att(72,89).
att(72,88).
att(72,87).
att(72,86).
att(72,85).
att(72,84).
att(72,83).
att(72,82).
att(72,80).
att(72,79).
att(72,78).
att(72,77).
att(72,76).
att(72,75).
att(72,74).
att(72,72).
att(72,71).
att(72,70).
att(72,69).
att(72,68).
att(72,67).
att(72,66).
att(72,65).
att(72,64).
att(72,63).
att(72,62).
att(72,61).
att(72,60).
att(72,58).
att(72,57).
att(72,56).
att(72,54).
att(72,53).
att(72,51).
att(72,49).
att(72,48).
att(72,47).
att(72,45).
att(72,44).
att(72,43).
att(72,42).
att(72,41).
att(72,39).
att(72,38).
att(72,36).
att(72,34).
att(72,33).
att(72,32).
att(72,31).
att(72,30).
att(72,29).
att(72,28).
att(72,26).
att(72,25).
att(72,24).
att(72,23).
att(72,22).
att(72,21).
att(72,20).
att(72,19).
att(72,18).
att(72,16).
att(72,14).
att(72,13).
att(72,12).
att(72,11).
att(72,10).
att(72,9).
att(72,8).
att(72,7).
att(72,5).
att(72,4).
att(72,3).
att(72,2).
att(71,107).
att(71,106).
att(71,103).
att(71,102).
att(71,99).
att(71,98).
att(71,97).
att(71,95).
att(71,94).
att(71,91).
att(71,90).
att(71,89).
att(71,88).
att(71,86).
att(71,85).
att(71,84).
att(71,83).
att(71,80).
att(71,79).
att(71,78).
att(71,77).
att(71,76).
att(71,74).
att(71,72).
att(71,71).
att(71,70).
att(71,69).
att(71,68).
att(71,67).
att(71,66).
att(71,65).
att(71,64).
att(71,63).
att(71,62).
att(71,61).
att(71,60).
att(71,57).
att(71,56).
att(71,53).
att(71,48).
att(71,47).
att(71,45).
att(71,42).
att(71,41).
att(71,39).
att(71,38).
att(71,36).
att(71,34).
att(71,33).
att(71,31).
att(71,30).
att(71,29).
att(71,28).
att(71,25).
att(71,23).
att(71,22).
att(71,20).
att(71,19).
att(71,18).
att(71,16).
att(71,14).
att(71,13).
att(71,12).
att(71,11).
att(71,10).
att(71,9).
att(71,7).
att(71,5).
att(71,3).
att(71,2).
att(70,107).
att(70,106).
att(70,105).
att(70,104).
att(70,103).
att(70,102).
att(70,101).
att(70,99).
att(70,98).
att(70,97).
att(70,95).
att(70,94).
att(70,91).
att(70,90).
att(70,89).
att(70,88).
att(70,87).
att(70,86).
att(70,85).
att(70,84).
att(70,83).
att(70,82).
att(70,81).
att(70,80).
att(70,79).
att(70,78).
att(70,77).
att(70,76).
att(70,75).
att(70,74).
att(70,72).
att(70,71).
att(70,70).
att(70,69).
att(70,68).
att(70,67).
att(70,66).
att(70,65).
att(70,64).
att(70,63).
att(70,62).
att(70,61).
att(70,60).
att(70,58).
att(70,57).
att(70,56).
att(70,54).
att(70,53).
att(70,51).
att(70,48).
att(70,47).
att(70,45).
att(70,44).
att(70,43).
att(70,42).
att(70,41).
att(70,39).
att(70,38).
att(70,36).
att(70,34).
att(70,33).
att(70,32).
att(70,31).
att(70,30).
att(70,29).
att(70,28).
att(70,26).
att(70,25).
att(70,24).
att(70,23).
att(70,22).
att(70,21).
att(70,20).
att(70,19).
att(70,18).
att(70,17).
att(70,16).
att(70,14).
att(70,13).
att(70,12).
att(70,11).
att(70,10).
att(70,9).
att(70,8).
att(70,7).
att(70,5).
att(70,4).
att(70,3).
att(70,2).
att(69,103).
att(69,102).
att(69,97).
att(69,89).
att(69,86).
att(69,85).
att(69,83).
att(69,77).
att(69,70).
att(69,68).
att(69,67).
att(69,66).
att(69,64).
att(69,63).
att(69,62).
att(69,60).
att(69,57).
att(69,48).
att(69,47).
att(69,43).
att(69,40).
att(69,35).
att(69,29).
att(69,25).
att(69,19).
att(69,14).
att(69,11).
att(69,10).
att(69,3).
att(68,107).
att(68,106).
att(68,104).
att(68,103).
att(68,102).
att(68,100).
att(68,99).
att(68,98).
att(68,97).
att(68,95).
att(68,94).
att(68,93).
att(68,91).
att(68,90).
att(68,89).
att(68,88).
att(68,86).
att(68,85).
att(68,84).
att(68,83).
att(68,82).
att(68,80).
att(68,79).
att(68,78).
att(68,77).
att(68,76).
att(68,74).
att(68,72).
att(68,71).
att(68,70).
att(68,69).
att(68,68).
att(68,67).
att(68,66).
att(68,65).
att(68,64).
att(68,63).
att(68,62).
att(68,61).
att(68,60).
att(68,59).
att(68,57).
att(68,56).
att(68,53).
att(68,48).
att(68,47).
att(68,45).
att(68,44).
att(68,43).
att(68,42).
att(68,41).
att(68,39).
att(68,38).
att(68,37).
att(68,33).
att(68,31).
att(68,30).
att(68,29).
att(68,28).
att(68,25).
att(68,24).
att(68,23).
att(68,22).
att(68,20).
att(68,19).
att(68,18).
att(68,14).
att(68,13).
att(68,12).
att(68,11).
att(68,10).
att(68,7).
att(68,5).
att(68,3).
att(68,2).
att(67,107).
att(67,106).
att(67,103).
att(67,102).
att(67,98).
att(67,97).
att(67,95).
att(67,94).
att(67,91).
att(67,90).
att(67,89).
att(67,88).
att(67,86).
att(67,85).
att(67,84).
att(67,83).
att(67,80).
att(67,79).
att(67,78).
att(67,77).
att(67,76).
att(67,74).
att(67,72).
att(67,71).
att(67,70).
att(67,69).
att(67,68).
att(67,67).
att(67,66).
att(67,65).
att(67,64).
att(67,63).
att(67,62).
att(67,61).
att(67,60).
att(67,57).
att(67,56).
att(67,53).
att(67,48).
att(67,47).
att(67,45).
att(67,42).
att(67,41).
att(67,39).
att(67,38).
att(67,36).
att(67,34).
att(67,33).
att(67,31).
att(67,30).
att(67,29).
att(67,28).
att(67,25).
att(67,23).
att(67,22).
att(67,20).
att(67,19).
att(67,18).
att(67,16).
att(67,14).
att(67,13).
att(67,12).
att(67,11).
att(67,10).
att(67,9).
att(67,7).
att(67,5).
att(67,3).
att(67,2).
att(66,107).
att(66,106).
att(66,104).
att(66,103).
att(66,102).
att(66,100).
att(66,99).
att(66,98).
att(66,97).
att(66,95).
att(66,94).
att(66,93).
att(66,91).
att(66,90).
att(66,89).
att(66,88).
att(66,86).
att(66,85).
att(66,84).
att(66,83).
att(66,82).
att(66,80).
att(66,79).
att(66,78).
att(66,77).
att(66,76).
att(66,74).
att(66,72).
att(66,71).
att(66,70).
att(66,69).
att(66,68).
att(66,67).
att(66,66).
att(66,65).
att(66,64).
att(66,63).
att(66,62).
att(66,61).
att(66,60).
att(66,57).
att(66,56).
att(66,53).
att(66,48).
att(66,47).
att(66,45).
att(66,44).
att(66,43).
att(66,42).
att(66,41).
att(66,39).
att(66,38).
att(66,37).
att(66,36).
att(66,34).
att(66,33).
att(66,31).
att(66,30).
att(66,29).
att(66,28).
att(66,25).
att(66,24).
att(66,23).
att(66,22).
att(66,20).
att(66,19).
att(66,18).
att(66,16).
att(66,14).
att(66,13).
att(66,12).
att(66,11).
att(66,10).
att(66,9).
att(66,7).
att(66,5).
att(66,3).
att(66,2).
att(65,107).
att(65,106).
att(65,104).
att(65,103).
att(65,100).
att(65,98).
att(65,97).
att(65,95).
att(65,94).
att(65,93).
att(65,90).
att(65,89).
att(65,88).
att(65,87).
att(65,86).
att(65,85).
att(65,84).
att(65,83).
att(65,82).
att(65,80).
att(65,79).
att(65,78).
att(65,77).
att(65,76).
att(65,74).
att(65,72).
att(65,71).
att(65,70).
att(65,68).
att(65,67).
att(65,66).
att(65,65).
att(65,64).
att(65,63).
att(65,62).
att(65,61).
att(65,60).
att(65,57).
att(65,56).
att(65,54).
att(65,53).
att(65,51).
att(65,47).
att(65,45).
att(65,44).
att(65,43).
att(65,42).
att(65,41).
att(65,38).
att(65,37).
att(65,36).
att(65,34).
att(65,33).
att(65,31).
att(65,29).
att(65,25).
att(65,24).
att(65,23).
att(65,22).
att(65,20).
att(65,19).
att(65,18).
att(65,16).
att(65,14).
att(65,13).
att(65,12).
att(65,11).
att(65,10).
att(65,9).
att(65,7).
att(65,3).
att(65,2).
att(65,1).
att(64,107).
att(64,106).
att(64,104).
att(64,103).
att(64,102).
att(64,100).
att(64,99).
att(64,98).
att(64,97).
att(64,95).
att(64,94).
att(64,93).
att(64,91).
att(64,90).
att(64,89).
att(64,88).
att(64,86).
att(64,85).
att(64,84).
att(64,83).
att(64,82).
att(64,80).
att(64,79).
att(64,78).
att(64,77).
att(64,76).
att(64,74).
att(64,72).
att(64,71).
att(64,70).
att(64,69).
att(64,68).
att(64,67).
att(64,66).
att(64,65).
att(64,64).
att(64,63).
att(64,62).
att(64,61).
att(64,60).
att(64,59).
att(64,57).
att(64,56).
att(64,54).
att(64,53).
att(64,51).
att(64,48).
att(64,47).
att(64,45).
att(64,44).
att(64,43).
att(64,42).
att(64,41).
att(64,39).
att(64,38).
att(64,37).
att(64,36).
att(64,34).
att(64,33).
att(64,31).
att(64,30).
att(64,29).
att(64,28).
att(64,25).
att(64,24).
att(64,23).
att(64,22).
att(64,20).
att(64,19).
att(64,18).
att(64,16).
att(64,14).
att(64,13).
att(64,12).
att(64,11).
att(64,10).
att(64,9).
att(64,7).
att(64,5).
att(64,3).
att(64,2).
att(64,1).
att(63,107).
att(63,106).
att(63,103).
att(63,102).
att(63,98).
att(63,97).
att(63,95).
att(63,94).
att(63,91).
att(63,90).
att(63,89).
att(63,88).
att(63,86).
att(63,85).
att(63,84).
att(63,83).
att(63,80).
att(63,79).
att(63,78).
att(63,77).
att(63,76).
att(63,74).
att(63,72).
att(63,71).
att(63,70).
att(63,69).
att(63,68).
att(63,67).
att(63,66).
att(63,65).
att(63,64).
att(63,63).
att(63,62).
att(63,61).
att(63,60).
att(63,57).
att(63,56).
att(63,53).
att(63,48).
att(63,47).
att(63,45).
att(63,42).
att(63,41).
att(63,39).
att(63,38).
att(63,36).
att(63,34).
att(63,33).
att(63,31).
att(63,30).
att(63,29).
att(63,28).
att(63,25).
att(63,23).
att(63,22).
att(63,20).
att(63,19).
att(63,18).
att(63,16).
att(63,14).
att(63,13).
att(63,12).
att(63,11).
att(63,10).
att(63,9).
att(63,7).
att(63,5).
att(63,3).
att(63,2).
att(62,107).
att(62,106).
att(62,104).
att(62,103).
att(62,102).
att(62,100).
att(62,99).
att(62,98).
att(62,97).
att(62,95).
att(62,94).
att(62,93).
att(62,91).
att(62,90).
att(62,89).
att(62,88).
att(62,86).
att(62,85).
att(62,84).
att(62,83).
att(62,82).
att(62,80).
att(62,79).
att(62,78).
att(62,77).
att(62,76).
att(62,74).
att(62,72).
att(62,71).
att(62,70).
att(62,69).
att(62,68).
att(62,67).
att(62,66).
att(62,65).
att(62,64).
att(62,63).
att(62,62).
att(62,61).
att(62,60).
att(62,57).
att(62,56).
att(62,53).
att(62,48).
att(62,47).
att(62,45).
att(62,44).
att(62,43).
att(62,42).
att(62,41).
att(62,39).
att(62,38).
att(62,37).
att(62,33).
att(62,31).
att(62,30).
att(62,29).
att(62,28).
att(62,25).
att(62,24).
att(62,23).
att(62,22).
att(62,20).
att(62,19).
att(62,18).
att(62,14).
att(62,13).
att(62,12).
att(62,11).
att(62,10).
att(62,7).
att(62,5).
att(62,3).
att(62,2).
att(61,107).
att(61,106).
att(61,105).
att(61,104).
att(61,103).
att(61,102).
att(61,101).
att(61,100).
att(61,98).
att(61,97).
att(61,95).
att(61,94).
att(61,93).
att(61,91).
att(61,90).
att(61,89).
att(61,88).
att(61,87).
att(61,86).
att(61,85).
att(61,84).
att(61,83).
att(61,82).
att(61,80).
att(61,79).
att(61,78).
att(61,77).
att(61,76).
att(61,74).
att(61,72).
att(61,71).
att(61,70).
att(61,68).
att(61,67).
att(61,66).
att(61,65).
att(61,64).
att(61,63).
att(61,62).
att(61,61).
att(61,60).
att(61,59).
att(61,57).
att(61,56).
att(61,54).
att(61,53).
att(61,51).
att(61,49).
att(61,48).
att(61,47).
att(61,45).
att(61,44).
att(61,43).
att(61,42).
att(61,41).
att(61,38).
att(61,37).
att(61,36).
att(61,34).
att(61,33).
att(61,32).
att(61,31).
att(61,30).
att(61,29).
att(61,25).
att(61,24).
att(61,23).
att(61,22).
att(61,21).
att(61,20).
att(61,19).
att(61,18).
att(61,16).
att(61,14).
att(61,13).
att(61,12).
att(61,11).
att(61,10).
att(61,9).
att(61,7).
att(61,4).
att(61,3).
att(61,2).
att(61,1).
att(60,103).
att(60,102).
att(60,97).
att(60,89).
att(60,86).
att(60,85).
att(60,83).
att(60,77).
att(60,70).
att(60,68).
att(60,67).
att(60,66).
att(60,64).
att(60,63).
att(60,62).
att(60,60).
att(60,57).
att(60,48).
att(60,47).
att(60,43).
att(60,40).
att(60,35).
att(60,29).
att(60,25).
att(60,19).
att(60,14).
att(60,11).
att(60,10).
att(60,3).
att(59,106).
att(59,105).
att(59,104).
att(59,94).
att(59,79).
att(59,76).
att(59,74).
att(59,56).
att(59,55).
att(59,54).
att(59,45).
att(59,44).
att(59,41).
att(59,20).
att(59,18).
att(59,12).
att(59,7).
att(59,4).
att(57,107).
att(57,106).
att(57,104).
att(57,103).
att(57,102).
att(57,100).
att(57,99).
att(57,98).
att(57,97).
att(57,95).
att(57,94).
att(57,93).
att(57,91).
att(57,90).
att(57,89).
att(57,88).
att(57,86).
att(57,85).
att(57,84).
att(57,83).
att(57,82).
att(57,80).
att(57,79).
att(57,78).
att(57,77).
att(57,76).
att(57,74).
att(57,72).
att(57,71).
att(57,70).
att(57,69).
att(57,68).
att(57,67).
att(57,66).
att(57,65).
att(57,64).
att(57,63).
att(57,62).
att(57,61).
att(57,60).
att(57,57).
att(57,56).
att(57,53).
att(57,48).
att(57,47).
att(57,45).
att(57,44).
att(57,43).
att(57,42).
att(57,41).
att(57,39).
att(57,38).
att(57,37).
att(57,36).
att(57,34).
att(57,33).
att(57,31).
att(57,30).
att(57,29).
att(57,28).
att(57,25).
att(57,24).
att(57,23).
att(57,22).
att(57,20).
att(57,19).
att(57,18).
att(57,16).
att(57,14).
att(57,13).
att(57,12).
att(57,11).
att(57,10).
att(57,9).
att(57,7).
att(57,5).
att(57,3).
att(57,2).
att(56,107).
att(56,106).
att(56,105).
att(56,104).
att(56,103).
att(56,102).
att(56,101).
att(56,99).
att(56,98).
att(56,97).
att(56,95).
att(56,94).
att(56,91).
att(56,90).
att(56,89).
att(56,88).
att(56,87).
att(56,86).
att(56,85).
att(56,84).
att(56,83).
att(56,82).
att(56,80).
att(56,79).
att(56,78).
att(56,77).
att(56,76).
att(56,75).
att(56,74).
att(56,72).
att(56,71).
att(56,70).
att(56,69).
att(56,68).
att(56,67).
att(56,66).
att(56,65).
att(56,64).
att(56,63).
att(56,62).
att(56,61).
att(56,60).
att(56,58).
att(56,57).
att(56,56).
att(56,54).
att(56,53).
att(56,51).
att(56,49).
att(56,48).
att(56,47).
att(56,45).
att(56,44).
att(56,43).
att(56,42).
att(56,41).
att(56,39).
att(56,38).
att(56,36).
att(56,34).
att(56,33).
att(56,32).
att(56,31).
att(56,30).
att(56,29).
att(56,28).
att(56,26).
att(56,25).
att(56,24).
att(56,23).
att(56,22).
att(56,21).
att(56,20).
att(56,19).
att(56,18).
att(56,16).
att(56,14).
att(56,13).
att(56,12).
att(56,11).
att(56,10).
att(56,9).
att(56,8).
att(56,7).
att(56,5).
att(56,4).
att(56,3).
att(56,2).
att(54,107).
att(54,103).
att(54,98).
att(54,97).
att(54,95).
att(54,94).
att(54,90).
att(54,89).
att(54,88).
att(54,86).
att(54,85).
att(54,84).
att(54,83).
att(54,80).
att(54,79).
att(54,78).
att(54,77).
att(54,76).
att(54,72).
att(54,71).
att(54,70).
att(54,68).
att(54,67).
att(54,66).
att(54,65).
att(54,64).
att(54,63).
att(54,62).
att(54,61).
att(54,60).
att(54,57).
att(54,56).
att(54,53).
att(54,49).
att(54,48).
att(54,47).
att(54,42).
att(54,41).
att(54,38).
att(54,36).
att(54,34).
att(54,32).
att(54,31).
att(54,29).
att(54,25).
att(54,23).
att(54,20).
att(54,19).
att(54,16).
att(54,14).
att(54,13).
att(54,12).
att(54,11).
att(54,10).
att(54,9).
att(54,7).
att(54,3).
att(53,107).
att(53,106).
att(53,105).
att(53,104).
att(53,103).
att(53,102).
att(53,101).
att(53,100).
att(53,99).
att(53,98).
att(53,97).
att(53,95).
att(53,94).
att(53,93).
att(53,91).
att(53,90).
att(53,89).
att(53,88).
att(53,87).
att(53,86).
att(53,85).
att(53,84).
att(53,83).
att(53,82).
att(53,80).
att(53,79).
att(53,78).
att(53,77).
att(53,76).
att(53,75).
att(53,74).
att(53,72).
att(53,71).
att(53,70).
att(53,69).
att(53,68).
att(53,67).
att(53,66).
att(53,65).
att(53,64).
att(53,63).
att(53,62).
att(53,61).
att(53,60).
att(53,58).
att(53,57).
att(53,56).
att(53,54).
att(53,53).
att(53,51).
att(53,49).
att(53,48).
att(53,47).
att(53,45).
att(53,44).
att(53,43).
att(53,42).
att(53,41).
att(53,39).
att(53,38).
att(53,37).
att(53,36).
att(53,34).
att(53,33).
att(53,32).
att(53,31).
att(53,30).
att(53,29).
att(53,28).
att(53,26).
att(53,25).
att(53,24).
att(53,23).
att(53,22).
att(53,21).
att(53,20).
att(53,19).
att(53,18).
att(53,16).
att(53,14).
att(53,13).
att(53,12).
att(53,11).
att(53,10).
att(53,9).
att(53,8).
att(53,7).
att(53,5).
att(53,4).
att(53,3).
att(53,2).
att(53,1).
att(51,107).
att(51,103).
att(51,98).
att(51,97).
att(51,95).
att(51,94).
att(51,90).
att(51,89).
att(51,88).
att(51,86).
att(51,85).
att(51,84).
att(51,83).
att(51,80).
att(51,79).
att(51,78).
att(51,77).
att(51,76).
att(51,72).
att(51,71).
att(51,70).
att(51,68).
att(51,67).
att(51,66).
att(51,65).
att(51,64).
att(51,63).
att(51,62).
att(51,61).
att(51,60).
att(51,57).
att(51,56).
att(51,53).
att(51,49).
att(51,48).
att(51,47).
att(51,42).
att(51,41).
att(51,38).
att(51,36).
att(51,34).
att(51,32).
att(51,31).
att(51,29).
att(51,25).
att(51,23).
att(51,20).
att(51,19).
att(51,16).
att(51,14).
att(51,13).
att(51,12).
att(51,11).
att(51,10).
att(51,9).
att(51,7).
att(51,3).
att(49,107).
att(49,106).
att(49,104).
att(49,103).
att(49,102).
att(49,101).
att(49,98).
att(49,97).
att(49,96).
att(49,95).
att(49,94).
att(49,90).
att(49,89).
att(49,88).
att(49,86).
att(49,85).
att(49,84).
att(49,83).
att(49,82).
att(49,80).
att(49,79).
att(49,78).
att(49,77).
att(49,76).
att(49,73).
att(49,72).
att(49,71).
att(49,70).
att(49,68).
att(49,67).
att(49,66).
att(49,65).
att(49,64).
att(49,63).
att(49,62).
att(49,61).
att(49,60).
att(49,57).
att(49,56).
att(49,54).
att(49,53).
att(49,51).
att(49,49).
att(49,48).
att(49,47).
att(49,45).
att(49,44).
att(49,43).
att(49,42).
att(49,41).
att(49,40).
att(49,38).
att(49,36).
att(49,35).
att(49,34).
att(49,33).
att(49,32).
att(49,31).
att(49,30).
att(49,29).
att(49,26).
att(49,25).
att(49,24).
att(49,23).
att(49,22).
att(49,20).
att(49,19).
att(49,18).
att(49,16).
att(49,14).
att(49,13).
att(49,12).
att(49,11).
att(49,10).
att(49,9).
att(49,7).
att(49,3).
att(49,2).
att(48,107).
att(48,106).
att(48,105).
att(48,104).
att(48,103).
att(48,102).
att(48,100).
att(48,94).
att(48,82).
att(48,79).
att(48,78).
att(48,77).
att(48,76).
att(48,74).
att(48,72).
att(48,70).
att(48,65).
att(48,61).
att(48,56).
att(48,55).
att(48,54).
att(48,53).
att(48,51).
att(48,48).
att(48,47).
att(48,45).
att(48,44).
att(48,43).
att(48,41).
att(48,40).
att(48,35).
att(48,33).
att(48,24).
att(48,23).
att(48,22).
att(48,20).
att(48,19).
att(48,18).
att(48,12).
att(48,11).
att(48,7).
att(48,4).
att(48,2).
att(48,1).
att(47,107).
att(47,102).
att(47,94).
att(47,88).
att(47,87).
att(47,78).
att(47,76).
att(47,72).
att(47,70).
att(47,65).
att(47,61).
att(47,59).
att(47,56).
att(47,53).
att(47,48).
att(47,43).
att(47,23).
att(47,20).
att(47,12).
att(47,7).
att(46,107).
att(46,106).
att(46,104).
att(46,103).
att(46,101).
att(46,98).
att(46,97).
att(46,96).
att(46,95).
att(46,94).
att(46,90).
att(46,89).
att(46,88).
att(46,86).
att(46,85).
att(46,84).
att(46,83).
att(46,82).
att(46,80).
att(46,79).
att(46,78).
att(46,77).
att(46,76).
att(46,73).
att(46,72).
att(46,71).
att(46,70).
att(46,68).
att(46,67).
att(46,66).
att(46,65).
att(46,64).
att(46,63).
att(46,62).
att(46,61).
att(46,60).
att(46,57).
att(46,56).
att(46,54).
att(46,53).
att(46,51).
att(46,49).
att(46,48).
att(46,47).
att(46,45).
att(46,44).
att(46,43).
att(46,42).
att(46,41).
att(46,40).
att(46,38).
att(46,36).
att(46,34).
att(46,33).
att(46,32).
att(46,31).
att(46,30).
att(46,29).
att(46,26).
att(46,25).
att(46,24).
att(46,23).
att(46,22).
att(46,20).
att(46,19).
att(46,18).
att(46,16).
att(46,14).
att(46,13).
att(46,12).
att(46,11).
att(46,10).
att(46,9).
att(46,7).
att(46,3).
att(46,2).
att(45,107).
att(45,103).
att(45,98).
att(45,97).
att(45,95).
att(45,94).
att(45,90).
att(45,89).
att(45,88).
att(45,86).
att(45,85).
att(45,84).
att(45,83).
att(45,80).
att(45,79).
att(45,78).
att(45,77).
att(45,76).
att(45,72).
att(45,71).
att(45,70).
att(45,68).
att(45,67).
att(45,66).
att(45,65).
att(45,64).
att(45,63).
att(45,62).
att(45,61).
att(45,60).
att(45,57).
att(45,56).
att(45,53).
att(45,49).
att(45,48).
att(45,47).
att(45,42).
att(45,41).
att(45,38).
att(45,36).
att(45,34).
att(45,32).
att(45,31).
att(45,29).
att(45,25).
att(45,23).
att(45,20).
att(45,19).
att(45,16).
att(45,14).
att(45,13).
att(45,12).
att(45,11).
att(45,10).
att(45,9).
att(45,7).
att(45,3).
att(44,107).
att(44,106).
att(44,105).
att(44,104).
att(44,103).
att(44,101).
att(44,98).
att(44,97).
att(44,95).
att(44,94).
att(44,91).
att(44,90).
att(44,89).
att(44,88).
att(44,86).
att(44,85).
att(44,84).
att(44,83).
att(44,82).
att(44,80).
att(44,79).
att(44,78).
att(44,77).
att(44,76).
att(44,72).
att(44,71).
att(44,70).
att(44,68).
att(44,67).
att(44,66).
att(44,65).
att(44,64).
att(44,63).
att(44,62).
att(44,61).
att(44,60).
att(44,57).
att(44,56).
att(44,54).
att(44,53).
att(44,51).
att(44,49).
att(44,48).
att(44,47).
att(44,45).
att(44,44).
att(44,42).
att(44,41).
att(44,38).
att(44,36).
att(44,34).
att(44,33).
att(44,32).
att(44,31).
att(44,30).
att(44,29).
att(44,25).
att(44,24).
att(44,23).
att(44,22).
att(44,21).
att(44,20).
att(44,19).
att(44,18).
att(44,16).
att(44,14).
att(44,13).
att(44,12).
att(44,11).
att(44,10).
att(44,9).
att(44,7).
att(44,4).
att(44,3).
att(44,2).
att(43,107).
att(43,106).
att(43,105).
att(43,104).
att(43,103).
att(43,102).
att(43,101).
att(43,97).
att(43,95).
att(43,94).
att(43,91).
att(43,90).
att(43,89).
att(43,88).
att(43,84).
att(43,83).
att(43,82).
att(43,81).
att(43,80).
att(43,79).
att(43,78).
att(43,77).
att(43,76).
att(43,75).
att(43,74).
att(43,72).
att(43,71).
att(43,70).
att(43,68).
att(43,66).
att(43,65).
att(43,64).
att(43,62).
att(43,61).
att(43,60).
att(43,59).
att(43,58).
att(43,57).
att(43,56).
att(43,55).
att(43,54).
att(43,53).
att(43,51).
att(43,49).
att(43,48).
att(43,47).
att(43,45).
att(43,44).
att(43,43).
att(43,42).
att(43,41).
att(43,38).
att(43,36).
att(43,33).
att(43,32).
att(43,30).
att(43,29).
att(43,26).
att(43,25).
att(43,24).
att(43,23).
att(43,22).
att(43,21).
att(43,20).
att(43,19).
att(43,18).
att(43,17).
att(43,14).
att(43,13).
att(43,12).
att(43,11).
att(43,10).
att(43,7).
att(43,4).
att(43,3).
att(43,2).
att(42,107).
att(42,106).
att(42,104).
att(42,103).
att(42,102).
att(42,100).
att(42,99).
att(42,98).
att(42,97).
att(42,95).
att(42,94).
att(42,91).
att(42,90).
att(42,89).
att(42,88).
att(42,86).
att(42,85).
att(42,84).
att(42,83).
att(42,82).
att(42,80).
att(42,79).
att(42,78).
att(42,77).
att(42,76).
att(42,74).
att(42,72).
att(42,71).
att(42,70).
att(42,69).
att(42,68).
att(42,67).
att(42,66).
att(42,65).
att(42,64).
att(42,63).
att(42,62).
att(42,61).
att(42,60).
att(42,59).
att(42,57).
att(42,56).
att(42,54).
att(42,53).
att(42,51).
att(42,48).
att(42,47).
att(42,45).
att(42,44).
att(42,43).
att(42,42).
att(42,41).
att(42,39).
att(42,38).
att(42,36).
att(42,34).
att(42,33).
att(42,31).
att(42,30).
att(42,29).
att(42,28).
att(42,25).
att(42,24).
att(42,23).
att(42,22).
att(42,20).
att(42,19).
att(42,18).
att(42,16).
att(42,14).
att(42,13).
att(42,12).
att(42,11).
att(42,10).
att(42,9).
att(42,7).
att(42,5).
att(42,3).
att(42,2).
att(42,1).
att(41,107).
att(41,106).
att(41,105).
att(41,104).
att(41,103).
att(41,101).
att(41,100).
att(41,99).
att(41,98).
att(41,97).
att(41,95).
att(41,94).
att(41,91).
att(41,90).
att(41,89).
att(41,88).
att(41,87).
att(41,86).
att(41,85).
att(41,84).
att(41,83).
att(41,82).
att(41,80).
att(41,79).
att(41,78).
att(41,77).
att(41,76).
att(41,74).
att(41,72).
att(41,71).
att(41,70).
att(41,68).
att(41,67).
att(41,66).
att(41,65).
att(41,64).
att(41,63).
att(41,62).
att(41,61).
att(41,60).
att(41,57).
att(41,56).
att(41,54).
att(41,53).
att(41,51).
att(41,49).
att(41,48).
att(41,47).
att(41,45).
att(41,44).
att(41,42).
att(41,41).
att(41,38).
att(41,36).
att(41,34).
att(41,33).
att(41,32).
att(41,31).
att(41,30).
att(41,29).
att(41,25).
att(41,24).
att(41,23).
att(41,22).
att(41,21).
att(41,20).
att(41,19).
att(41,18).
att(41,16).
att(41,14).
att(41,13).
att(41,12).
att(41,11).
att(41,10).
att(41,9).
att(41,7).
att(41,4).
att(41,3).
att(41,2).
att(41,1).
att(40,103).
att(40,102).
att(40,70).
att(40,48).
att(40,43).
att(40,40).
att(40,35).
att(40,19).
att(38,107).
att(38,106).
att(38,103).
att(38,102).
att(38,98).
att(38,97).
att(38,95).
att(38,94).
att(38,91).
att(38,90).
att(38,89).
att(38,88).
att(38,86).
att(38,85).
att(38,84).
att(38,83).
att(38,80).
att(38,78).
att(38,77).
att(38,76).
att(38,74).
att(38,72).
att(38,71).
att(38,70).
att(38,69).
att(38,68).
att(38,67).
att(38,66).
att(38,65).
att(38,64).
att(38,63).
att(38,62).
att(38,61).
att(38,60).
att(38,59).
att(38,57).
att(38,56).
att(38,53).
att(38,48).
att(38,47).
att(38,45).
att(38,43).
att(38,42).
att(38,41).
att(38,39).
att(38,38).
att(38,33).
att(38,31).
att(38,30).
att(38,29).
att(38,28).
att(38,25).
att(38,23).
att(38,22).
att(38,20).
att(38,19).
att(38,18).
att(38,14).
att(38,13).
att(38,12).
att(38,11).
att(38,10).
att(38,7).
att(38,5).
att(38,3).
att(38,2).
att(37,107).
att(37,106).
att(37,105).
att(37,104).
att(37,102).
att(37,101).
att(37,97).
att(37,94).
att(37,91).
att(37,84).
att(37,82).
att(37,78).
att(37,77).
att(37,76).
att(37,72).
att(37,68).
att(37,65).
att(37,61).
att(37,60).
att(37,59).
att(37,56).
att(37,54).
att(37,53).
att(37,51).
att(37,48).
att(37,45).
att(37,44).
att(37,43).
att(37,41).
att(37,38).
att(37,33).
att(37,30).
att(37,24).
att(37,23).
att(37,22).
att(37,21).
att(37,20).
att(37,18).
att(37,12).
att(37,10).
att(37,7).
att(37,4).
att(37,2).
att(36,107).
att(36,106).
att(36,103).
att(36,102).
att(36,99).
att(36,98).
att(36,97).
att(36,95).
att(36,94).
att(36,91).
att(36,90).
att(36,89).
att(36,88).
att(36,86).
att(36,85).
att(36,84).
att(36,83).
att(36,80).
att(36,79).
att(36,78).
att(36,77).
att(36,76).
att(36,74).
att(36,72).
att(36,71).
att(36,70).
att(36,69).
att(36,68).
att(36,67).
att(36,66).
att(36,65).
att(36,64).
att(36,63).
att(36,62).
att(36,61).
att(36,60).
att(36,57).
att(36,56).
att(36,53).
att(36,48).
att(36,47).
att(36,45).
att(36,42).
att(36,41).
att(36,39).
att(36,38).
att(36,36).
att(36,34).
att(36,33).
att(36,31).
att(36,30).
att(36,29).
att(36,28).
att(36,25).
att(36,23).
att(36,22).
att(36,20).
att(36,19).
att(36,18).
att(36,16).
att(36,14).
att(36,13).
att(36,12).
att(36,11).
att(36,10).
att(36,9).
att(36,7).
att(36,5).
att(36,3).
att(36,2).
att(34,107).
att(34,98).
att(34,97).
att(34,95).
att(34,94).
att(34,89).
att(34,88).
att(34,87).
att(34,86).
att(34,85).
att(34,84).
att(34,83).
att(34,80).
att(34,79).
att(34,78).
att(34,77).
att(34,76).
att(34,72).
att(34,71).
att(34,70).
att(34,68).
att(34,67).
att(34,66).
att(34,65).
att(34,64).
att(34,63).
att(34,62).
att(34,61).
att(34,60).
att(34,57).
att(34,56).
att(34,53).
att(34,47).
att(34,42).
att(34,41).
att(34,38).
att(34,36).
att(34,34).
att(34,31).
att(34,29).
att(34,25).
att(34,23).
att(34,20).
att(34,16).
att(34,14).
att(34,13).
att(34,12).
att(34,11).
att(34,10).
att(34,9).
att(34,7).
att(34,3).
att(33,107).
att(33,103).
att(33,98).
att(33,97).
att(33,95).
att(33,94).
att(33,90).
att(33,89).
att(33,88).
att(33,86).
att(33,85).
att(33,84).
att(33,83).
att(33,80).
att(33,79).
att(33,78).
att(33,77).
att(33,76).
att(33,72).
att(33,71).
att(33,70).
att(33,68).
att(33,67).
att(33,66).
att(33,65).
att(33,64).
att(33,63).
att(33,62).
att(33,61).
att(33,60).
att(33,57).
att(33,56).
att(33,53).
att(33,49).
att(33,48).
att(33,47).
att(33,42).
att(33,41).
att(33,38).
att(33,36).
att(33,34).
att(33,32).
att(33,31).
att(33,29).
att(33,25).
att(33,23).
att(33,20).
att(33,19).
att(33,16).
att(33,14).
att(33,13).
att(33,12).
att(33,11).
att(33,10).
att(33,9).
att(33,7).
att(33,3).
att(32,103).
att(32,102).
att(32,70).
att(32,48).
att(32,43).
att(32,40).
att(32,35).
att(32,19).
att(31,107).
att(31,106).
att(31,103).
att(31,102).
att(31,98).
att(31,97).
att(31,95).
att(31,94).
att(31,91).
att(31,90).
att(31,89).
att(31,88).
att(31,86).
att(31,85).
att(31,84).
att(31,83).
att(31,80).
att(31,79).
att(31,78).
att(31,77).
att(31,76).
att(31,74).
att(31,72).
att(31,71).
att(31,70).
att(31,69).
att(31,68).
att(31,67).
att(31,66).
att(31,65).
att(31,64).
att(31,63).
att(31,62).
att(31,61).
att(31,60).
att(31,57).
att(31,56).
att(31,53).
att(31,48).
att(31,47).
att(31,45).
att(31,42).
att(31,41).
att(31,39).
att(31,38).
att(31,36).
att(31,34).
att(31,33).
att(31,31).
att(31,30).
att(31,29).
att(31,28).
att(31,25).
att(31,23).
att(31,22).
att(31,20).
att(31,19).
att(31,18).
att(31,16).
att(31,14).
att(31,13).
att(31,12).
att(31,11).
att(31,10).
att(31,9).
att(31,7).
att(31,5).
att(31,3).
att(31,2).
att(30,107).
att(30,106).
att(30,104).
att(30,103).
att(30,102).
att(30,101).
att(30,98).
att(30,97).
att(30,96).
att(30,95).
att(30,94).
att(30,90).
att(30,89).
att(30,88).
att(30,86).
att(30,85).
att(30,84).
att(30,83).
att(30,82).
att(30,80).
att(30,79).
att(30,78).
att(30,77).
att(30,76).
att(30,73).
att(30,72).
att(30,71).
att(30,70).
att(30,68).
att(30,67).
att(30,66).
att(30,65).
att(30,64).
att(30,63).
att(30,62).
att(30,61).
att(30,60).
att(30,57).
att(30,56).
att(30,54).
att(30,53).
att(30,51).
att(30,49).
att(30,48).
att(30,47).
att(30,45).
att(30,44).
att(30,43).
att(30,42).
att(30,41).
att(30,40).
att(30,38).
att(30,36).
att(30,35).
att(30,34).
att(30,33).
att(30,32).
att(30,31).
att(30,30).
att(30,29).
att(30,26).
att(30,25).
att(30,24).
att(30,23).
att(30,22).
att(30,20).
att(30,19).
att(30,18).
att(30,16).
att(30,14).
att(30,13).
att(30,12).
att(30,11).
att(30,10).
att(30,9).
att(30,7).
att(30,3).
att(30,2).
att(29,107).
att(29,106).
att(29,104).
att(29,103).
att(29,100).
att(29,99).
att(29,94).
att(29,93).
att(29,90).
att(29,89).
att(29,88).
att(29,85).
att(29,83).
att(29,82).
att(29,79).
att(29,78).
att(29,76).
att(29,72).
att(29,70).
att(29,68).
att(29,67).
att(29,66).
att(29,64).
att(29,63).
att(29,62).
att(29,61).
att(29,57).
att(29,56).
att(29,53).
att(29,44).
att(29,43).
att(29,41).
att(29,37).
att(29,29).
att(29,25).
att(29,24).
att(29,22).
att(29,20).
att(29,19).
att(29,18).
att(29,14).
att(29,10).
att(29,7).
att(29,3).
att(29,2).
att(27,107).
att(27,106).
att(27,103).
att(27,102).
att(27,98).
att(27,95).
att(27,94).
att(27,91).
att(27,90).
att(27,89).
att(27,88).
att(27,85).
att(27,84).
att(27,83).
att(27,80).
att(27,78).
att(27,76).
att(27,74).
att(27,72).
att(27,71).
att(27,70).
att(27,69).
att(27,68).
att(27,67).
att(27,66).
att(27,65).
att(27,64).
att(27,62).
att(27,61).
att(27,60).
att(27,57).
att(27,56).
att(27,53).
att(27,48).
att(27,45).
att(27,42).
att(27,41).
att(27,39).
att(27,38).
att(27,33).
att(27,31).
att(27,30).
att(27,29).
att(27,28).
att(27,25).
att(27,23).
att(27,22).
att(27,20).
att(27,19).
att(27,18).
att(27,14).
att(27,13).
att(27,12).
att(27,10).
att(27,7).
att(27,5).
att(27,2).
att(25,107).
att(25,106).
att(25,104).
att(25,103).
att(25,102).
att(25,100).
att(25,99).
att(25,98).
att(25,97).
att(25,95).
att(25,94).
att(25,93).
att(25,91).
att(25,90).
att(25,89).
att(25,88).
att(25,86).
att(25,85).
att(25,84).
att(25,83).
att(25,82).
att(25,80).
att(25,79).
att(25,78).
att(25,77).
att(25,76).
att(25,74).
att(25,72).
att(25,71).
att(25,70).
att(25,69).
att(25,68).
att(25,67).
att(25,66).
att(25,65).
att(25,64).
att(25,63).
att(25,62).
att(25,61).
att(25,60).
att(25,57).
att(25,56).
att(25,53).
att(25,48).
att(25,47).
att(25,45).
att(25,44).
att(25,43).
att(25,42).
att(25,41).
att(25,39).
att(25,38).
att(25,37).
att(25,36).
att(25,34).
att(25,33).
att(25,31).
att(25,30).
att(25,29).
att(25,28).
att(25,25).
att(25,24).
att(25,23).
att(25,22).
att(25,20).
att(25,19).
att(25,18).
att(25,16).
att(25,14).
att(25,13).
att(25,12).
att(25,11).
att(25,10).
att(25,9).
att(25,7).
att(25,5).
att(25,3).
att(25,2).
att(24,107).
att(24,106).
att(24,105).
att(24,104).
att(24,103).
att(24,101).
att(24,98).
att(24,97).
att(24,95).
att(24,94).
att(24,91).
att(24,90).
att(24,89).
att(24,88).
att(24,86).
att(24,85).
att(24,84).
att(24,83).
att(24,82).
att(24,80).
att(24,79).
att(24,78).
att(24,77).
att(24,76).
att(24,72).
att(24,71).
att(24,70).
att(24,68).
att(24,67).
att(24,66).
att(24,65).
att(24,64).
att(24,63).
att(24,62).
att(24,61).
att(24,60).
att(24,57).
att(24,56).
att(24,54).
att(24,53).
att(24,51).
att(24,49).
att(24,48).
att(24,47).
att(24,45).
att(24,44).
att(24,42).
att(24,41).
att(24,38).
att(24,36).
att(24,34).
att(24,33).
att(24,32).
att(24,31).
att(24,30).
att(24,29).
att(24,25).
att(24,24).
att(24,23).
att(24,22).
att(24,21).
att(24,20).
att(24,19).
att(24,18).
att(24,16).
att(24,14).
att(24,13).
att(24,12).
att(24,11).
att(24,10).
att(24,9).
att(24,7).
att(24,4).
att(24,3).
att(24,2).
att(23,107).
att(23,106).
att(23,104).
att(23,103).
att(23,100).
att(23,98).
att(23,97).
att(23,95).
att(23,94).
att(23,93).
att(23,90).
att(23,89).
att(23,88).
att(23,87).
att(23,86).
att(23,85).
att(23,84).
att(23,83).
att(23,82).
att(23,80).
att(23,79).
att(23,78).
att(23,77).
att(23,76).
att(23,74).
att(23,72).
att(23,71).
att(23,70).
att(23,68).
att(23,67).
att(23,66).
att(23,65).
att(23,64).
att(23,63).
att(23,62).
att(23,61).
att(23,60).
att(23,57).
att(23,56).
att(23,54).
att(23,53).
att(23,51).
att(23,49).
att(23,48).
att(23,47).
att(23,45).
att(23,44).
att(23,43).
att(23,42).
att(23,41).
att(23,38).
att(23,37).
att(23,36).
att(23,34).
att(23,33).
att(23,32).
att(23,31).
att(23,29).
att(23,25).
att(23,24).
att(23,23).
att(23,22).
att(23,20).
att(23,19).
att(23,18).
att(23,16).
att(23,14).
att(23,13).
att(23,12).
att(23,11).
att(23,10).
att(23,9).
att(23,7).
att(23,3).
att(23,2).
att(23,1).
att(22,107).
att(22,106).
att(22,105).
att(22,104).
att(22,103).
att(22,101).
att(22,98).
att(22,97).
att(22,95).
att(22,94).
att(22,91).
att(22,90).
att(22,89).
att(22,88).
att(22,86).
att(22,85).
att(22,84).
att(22,83).
att(22,82).
att(22,80).
att(22,79).
att(22,78).
att(22,77).
att(22,76).
att(22,72).
att(22,71).
att(22,70).
att(22,68).
att(22,67).
att(22,66).
att(22,65).
att(22,64).
att(22,63).
att(22,62).
att(22,61).
att(22,60).
att(22,57).
att(22,56).
att(22,54).
att(22,53).
att(22,51).
att(22,49).
att(22,48).
att(22,47).
att(22,45).
att(22,44).
att(22,42).
att(22,41).
att(22,38).
att(22,36).
att(22,34).
att(22,33).
att(22,32).
att(22,31).
att(22,30).
att(22,29).
att(22,25).
att(22,24).
att(22,23).
att(22,22).
att(22,21).
att(22,20).
att(22,19).
att(22,18).
att(22,16).
att(22,14).
att(22,13).
att(22,12).
att(22,11).
att(22,10).
att(22,9).
att(22,7).
att(22,4).
att(22,3).
att(22,2).
att(21,105).
att(21,102).
att(21,95).
att(21,81).
att(21,80).
att(21,71).
att(21,64).
att(21,57).
att(21,48).
att(21,47).
att(21,43).
att(21,42).
att(21,36).
att(21,25).
att(21,17).
att(21,14).
att(21,13).
att(21,11).
att(20,107).
att(20,106).
att(20,105).
att(20,104).
att(20,103).
att(20,102).
att(20,101).
att(20,99).
att(20,98).
att(20,97).
att(20,95).
att(20,94).
att(20,91).
att(20,90).
att(20,89).
att(20,88).
att(20,87).
att(20,86).
att(20,85).
att(20,84).
att(20,83).
att(20,82).
att(20,80).
att(20,79).
att(20,78).
att(20,77).
att(20,76).
att(20,75).
att(20,74).
att(20,72).
att(20,71).
att(20,70).
att(20,69).
att(20,68).
att(20,67).
att(20,66).
att(20,65).
att(20,64).
att(20,63).
att(20,62).
att(20,61).
att(20,60).
att(20,59).
att(20,58).
att(20,57).
att(20,56).
att(20,54).
att(20,53).
att(20,51).
att(20,49).
att(20,48).
att(20,47).
att(20,45).
att(20,44).
att(20,43).
att(20,42).
att(20,41).
att(20,39).
att(20,38).
att(20,36).
att(20,34).
att(20,33).
att(20,32).
att(20,31).
att(20,30).
att(20,29).
att(20,28).
att(20,26).
att(20,25).
att(20,24).
att(20,23).
att(20,22).
att(20,21).
att(20,20).
att(20,19).
att(20,18).
att(20,16).
att(20,14).
att(20,13).
att(20,12).
att(20,11).
att(20,10).
att(20,9).
att(20,8).
att(20,7).
att(20,5).
att(20,4).
att(20,3).
att(20,2).
att(19,107).
att(19,106).
att(19,105).
att(19,104).
att(19,103).
att(19,102).
att(19,101).
att(19,98).
att(19,97).
att(19,96).
att(19,95).
att(19,94).
att(19,91).
att(19,90).
att(19,89).
att(19,88).
att(19,86).
att(19,85).
att(19,84).
att(19,83).
att(19,82).
att(19,81).
att(19,80).
att(19,79).
att(19,78).
att(19,77).
att(19,76).
att(19,75).
att(19,73).
att(19,72).
att(19,71).
att(19,70).
att(19,68).
att(19,67).
att(19,66).
att(19,65).
att(19,64).
att(19,63).
att(19,62).
att(19,61).
att(19,60).
att(19,58).
att(19,57).
att(19,56).
att(19,54).
att(19,53).
att(19,51).
att(19,49).
att(19,48).
att(19,47).
att(19,45).
att(19,44).
att(19,43).
att(19,42).
att(19,41).
att(19,40).
att(19,38).
att(19,36).
att(19,34).
att(19,33).
att(19,32).
att(19,31).
att(19,30).
att(19,29).
att(19,26).
att(19,25).
att(19,24).
att(19,23).
att(19,22).
att(19,21).
att(19,20).
att(19,19).
att(19,18).
att(19,17).
att(19,16).
att(19,14).
att(19,13).
att(19,12).
att(19,11).
att(19,10).
att(19,9).
att(19,8).
att(19,7).
att(19,4).
att(19,3).
att(19,2).
att(18,107).
att(18,106).
att(18,105).
att(18,104).
att(18,103).
att(18,101).
att(18,98).
att(18,97).
att(18,95).
att(18,94).
att(18,91).
att(18,90).
att(18,89).
att(18,88).
att(18,86).
att(18,85).
att(18,84).
att(18,83).
att(18,82).
att(18,80).
att(18,79).
att(18,78).
att(18,77).
att(18,76).
att(18,72).
att(18,71).
att(18,70).
att(18,68).
att(18,67).
att(18,66).
att(18,65).
att(18,64).
att(18,63).
att(18,62).
att(18,61).
att(18,60).
att(18,57).
att(18,56).
att(18,54).
att(18,53).
att(18,51).
att(18,49).
att(18,48).
att(18,47).
att(18,45).
att(18,44).
att(18,42).
att(18,41).
att(18,38).
att(18,36).
att(18,34).
att(18,33).
att(18,32).
att(18,31).
att(18,30).
att(18,29).
att(18,25).
att(18,24).
att(18,23).
att(18,22).
att(18,21).
att(18,20).
att(18,19).
att(18,18).
att(18,16).
att(18,14).
att(18,13).
att(18,12).
att(18,11).
att(18,10).
att(18,9).
att(18,7).
att(18,4).
att(18,3).
att(18,2).
att(16,103).
att(16,99).
att(16,90).
att(16,89).
att(16,88).
att(16,85).
att(16,83).
att(16,79).
att(16,78).
att(16,76).
att(16,72).
att(16,70).
att(16,68).
att(16,67).
att(16,66).
att(16,64).
att(16,63).
att(16,62).
att(16,57).
att(16,56).
att(16,53).
att(16,29).
att(16,25).
att(16,20).
att(16,19).
att(16,14).
att(16,10).
att(16,3).
att(15,102).
att(15,59).
att(15,48).
att(15,43).
att(14,107).
att(14,106).
att(14,104).
att(14,103).
att(14,102).
att(14,100).
att(14,99).
att(14,98).
att(14,97).
att(14,95).
att(14,94).
att(14,93).
att(14,91).
att(14,90).
att(14,89).
att(14,88).
att(14,86).
att(14,85).
att(14,84).
att(14,83).
att(14,82).
att(14,80).
att(14,79).
att(14,78).
att(14,77).
att(14,76).
att(14,74).
att(14,72).
att(14,71).
att(14,70).
att(14,69).
att(14,68).
att(14,67).
att(14,66).
att(14,65).
att(14,64).
att(14,63).
att(14,62).
att(14,61).
att(14,60).
att(14,59).
att(14,57).
att(14,56).
att(14,54).
att(14,53).
att(14,51).
att(14,48).
att(14,47).
att(14,45).
att(14,44).
att(14,43).
att(14,42).
att(14,41).
att(14,39).
att(14,38).
att(14,37).
att(14,36).
att(14,34).
att(14,33).
att(14,31).
att(14,30).
att(14,29).
att(14,28).
att(14,25).
att(14,24).
att(14,23).
att(14,22).
att(14,20).
att(14,19).
att(14,18).
att(14,16).
att(14,14).
att(14,13).
att(14,12).
att(14,11).
att(14,10).
att(14,9).
att(14,7).
att(14,5).
att(14,3).
att(14,2).
att(14,1).
att(13,107).
att(13,106).
att(13,104).
att(13,103).
att(13,102).
att(13,100).
att(13,99).
att(13,98).
att(13,97).
att(13,95).
att(13,94).
att(13,91).
att(13,90).
att(13,89).
att(13,88).
att(13,86).
att(13,85).
att(13,84).
att(13,83).
att(13,82).
att(13,80).
att(13,79).
att(13,78).
att(13,77).
att(13,76).
att(13,74).
att(13,72).
att(13,71).
att(13,70).
att(13,69).
att(13,68).
att(13,67).
att(13,66).
att(13,65).
att(13,64).
att(13,63).
att(13,62).
att(13,61).
att(13,60).
att(13,59).
att(13,57).
att(13,56).
att(13,54).
att(13,53).
att(13,51).
att(13,48).
att(13,47).
att(13,45).
att(13,44).
att(13,43).
att(13,42).
att(13,41).
att(13,39).
att(13,38).
att(13,36).
att(13,34).
att(13,33).
att(13,31).
att(13,30).
att(13,29).
att(13,28).
att(13,25).
att(13,24).
att(13,23).
att(13,22).
att(13,20).
att(13,19).
att(13,18).
att(13,16).
att(13,14).
att(13,13).
att(13,12).
att(13,11).
att(13,10).
att(13,9).
att(13,7).
att(13,5).
att(13,3).
att(13,2).
att(13,1).
att(12,107).
att(12,106).
att(12,104).
att(12,103).
att(12,100).
att(12,98).
att(12,97).
att(12,95).
att(12,94).
att(12,93).
att(12,90).
att(12,89).
att(12,88).
att(12,87).
att(12,86).
att(12,85).
att(12,84).
att(12,83).
att(12,82).
att(12,80).
att(12,79).
att(12,78).
att(12,77).
att(12,76).
att(12,74).
att(12,72).
att(12,71).
att(12,70).
att(12,68).
att(12,67).
att(12,66).
att(12,65).
att(12,64).
att(12,63).
att(12,62).
att(12,61).
att(12,60).
att(12,57).
att(12,56).
att(12,54).
att(12,53).
att(12,51).
att(12,49).
att(12,48).
att(12,47).
att(12,45).
att(12,44).
att(12,43).
att(12,42).
att(12,41).
att(12,38).
att(12,37).
att(12,36).
att(12,34).
att(12,33).
att(12,32).
att(12,31).
att(12,29).
att(12,25).
att(12,24).
att(12,23).
att(12,22).
att(12,20).
att(12,19).
att(12,18).
att(12,16).
att(12,14).
att(12,13).
att(12,12).
att(12,11).
att(12,10).
att(12,9).
att(12,7).
att(12,3).
att(12,2).
att(12,1).
att(11,102).
att(11,59).
att(11,48).
att(11,43).
att(10,107).
att(10,106).
att(10,104).
att(10,103).
att(10,102).
att(10,100).
att(10,99).
att(10,98).
att(10,97).
att(10,95).
att(10,94).
att(10,93).
att(10,91).
att(10,90).
att(10,89).
att(10,88).
att(10,86).
att(10,85).
att(10,84).
att(10,83).
att(10,82).
att(10,80).
att(10,79).
att(10,78).
att(10,77).
att(10,76).
att(10,74).
att(10,72).
att(10,71).
att(10,70).
att(10,69).
att(10,68).
att(10,67).
att(10,66).
att(10,65).
att(10,64).
att(10,63).
att(10,62).
att(10,61).
att(10,60).
att(10,59).
att(10,57).
att(10,56).
att(10,53).
att(10,48).
att(10,47).
att(10,45).
att(10,44).
att(10,43).
att(10,42).
att(10,41).
att(10,39).
att(10,38).
att(10,37).
att(10,36).
att(10,34).
att(10,33).
att(10,31).
att(10,30).
att(10,29).
att(10,28).
att(10,25).
att(10,24).
att(10,23).
att(10,22).
att(10,20).
att(10,19).
att(10,18).
att(10,16).
att(10,14).
att(10,13).
att(10,12).
att(10,11).
att(10,10).
att(10,9).
att(10,7).
att(10,5).
att(10,3).
att(10,2).
att(9,107).
att(9,94).
att(9,88).
att(9,87).
att(9,78).
att(9,76).
att(9,72).
att(9,70).
att(9,65).
att(9,61).
att(9,56).
att(9,53).
att(9,23).
att(9,20).
att(9,12).
att(9,7).
att(7,107).
att(7,106).
att(7,105).
att(7,104).
att(7,103).
att(7,101).
att(7,100).
att(7,98).
att(7,97).
att(7,95).
att(7,94).
att(7,93).
att(7,91).
att(7,90).
att(7,89).
att(7,88).
att(7,87).
att(7,86).
att(7,85).
att(7,84).
att(7,83).
att(7,82).
att(7,80).
att(7,79).
att(7,78).
att(7,77).
att(7,76).
att(7,74).
att(7,72).
att(7,71).
att(7,70).
att(7,68).
att(7,67).
att(7,66).
att(7,65).
att(7,64).
att(7,63).
att(7,62).
att(7,61).
att(7,60).
att(7,57).
att(7,56).
att(7,54).
att(7,53).
att(7,51).
att(7,49).
att(7,48).
att(7,47).
att(7,45).
att(7,44).
att(7,43).
att(7,42).
att(7,41).
att(7,38).
att(7,37).
att(7,36).
att(7,34).
att(7,33).
att(7,32).
att(7,31).
att(7,30).
att(7,29).
att(7,25).
att(7,24).
att(7,23).
att(7,22).
att(7,21).
att(7,20).
att(7,19).
att(7,18).
att(7,16).
att(7,14).
att(7,13).
att(7,12).
att(7,11).
att(7,10).
att(7,9).
att(7,7).
att(7,4).
att(7,3).
att(7,2).
att(7,1).
att(5,107).
att(5,106).
att(5,104).
att(5,102).
att(5,100).
att(5,98).
att(5,97).
att(5,95).
att(5,94).
att(5,89).
att(5,88).
att(5,86).
att(5,85).
att(5,84).
att(5,83).
att(5,82).
att(5,80).
att(5,79).
att(5,78).
att(5,77).
att(5,76).
att(5,74).
att(5,72).
att(5,71).
att(5,70).
att(5,68).
att(5,67).
att(5,66).
att(5,65).
att(5,64).
att(5,63).
att(5,62).
att(5,61).
att(5,60).
att(5,59).
att(5,57).
att(5,56).
att(5,54).
att(5,53).
att(5,51).
att(5,48).
att(5,47).
att(5,45).
att(5,44).
att(5,43).
att(5,42).
att(5,41).
att(5,38).
att(5,36).
att(5,34).
att(5,33).
att(5,31).
att(5,29).
att(5,25).
att(5,24).
att(5,23).
att(5,22).
att(5,20).
att(5,18).
att(5,16).
att(5,14).
att(5,13).
att(5,12).
att(5,11).
att(5,10).
att(5,9).
att(5,7).
att(5,3).
att(5,2).
att(5,1).
att(3,107).
att(3,106).
att(3,104).
att(3,103).
att(3,100).
att(3,99).
att(3,98).
att(3,97).
att(3,95).
att(3,94).
att(3,93).
att(3,90).
att(3,89).
att(3,88).
att(3,86).
att(3,85).
att(3,84).
att(3,83).
att(3,82).
att(3,80).
att(3,79).
att(3,78).
att(3,77).
att(3,76).
att(3,72).
att(3,71).
att(3,70).
att(3,68).
att(3,67).
att(3,66).
att(3,65).
att(3,64).
att(3,63).
att(3,62).
att(3,61).
att(3,60).
att(3,57).
att(3,56).
att(3,53).
att(3,47).
att(3,44).
att(3,43).
att(3,42).
att(3,41).
att(3,38).
att(3,37).
att(3,36).
att(3,34).
att(3,31).
att(3,29).
att(3,25).
att(3,24).
att(3,23).
att(3,22).
att(3,20).
att(3,19).
att(3,18).
att(3,16).
att(3,14).
att(3,13).
att(3,12).
att(3,11).
att(3,10).
att(3,9).
att(3,7).
att(3,3).
att(3,2).
att(2,107).
att(2,106).
att(2,105).
att(2,104).
att(2,103).
att(2,102).
att(2,101).
att(2,98).
att(2,97).
att(2,95).
att(2,94).
att(2,91).
att(2,90).
att(2,89).
att(2,88).
att(2,86).
att(2,85).
att(2,84).
att(2,83).
att(2,82).
att(2,80).
att(2,79).
att(2,78).
att(2,77).
att(2,76).
att(2,72).
att(2,71).
att(2,70).
att(2,68).
att(2,67).
att(2,66).
att(2,65).
att(2,64).
att(2,63).
att(2,62).
att(2,61).
att(2,60).
att(2,59).
att(2,57).
att(2,56).
att(2,54).
att(2,53).
att(2,51).
att(2,49).
att(2,48).
att(2,47).
att(2,45).
att(2,44).
att(2,43).
att(2,42).
att(2,41).
att(2,38).
att(2,36).
att(2,34).
att(2,33).
att(2,32).
att(2,31).
att(2,30).
att(2,29).
att(2,25).
att(2,24).
att(2,23).
att(2,22).
att(2,21).
att(2,20).
att(2,19).
att(2,18).
att(2,16).
att(2,14).
att(2,13).
att(2,12).
att(2,11).
att(2,10).
att(2,9).
att(2,7).
att(2,4).
att(2,3).
att(2,2).
