arg(1..120).
att(120,120).
att(120,119).
att(120,118).
att(120,117).
att(120,116).
att(120,115).
att(120,114).
att(120,113).
att(120,112).
att(120,111).
att(120,110).
att(120,108).
att(120,107).
att(120,106).
att(120,105).
att(120,104).
att(120,103).
att(120,102).
att(120,101).
att(120,100).
att(120,99).
att(120,98).
att(120,97).
att(120,96).
att(120,95).
att(120,94).
att(120,92).
att(120,91).
att(120,90).
att(120,89).
att(120,86).
att(120,85).
att(120,84).
att(120,83).
att(120,82).
att(120,81).
att(120,80).
att(120,78).
att(120,77).
att(120,76).
att(120,75).
att(120,74).
att(120,73).
att(120,71).
att(120,70).
att(120,66).
att(120,65).
att(120,63).
att(120,62).
att(120,61).
att(120,60).
att(120,59).
att(120,54).
att(120,53).
att(120,52).
att(120,51).
att(120,49).
att(120,48).
att(120,47).
att(120,46).
att(120,45).
att(120,44).
att(120,42).
att(120,41).
att(120,39).
att(120,38).
att(120,37).
att(120,35).
att(120,34).
att(120,33).
att(120,32).
att(120,30).
att(120,29).
att(120,24).
att(120,23).
att(120,22).
att(120,21).
att(120,20).
att(120,19).
att(120,15).
att(120,14).
att(120,13).
att(120,11).
att(120,9).
att(120,8).
att(120,6).
att(120,4).
att(120,3).
att(120,2).
att(120,1).
att(119,120).
att(119,119).
att(119,118).
att(119,117).
att(119,116).
att(119,115).
att(119,114).
att(119,113).
att(119,112).
att(119,111).
att(119,108).
att(119,102).
att(119,101).
att(119,99).
att(119,97).
att(119,96).
att(119,95).
att(119,94).
att(119,92).
att(119,91).
att(119,89).
att(119,86).
att(119,85).
att(119,84).
att(119,83).
att(119,82).
att(119,81).
att(119,80).
att(119,77).
att(119,76).
att(119,75).
att(119,74).
att(119,73).
att(119,71).
att(119,70).
att(119,66).
att(119,65).
att(119,63).
att(119,62).
att(119,61).
att(119,59).
att(119,56).
att(119,54).
att(119,52).
att(119,51).
att(119,49).
att(119,48).
att(119,47).
att(119,46).
att(119,42).
att(119,39).
att(119,38).
att(119,37).
att(119,35).
att(119,34).
att(119,33).
att(119,30).
att(119,29).
att(119,20).
att(119,19).
att(119,15).
att(119,14).
att(119,11).
att(119,9).
att(119,8).
att(119,7).
att(119,6).
att(119,4).
att(119,3).
att(118,120).
att(118,119).
att(118,118).
att(118,117).
att(118,116).
att(118,115).
att(118,114).
att(118,113).
att(118,112).
att(118,111).
att(118,110).
att(118,109).
att(118,108).
att(118,107).
att(118,105).
att(118,103).
att(118,102).
att(118,101).
att(118,100).
att(118,99).
att(118,98).
att(118,97).
att(118,96).
att(118,95).
att(118,94).
att(118,92).
att(118,91).
att(118,90).
att(118,89).
att(118,86).
att(118,85).
att(118,84).
att(118,83).
att(118,82).
att(118,81).
att(118,80).
att(118,79).
att(118,78).
att(118,77).
att(118,76).
att(118,75).
att(118,74).
att(118,73).
att(118,72).
att(118,71).
att(118,70).
att(118,69).
att(118,66).
att(118,65).
att(118,64).
att(118,63).
att(118,62).
att(118,61).
att(118,59).
att(118,56).
att(118,55).
att(118,54).
att(118,53).
att(118,52).
att(118,51).
att(118,49).
att(118,48).
att(118,47).
att(118,46).
att(118,45).
att(118,42).
att(118,39).
att(118,38).
att(118,37).
att(118,36).
att(118,35).
att(118,34).
att(118,33).
att(118,32).
att(118,30).
att(118,29).
att(118,27).
att(118,24).
att(118,23).
att(118,20).
att(118,19).
att(118,15).
att(118,14).
att(118,13).
att(118,11).
att(118,9).
att(118,8).
att(118,7).
att(118,6).
att(118,5).
att(118,4).
att(118,3).
att(118,2).
att(117,120).
att(117,119).
att(117,118).
att(117,117).
att(117,116).
att(117,115).
att(117,114).
att(117,113).
att(117,112).
att(117,111).
att(117,109).
att(117,108).
att(117,107).
att(117,106).
att(117,105).
att(117,104).
att(117,103).
att(117,102).
att(117,101).
att(117,100).
att(117,99).
att(117,98).
att(117,97).
att(117,96).
att(117,95).
att(117,94).
att(117,93).
att(117,92).
att(117,91).
att(117,90).
att(117,89).
att(117,86).
att(117,85).
att(117,84).
att(117,83).
att(117,82).
att(117,81).
att(117,80).
att(117,79).
att(117,78).
att(117,77).
att(117,76).
att(117,75).
att(117,74).
att(117,73).
att(117,72).
att(117,70).
att(117,69).
att(117,68).
att(117,66).
att(117,64).
att(117,63).
att(117,62).
att(117,61).
att(117,59).
att(117,58).
att(117,56).
att(117,55).
att(117,54).
att(117,53).
att(117,52).
att(117,51).
att(117,50).
att(117,49).
att(117,48).
att(117,47).
att(117,46).
att(117,45).
att(117,44).
att(117,42).
att(117,39).
att(117,38).
att(117,37).
att(117,36).
att(117,35).
att(117,34).
att(117,33).
att(117,32).
att(117,31).
att(117,30).
att(117,29).
att(117,28).
att(117,27).
att(117,26).
att(117,25).
att(117,24).
att(117,23).
att(117,21).
att(117,20).
att(117,19).
att(117,18).
att(117,17).
att(117,16).
att(117,15).
att(117,14).
att(117,13).
att(117,11).
att(117,9).
att(117,8).
att(117,7).
att(117,6).
att(117,5).
att(117,4).
att(117,3).
att(116,120).
att(116,119).
att(116,118).
att(116,117).
att(116,116).
att(116,115).
att(116,114).
att(116,113).
att(116,112).
att(116,111).
att(116,109).
att(116,108).
att(116,107).
att(116,106).
att(116,105).
att(116,104).
att(116,103).
att(116,102).
att(116,101).
att(116,100).
att(116,99).
att(116,98).
att(116,97).
att(116,96).
att(116,95).
att(116,94).
att(116,91).
att(116,90).
att(116,89).
att(116,86).
att(116,85).
att(116,84).
att(116,83).
att(116,82).
att(116,81).
att(116,80).
att(116,79).
att(116,78).
att(116,77).
att(116,76).
att(116,75).
att(116,74).
att(116,73).
att(116,72).
att(116,70).
att(116,69).
att(116,68).
att(116,66).
att(116,64).
att(116,63).
att(116,62).
att(116,61).
att(116,59).
att(116,56).
att(116,55).
att(116,54).
att(116,53).
att(116,52).
att(116,51).
att(116,50).
att(116,49).
att(116,48).
att(116,47).
att(116,46).
att(116,45).
att(116,44).
att(116,42).
att(116,41).
att(116,39).
att(116,38).
att(116,37).
att(116,36).
att(116,35).
att(116,34).
att(116,33).
att(116,32).
att(116,31).
att(116,30).
att(116,29).
att(116,25).
att(116,24).
att(116,23).
att(116,21).
att(116,20).
att(116,19).
att(116,18).
att(116,17).
att(116,15).
att(116,14).
att(116,13).
att(116,11).
att(116,9).
att(116,8).
att(116,7).
att(116,6).
att(116,5).
att(116,4).
att(116,3).
att(115,120).
att(115,119).
att(115,118).
att(115,117).
att(115,116).
att(115,115).
att(115,114).
att(115,113).
att(115,112).
att(115,111).
att(115,110).
att(115,109).
att(115,108).
att(115,107).
att(115,106).
att(115,105).
att(115,104).
att(115,103).
att(115,102).
att(115,101).
att(115,100).
att(115,99).
att(115,98).
att(115,97).
att(115,96).
att(115,95).
att(115,94).
att(115,93).
att(115,92).
att(115,91).
att(115,90).
att(115,89).
att(115,86).
att(115,85).
att(115,84).
att(115,83).
att(115,82).
att(115,81).
att(115,80).
att(115,79).
att(115,78).
att(115,77).
att(115,76).
att(115,75).
att(115,74).
att(115,73).
att(115,72).
att(115,70).
att(115,69).
att(115,68).
att(115,66).
att(115,65).
att(115,64).
att(115,63).
att(115,62).
att(115,61).
att(115,59).
att(115,58).
att(115,56).
att(115,55).
att(115,54).
att(115,53).
att(115,52).
att(115,51).
att(115,50).
att(115,49).
att(115,48).
att(115,47).
att(115,46).
att(115,45).
att(115,44).
att(115,42).
att(115,41).
att(115,39).
att(115,38).
att(115,37).
att(115,36).
att(115,35).
att(115,34).
att(115,33).
att(115,32).
att(115,31).
att(115,30).
att(115,29).
att(115,28).
att(115,27).
att(115,26).
att(115,25).
att(115,24).
att(115,23).
att(115,21).
att(115,20).
att(115,19).
att(115,18).
att(115,17).
att(115,16).
att(115,15).
att(115,14).
att(115,13).
att(115,11).
att(115,9).
att(115,8).
att(115,7).
att(115,6).
att(115,5).
att(115,4).
att(115,3).
att(115,2).
att(114,118).
att(114,117).
att(114,116).
att(114,115).
att(114,114).
att(114,113).
att(114,112).
att(114,111).
att(114,108).
att(114,107).
att(114,106).
att(114,105).
att(114,102).
att(114,101).
att(114,99).
att(114,98).
att(114,97).
att(114,96).
att(114,94).
att(114,93).
att(114,92).
att(114,91).
att(114,89).
att(114,86).
att(114,85).
att(114,84).
att(114,83).
att(114,82).
att(114,81).
att(114,80).
att(114,76).
att(114,75).
att(114,74).
att(114,73).
att(114,71).
att(114,70).
att(114,66).
att(114,65).
att(114,64).
att(114,63).
att(114,62).
att(114,61).
att(114,59).
att(114,58).
att(114,54).
att(114,53).
att(114,52).
att(114,51).
att(114,49).
att(114,48).
att(114,47).
att(114,46).
att(114,44).
att(114,39).
att(114,38).
att(114,37).
att(114,35).
att(114,34).
att(114,33).
att(114,30).
att(114,29).
att(114,26).
att(114,24).
att(114,23).
att(114,21).
att(114,20).
att(114,19).
att(114,18).
att(114,16).
att(114,15).
att(114,14).
att(114,13).
att(114,11).
att(114,9).
att(114,4).
att(114,3).
att(113,120).
att(113,119).
att(113,118).
att(113,117).
att(113,116).
att(113,115).
att(113,114).
att(113,113).
att(113,112).
att(113,111).
att(113,109).
att(113,108).
att(113,107).
att(113,106).
att(113,105).
att(113,104).
att(113,103).
att(113,102).
att(113,101).
att(113,100).
att(113,99).
att(113,98).
att(113,97).
att(113,96).
att(113,95).
att(113,94).
att(113,91).
att(113,90).
att(113,89).
att(113,86).
att(113,85).
att(113,84).
att(113,83).
att(113,82).
att(113,81).
att(113,80).
att(113,79).
att(113,78).
att(113,77).
att(113,76).
att(113,75).
att(113,74).
att(113,73).
att(113,70).
att(113,69).
att(113,68).
att(113,66).
att(113,64).
att(113,62).
att(113,61).
att(113,59).
att(113,55).
att(113,54).
att(113,53).
att(113,52).
att(113,51).
att(113,50).
att(113,49).
att(113,48).
att(113,47).
att(113,46).
att(113,45).
att(113,44).
att(113,42).
att(113,41).
att(113,39).
att(113,38).
att(113,37).
att(113,36).
att(113,35).
att(113,34).
att(113,33).
att(113,32).
att(113,31).
att(113,30).
att(113,29).
att(113,25).
att(113,24).
att(113,23).
att(113,21).
att(113,19).
att(113,18).
att(113,17).
att(113,15).
att(113,14).
att(113,13).
att(113,11).
att(113,9).
att(113,8).
att(113,6).
att(113,5).
att(113,4).
att(113,3).
att(112,120).
att(112,119).
att(112,118).
att(112,117).
att(112,116).
att(112,115).
att(112,114).
att(112,113).
att(112,112).
att(112,111).
att(112,109).
att(112,108).
att(112,107).
att(112,106).
att(112,105).
att(112,103).
att(112,102).
att(112,101).
att(112,100).
att(112,99).
att(112,98).
att(112,97).
att(112,96).
att(112,95).
att(112,94).
att(112,93).
att(112,91).
att(112,90).
att(112,89).
att(112,86).
att(112,85).
att(112,84).
att(112,83).
att(112,82).
att(112,81).
att(112,80).
att(112,79).
att(112,78).
att(112,77).
att(112,76).
att(112,75).
att(112,74).
att(112,73).
att(112,72).
att(112,70).
att(112,69).
att(112,66).
att(112,64).
att(112,63).
att(112,62).
att(112,61).
att(112,60).
att(112,59).
att(112,58).
att(112,56).
att(112,55).
att(112,53).
att(112,52).
att(112,51).
att(112,49).
att(112,48).
att(112,47).
att(112,46).
att(112,45).
att(112,44).
att(112,42).
att(112,41).
att(112,39).
att(112,38).
att(112,37).
att(112,36).
att(112,35).
att(112,34).
att(112,33).
att(112,32).
att(112,31).
att(112,30).
att(112,29).
att(112,26).
att(112,25).
att(112,24).
att(112,23).
att(112,22).
att(112,21).
att(112,20).
att(112,19).
att(112,18).
att(112,16).
att(112,15).
att(112,14).
att(112,13).
att(112,11).
att(112,10).
att(112,9).
att(112,8).
att(112,7).
att(112,6).
att(112,5).
att(112,4).
att(112,3).
att(112,2).
att(111,120).
att(111,119).
att(111,118).
att(111,116).
att(111,114).
att(111,113).
att(111,112).
att(111,111).
att(111,109).
att(111,108).
att(111,107).
att(111,106).
att(111,105).
att(111,103).
att(111,102).
att(111,101).
att(111,100).
att(111,99).
att(111,98).
att(111,97).
att(111,96).
att(111,95).
att(111,94).
att(111,93).
att(111,91).
att(111,90).
att(111,89).
att(111,88).
att(111,86).
att(111,85).
att(111,84).
att(111,83).
att(111,82).
att(111,81).
att(111,80).
att(111,79).
att(111,78).
att(111,77).
att(111,76).
att(111,75).
att(111,74).
att(111,73).
att(111,72).
att(111,70).
att(111,69).
att(111,66).
att(111,64).
att(111,63).
att(111,62).
att(111,61).
att(111,59).
att(111,58).
att(111,56).
att(111,55).
att(111,53).
att(111,52).
att(111,51).
att(111,49).
att(111,48).
att(111,47).
att(111,46).
att(111,45).
att(111,44).
att(111,42).
att(111,41).
att(111,39).
att(111,38).
att(111,37).
att(111,36).
att(111,35).
att(111,34).
att(111,33).
att(111,32).
att(111,31).
att(111,30).
att(111,29).
att(111,26).
att(111,24).
att(111,23).
att(111,21).
att(111,20).
att(111,19).
att(111,18).
att(111,16).
att(111,15).
att(111,14).
att(111,13).
att(111,11).
att(111,9).
att(111,8).
att(111,7).
att(111,6).
att(111,5).
att(111,4).
att(111,3).
att(111,2).
att(110,119).
att(110,114).
att(110,105).
att(110,86).
att(110,79).
att(110,74).
att(110,62).
att(110,52).
att(110,51).
att(110,46).
att(110,38).
att(110,36).
att(110,32).
att(110,24).
att(110,23).
att(110,5).
att(110,4).
att(109,118).
att(109,117).
att(109,115).
att(109,108).
att(109,102).
att(109,96).
att(109,94).
att(109,91).
att(109,85).
att(109,84).
att(109,83).
att(109,81).
att(109,77).
att(109,66).
att(109,60).
att(109,59).
att(109,47).
att(109,44).
att(109,42).
att(109,39).
att(109,35).
att(109,23).
att(109,22).
att(109,20).
att(109,15).
att(109,14).
att(109,11).
att(109,2).
att(108,120).
att(108,119).
att(108,118).
att(108,117).
att(108,116).
att(108,115).
att(108,114).
att(108,113).
att(108,112).
att(108,111).
att(108,109).
att(108,108).
att(108,107).
att(108,106).
att(108,105).
att(108,103).
att(108,102).
att(108,101).
att(108,100).
att(108,99).
att(108,98).
att(108,97).
att(108,96).
att(108,95).
att(108,94).
att(108,93).
att(108,92).
att(108,91).
att(108,90).
att(108,89).
att(108,88).
att(108,86).
att(108,85).
att(108,84).
att(108,83).
att(108,82).
att(108,81).
att(108,80).
att(108,79).
att(108,78).
att(108,77).
att(108,76).
att(108,75).
att(108,74).
att(108,73).
att(108,72).
att(108,71).
att(108,70).
att(108,69).
att(108,66).
att(108,65).
att(108,64).
att(108,63).
att(108,62).
att(108,61).
att(108,60).
att(108,59).
att(108,58).
att(108,56).
att(108,55).
att(108,54).
att(108,53).
att(108,52).
att(108,51).
att(108,49).
att(108,48).
att(108,47).
att(108,46).
att(108,45).
att(108,44).
att(108,43).
att(108,42).
att(108,41).
att(108,39).
att(108,38).
att(108,37).
att(108,36).
att(108,35).
att(108,34).
att(108,33).
att(108,32).
att(108,31).
att(108,30).
att(108,29).
att(108,27).
att(108,26).
att(108,24).
att(108,23).
att(108,22).
att(108,21).
att(108,20).
att(108,19).
att(108,18).
att(108,16).
att(108,15).
att(108,14).
att(108,13).
att(108,11).
att(108,9).
att(108,8).
att(108,7).
att(108,6).
att(108,5).
att(108,4).
att(108,3).
att(108,2).
att(107,118).
att(107,117).
att(107,116).
att(107,115).
att(107,114).
att(107,112).
att(107,108).
att(107,107).
att(107,106).
att(107,105).
att(107,102).
att(107,101).
att(107,99).
att(107,98).
att(107,96).
att(107,94).
att(107,91).
att(107,90).
att(107,85).
att(107,84).
att(107,83).
att(107,81).
att(107,77).
att(107,76).
att(107,75).
att(107,74).
att(107,73).
att(107,70).
att(107,66).
att(107,60).
att(107,59).
att(107,52).
att(107,51).
att(107,49).
att(107,48).
att(107,47).
att(107,45).
att(107,44).
att(107,42).
att(107,41).
att(107,39).
att(107,38).
att(107,37).
att(107,35).
att(107,32).
att(107,30).
att(107,29).
att(107,24).
att(107,23).
att(107,22).
att(107,21).
att(107,20).
att(107,19).
att(107,15).
att(107,14).
att(107,13).
att(107,11).
att(107,9).
att(107,4).
att(107,3).
att(107,2).
att(105,118).
att(105,117).
att(105,116).
att(105,115).
att(105,114).
att(105,113).
att(105,112).
att(105,111).
att(105,108).
att(105,107).
att(105,106).
att(105,105).
att(105,102).
att(105,101).
att(105,99).
att(105,98).
att(105,97).
att(105,96).
att(105,94).
att(105,93).
att(105,92).
att(105,91).
att(105,89).
att(105,86).
att(105,85).
att(105,84).
att(105,83).
att(105,82).
att(105,81).
att(105,80).
att(105,76).
att(105,75).
att(105,74).
att(105,73).
att(105,71).
att(105,70).
att(105,66).
att(105,65).
att(105,64).
att(105,63).
att(105,62).
att(105,61).
att(105,59).
att(105,58).
att(105,54).
att(105,53).
att(105,52).
att(105,51).
att(105,49).
att(105,48).
att(105,47).
att(105,46).
att(105,44).
att(105,39).
att(105,38).
att(105,37).
att(105,35).
att(105,34).
att(105,33).
att(105,30).
att(105,29).
att(105,26).
att(105,24).
att(105,23).
att(105,21).
att(105,20).
att(105,19).
att(105,18).
att(105,16).
att(105,15).
att(105,14).
att(105,13).
att(105,11).
att(105,9).
att(105,4).
att(105,3).
att(104,118).
att(104,116).
att(104,114).
att(104,107).
att(104,106).
att(104,105).
att(104,102).
att(104,101).
att(104,99).
att(104,98).
att(104,97).
att(104,94).
att(104,93).
att(104,91).
att(104,84).
att(104,83).
att(104,76).
att(104,75).
att(104,74).
att(104,73).
att(104,70).
att(104,66).
att(104,64).
att(104,59).
att(104,58).
att(104,53).
att(104,52).
att(104,51).
att(104,49).
att(104,48).
att(104,47).
att(104,44).
att(104,37).
att(104,35).
att(104,34).
att(104,30).
att(104,29).
att(104,26).
att(104,24).
att(104,23).
att(104,21).
att(104,19).
att(104,18).
att(104,16).
att(104,14).
att(104,13).
att(104,11).
att(104,9).
att(104,4).
att(104,3).
att(103,120).
att(103,119).
att(103,118).
att(103,116).
att(103,114).
att(103,113).
att(103,112).
att(103,107).
att(103,106).
att(103,105).
att(103,103).
att(103,102).
att(103,101).
att(103,99).
att(103,98).
att(103,96).
att(103,95).
att(103,94).
att(103,91).
att(103,90).
att(103,88).
att(103,86).
att(103,84).
att(103,81).
att(103,79).
att(103,78).
att(103,76).
att(103,75).
att(103,74).
att(103,73).
att(103,70).
att(103,66).
att(103,62).
att(103,52).
att(103,51).
att(103,49).
att(103,48).
att(103,47).
att(103,46).
att(103,45).
att(103,44).
att(103,42).
att(103,41).
att(103,39).
att(103,38).
att(103,37).
att(103,36).
att(103,35).
att(103,32).
att(103,31).
att(103,30).
att(103,29).
att(103,24).
att(103,23).
att(103,21).
att(103,19).
att(103,15).
att(103,14).
att(103,13).
att(103,9).
att(103,8).
att(103,5).
att(103,4).
att(103,3).
att(103,2).
att(102,120).
att(102,119).
att(102,118).
att(102,117).
att(102,116).
att(102,115).
att(102,114).
att(102,113).
att(102,112).
att(102,111).
att(102,109).
att(102,108).
att(102,107).
att(102,106).
att(102,105).
att(102,103).
att(102,102).
att(102,101).
att(102,100).
att(102,99).
att(102,98).
att(102,97).
att(102,96).
att(102,95).
att(102,94).
att(102,92).
att(102,91).
att(102,90).
att(102,89).
att(102,86).
att(102,85).
att(102,84).
att(102,83).
att(102,82).
att(102,81).
att(102,80).
att(102,79).
att(102,77).
att(102,76).
att(102,75).
att(102,74).
att(102,73).
att(102,72).
att(102,71).
att(102,70).
att(102,69).
att(102,66).
att(102,65).
att(102,64).
att(102,63).
att(102,62).
att(102,61).
att(102,59).
att(102,56).
att(102,55).
att(102,54).
att(102,53).
att(102,52).
att(102,51).
att(102,49).
att(102,48).
att(102,47).
att(102,46).
att(102,45).
att(102,44).
att(102,42).
att(102,41).
att(102,39).
att(102,38).
att(102,37).
att(102,36).
att(102,35).
att(102,34).
att(102,33).
att(102,32).
att(102,30).
att(102,29).
att(102,27).
att(102,24).
att(102,23).
att(102,21).
att(102,20).
att(102,19).
att(102,15).
att(102,14).
att(102,13).
att(102,11).
att(102,9).
att(102,8).
att(102,7).
att(102,6).
att(102,5).
att(102,4).
att(102,3).
att(101,118).
att(101,117).
att(101,116).
att(101,115).
att(101,114).
att(101,113).
att(101,112).
att(101,111).
att(101,108).
att(101,107).
att(101,106).
att(101,105).
att(101,102).
att(101,101).
att(101,99).
att(101,98).
att(101,97).
att(101,96).
att(101,94).
att(101,92).
att(101,91).
att(101,89).
att(101,86).
att(101,85).
att(101,84).
att(101,83).
att(101,82).
att(101,81).
att(101,80).
att(101,76).
att(101,75).
att(101,74).
att(101,73).
att(101,71).
att(101,70).
att(101,66).
att(101,65).
att(101,63).
att(101,62).
att(101,61).
att(101,59).
att(101,54).
att(101,52).
att(101,51).
att(101,49).
att(101,48).
att(101,47).
att(101,46).
att(101,44).
att(101,39).
att(101,38).
att(101,37).
att(101,35).
att(101,33).
att(101,30).
att(101,29).
att(101,24).
att(101,21).
att(101,20).
att(101,19).
att(101,15).
att(101,14).
att(101,11).
att(101,9).
att(101,4).
att(101,3).
att(100,120).
att(100,118).
att(100,116).
att(100,114).
att(100,113).
att(100,107).
att(100,106).
att(100,105).
att(100,103).
att(100,102).
att(100,101).
att(100,99).
att(100,98).
att(100,97).
att(100,96).
att(100,95).
att(100,94).
att(100,93).
att(100,91).
att(100,90).
att(100,88).
att(100,84).
att(100,83).
att(100,81).
att(100,78).
att(100,76).
att(100,75).
att(100,74).
att(100,73).
att(100,70).
att(100,66).
att(100,64).
att(100,59).
att(100,58).
att(100,53).
att(100,52).
att(100,51).
att(100,49).
att(100,48).
att(100,47).
att(100,44).
att(100,39).
att(100,37).
att(100,35).
att(100,34).
att(100,31).
att(100,30).
att(100,29).
att(100,26).
att(100,24).
att(100,23).
att(100,21).
att(100,19).
att(100,18).
att(100,16).
att(100,15).
att(100,14).
att(100,13).
att(100,11).
att(100,9).
att(100,8).
att(100,4).
att(100,3).
att(100,2).
att(99,120).
att(99,119).
att(99,118).
att(99,117).
att(99,116).
att(99,115).
att(99,114).
att(99,113).
att(99,112).
att(99,111).
att(99,110).
att(99,109).
att(99,108).
att(99,107).
att(99,106).
att(99,105).
att(99,104).
att(99,103).
att(99,102).
att(99,101).
att(99,100).
att(99,99).
att(99,98).
att(99,97).
att(99,96).
att(99,95).
att(99,94).
att(99,93).
att(99,92).
att(99,91).
att(99,90).
att(99,89).
att(99,86).
att(99,85).
att(99,84).
att(99,83).
att(99,82).
att(99,81).
att(99,80).
att(99,79).
att(99,78).
att(99,77).
att(99,76).
att(99,75).
att(99,74).
att(99,73).
att(99,72).
att(99,70).
att(99,69).
att(99,68).
att(99,66).
att(99,65).
att(99,64).
att(99,63).
att(99,62).
att(99,61).
att(99,59).
att(99,58).
att(99,56).
att(99,55).
att(99,54).
att(99,53).
att(99,52).
att(99,51).
att(99,50).
att(99,49).
att(99,48).
att(99,47).
att(99,46).
att(99,45).
att(99,44).
att(99,42).
att(99,41).
att(99,39).
att(99,38).
att(99,37).
att(99,36).
att(99,35).
att(99,34).
att(99,33).
att(99,32).
att(99,31).
att(99,30).
att(99,29).
att(99,26).
att(99,25).
att(99,24).
att(99,23).
att(99,21).
att(99,20).
att(99,19).
att(99,18).
att(99,17).
att(99,16).
att(99,15).
att(99,14).
att(99,13).
att(99,11).
att(99,9).
att(99,8).
att(99,7).
att(99,6).
att(99,5).
att(99,4).
att(99,3).
att(99,2).
att(98,120).
att(98,118).
att(98,113).
att(98,103).
att(98,99).
att(98,96).
att(98,95).
att(98,91).
att(98,90).
att(98,88).
att(98,84).
att(98,81).
att(98,78).
att(98,66).
att(98,39).
att(98,35).
att(98,31).
att(98,30).
att(98,21).
att(98,15).
att(98,9).
att(98,8).
att(98,4).
att(98,3).
att(98,2).
att(97,120).
att(97,119).
att(97,118).
att(97,117).
att(97,116).
att(97,115).
att(97,114).
att(97,113).
att(97,112).
att(97,111).
att(97,109).
att(97,108).
att(97,107).
att(97,106).
att(97,105).
att(97,104).
att(97,103).
att(97,102).
att(97,101).
att(97,100).
att(97,99).
att(97,98).
att(97,97).
att(97,96).
att(97,95).
att(97,94).
att(97,91).
att(97,90).
att(97,89).
att(97,86).
att(97,85).
att(97,84).
att(97,83).
att(97,82).
att(97,81).
att(97,80).
att(97,79).
att(97,78).
att(97,77).
att(97,76).
att(97,75).
att(97,74).
att(97,73).
att(97,70).
att(97,69).
att(97,68).
att(97,66).
att(97,64).
att(97,63).
att(97,62).
att(97,61).
att(97,59).
att(97,56).
att(97,55).
att(97,54).
att(97,53).
att(97,52).
att(97,51).
att(97,50).
att(97,49).
att(97,48).
att(97,47).
att(97,46).
att(97,45).
att(97,44).
att(97,42).
att(97,41).
att(97,39).
att(97,38).
att(97,37).
att(97,36).
att(97,35).
att(97,34).
att(97,33).
att(97,32).
att(97,31).
att(97,30).
att(97,29).
att(97,25).
att(97,24).
att(97,23).
att(97,21).
att(97,20).
att(97,19).
att(97,18).
att(97,17).
att(97,15).
att(97,14).
att(97,13).
att(97,11).
att(97,9).
att(97,8).
att(97,7).
att(97,6).
att(97,5).
att(97,4).
att(97,3).
att(96,120).
att(96,119).
att(96,118).
att(96,117).
att(96,116).
att(96,115).
att(96,114).
att(96,113).
att(96,112).
att(96,111).
att(96,109).
att(96,108).
att(96,107).
att(96,106).
att(96,105).
att(96,104).
att(96,103).
att(96,102).
att(96,101).
att(96,100).
att(96,99).
att(96,98).
att(96,97).
att(96,96).
att(96,95).
att(96,94).
att(96,93).
att(96,92).
att(96,91).
att(96,90).
att(96,89).
att(96,86).
att(96,85).
att(96,84).
att(96,83).
att(96,82).
att(96,81).
att(96,80).
att(96,79).
att(96,78).
att(96,77).
att(96,76).
att(96,75).
att(96,74).
att(96,73).
att(96,72).
att(96,71).
att(96,70).
att(96,69).
att(96,68).
att(96,66).
att(96,65).
att(96,64).
att(96,63).
att(96,62).
att(96,61).
att(96,59).
att(96,58).
att(96,56).
att(96,55).
att(96,54).
att(96,53).
att(96,52).
att(96,51).
att(96,50).
att(96,49).
att(96,48).
att(96,47).
att(96,46).
att(96,45).
att(96,44).
att(96,42).
att(96,39).
att(96,38).
att(96,37).
att(96,36).
att(96,35).
att(96,34).
att(96,33).
att(96,32).
att(96,31).
att(96,30).
att(96,29).
att(96,28).
att(96,27).
att(96,26).
att(96,25).
att(96,24).
att(96,23).
att(96,21).
att(96,20).
att(96,19).
att(96,18).
att(96,17).
att(96,16).
att(96,15).
att(96,14).
att(96,13).
att(96,11).
att(96,9).
att(96,8).
att(96,7).
att(96,6).
att(96,5).
att(96,4).
att(96,3).
att(95,120).
att(95,119).
att(95,118).
att(95,117).
att(95,116).
att(95,115).
att(95,114).
att(95,113).
att(95,112).
att(95,111).
att(95,108).
att(95,107).
att(95,106).
att(95,105).
att(95,103).
att(95,102).
att(95,101).
att(95,99).
att(95,98).
att(95,97).
att(95,96).
att(95,95).
att(95,94).
att(95,92).
att(95,91).
att(95,90).
att(95,89).
att(95,88).
att(95,86).
att(95,85).
att(95,84).
att(95,83).
att(95,82).
att(95,81).
att(95,80).
att(95,79).
att(95,78).
att(95,76).
att(95,75).
att(95,74).
att(95,73).
att(95,71).
att(95,70).
att(95,66).
att(95,65).
att(95,63).
att(95,62).
att(95,61).
att(95,59).
att(95,54).
att(95,52).
att(95,51).
att(95,49).
att(95,48).
att(95,47).
att(95,46).
att(95,44).
att(95,39).
att(95,38).
att(95,37).
att(95,36).
att(95,35).
att(95,33).
att(95,32).
att(95,31).
att(95,30).
att(95,29).
att(95,24).
att(95,23).
att(95,21).
att(95,20).
att(95,19).
att(95,15).
att(95,14).
att(95,11).
att(95,9).
att(95,8).
att(95,5).
att(95,4).
att(95,3).
att(95,2).
att(94,120).
att(94,119).
att(94,118).
att(94,117).
att(94,116).
att(94,115).
att(94,114).
att(94,113).
att(94,112).
att(94,111).
att(94,110).
att(94,109).
att(94,108).
att(94,107).
att(94,105).
att(94,104).
att(94,103).
att(94,102).
att(94,101).
att(94,100).
att(94,99).
att(94,98).
att(94,97).
att(94,96).
att(94,95).
att(94,94).
att(94,93).
att(94,92).
att(94,91).
att(94,90).
att(94,89).
att(94,86).
att(94,85).
att(94,84).
att(94,83).
att(94,82).
att(94,81).
att(94,80).
att(94,79).
att(94,78).
att(94,77).
att(94,76).
att(94,75).
att(94,74).
att(94,73).
att(94,72).
att(94,70).
att(94,69).
att(94,68).
att(94,66).
att(94,65).
att(94,64).
att(94,63).
att(94,62).
att(94,61).
att(94,59).
att(94,58).
att(94,56).
att(94,55).
att(94,54).
att(94,53).
att(94,52).
att(94,51).
att(94,50).
att(94,49).
att(94,48).
att(94,47).
att(94,46).
att(94,45).
att(94,42).
att(94,39).
att(94,38).
att(94,37).
att(94,36).
att(94,35).
att(94,34).
att(94,33).
att(94,32).
att(94,31).
att(94,30).
att(94,29).
att(94,28).
att(94,27).
att(94,26).
att(94,25).
att(94,24).
att(94,23).
att(94,20).
att(94,19).
att(94,18).
att(94,17).
att(94,16).
att(94,15).
att(94,14).
att(94,13).
att(94,12).
att(94,11).
att(94,9).
att(94,8).
att(94,7).
att(94,6).
att(94,5).
att(94,4).
att(94,3).
att(94,2).
att(92,120).
att(92,119).
att(92,118).
att(92,117).
att(92,116).
att(92,115).
att(92,114).
att(92,113).
att(92,112).
att(92,111).
att(92,110).
att(92,109).
att(92,108).
att(92,107).
att(92,105).
att(92,103).
att(92,102).
att(92,101).
att(92,100).
att(92,99).
att(92,98).
att(92,97).
att(92,96).
att(92,95).
att(92,94).
att(92,93).
att(92,92).
att(92,91).
att(92,90).
att(92,89).
att(92,86).
att(92,85).
att(92,84).
att(92,83).
att(92,82).
att(92,81).
att(92,80).
att(92,79).
att(92,78).
att(92,77).
att(92,76).
att(92,75).
att(92,74).
att(92,73).
att(92,72).
att(92,70).
att(92,69).
att(92,66).
att(92,65).
att(92,64).
att(92,63).
att(92,62).
att(92,61).
att(92,60).
att(92,59).
att(92,58).
att(92,56).
att(92,55).
att(92,53).
att(92,52).
att(92,51).
att(92,48).
att(92,47).
att(92,46).
att(92,45).
att(92,44).
att(92,43).
att(92,42).
att(92,39).
att(92,38).
att(92,37).
att(92,36).
att(92,35).
att(92,34).
att(92,33).
att(92,32).
att(92,30).
att(92,29).
att(92,26).
att(92,24).
att(92,23).
att(92,22).
att(92,20).
att(92,19).
att(92,18).
att(92,16).
att(92,15).
att(92,14).
att(92,13).
att(92,12).
att(92,11).
att(92,9).
att(92,8).
att(92,7).
att(92,6).
att(92,5).
att(92,4).
att(92,3).
att(92,2).
att(91,120).
att(91,119).
att(91,118).
att(91,117).
att(91,116).
att(91,115).
att(91,114).
att(91,113).
att(91,112).
att(91,111).
att(91,109).
att(91,108).
att(91,107).
att(91,105).
att(91,104).
att(91,103).
att(91,102).
att(91,101).
att(91,100).
att(91,99).
att(91,98).
att(91,97).
att(91,96).
att(91,95).
att(91,94).
att(91,93).
att(91,92).
att(91,91).
att(91,90).
att(91,89).
att(91,86).
att(91,85).
att(91,84).
att(91,83).
att(91,82).
att(91,81).
att(91,80).
att(91,79).
att(91,78).
att(91,77).
att(91,76).
att(91,75).
att(91,74).
att(91,73).
att(91,72).
att(91,71).
att(91,70).
att(91,69).
att(91,68).
att(91,66).
att(91,65).
att(91,64).
att(91,63).
att(91,62).
att(91,61).
att(91,59).
att(91,58).
att(91,56).
att(91,55).
att(91,54).
att(91,53).
att(91,52).
att(91,51).
att(91,50).
att(91,49).
att(91,48).
att(91,47).
att(91,46).
att(91,45).
att(91,42).
att(91,39).
att(91,38).
att(91,37).
att(91,36).
att(91,35).
att(91,34).
att(91,33).
att(91,32).
att(91,31).
att(91,30).
att(91,29).
att(91,28).
att(91,27).
att(91,26).
att(91,25).
att(91,24).
att(91,23).
att(91,20).
att(91,19).
att(91,18).
att(91,17).
att(91,16).
att(91,15).
att(91,14).
att(91,13).
att(91,12).
att(91,11).
att(91,9).
att(91,8).
att(91,7).
att(91,6).
att(91,5).
att(91,4).
att(91,3).
att(90,119).
att(90,118).
att(90,117).
att(90,116).
att(90,115).
att(90,114).
att(90,113).
att(90,112).
att(90,108).
att(90,107).
att(90,106).
att(90,105).
att(90,103).
att(90,102).
att(90,101).
att(90,99).
att(90,98).
att(90,96).
att(90,95).
att(90,94).
att(90,91).
att(90,90).
att(90,86).
att(90,85).
att(90,84).
att(90,83).
att(90,81).
att(90,80).
att(90,79).
att(90,78).
att(90,77).
att(90,76).
att(90,75).
att(90,74).
att(90,73).
att(90,70).
att(90,69).
att(90,66).
att(90,64).
att(90,62).
att(90,61).
att(90,60).
att(90,59).
att(90,58).
att(90,52).
att(90,51).
att(90,49).
att(90,48).
att(90,47).
att(90,46).
att(90,45).
att(90,44).
att(90,42).
att(90,41).
att(90,39).
att(90,38).
att(90,37).
att(90,36).
att(90,35).
att(90,32).
att(90,31).
att(90,30).
att(90,29).
att(90,25).
att(90,24).
att(90,23).
att(90,22).
att(90,21).
att(90,20).
att(90,19).
att(90,18).
att(90,15).
att(90,14).
att(90,13).
att(90,11).
att(90,10).
att(90,9).
att(90,5).
att(90,4).
att(90,3).
att(90,2).
att(89,120).
att(89,119).
att(89,118).
att(89,116).
att(89,114).
att(89,112).
att(89,111).
att(89,109).
att(89,108).
att(89,107).
att(89,106).
att(89,105).
att(89,103).
att(89,102).
att(89,101).
att(89,100).
att(89,99).
att(89,98).
att(89,97).
att(89,96).
att(89,95).
att(89,94).
att(89,93).
att(89,91).
att(89,90).
att(89,89).
att(89,86).
att(89,85).
att(89,84).
att(89,83).
att(89,82).
att(89,80).
att(89,79).
att(89,77).
att(89,76).
att(89,75).
att(89,74).
att(89,73).
att(89,72).
att(89,70).
att(89,69).
att(89,66).
att(89,64).
att(89,63).
att(89,62).
att(89,61).
att(89,59).
att(89,58).
att(89,56).
att(89,55).
att(89,53).
att(89,52).
att(89,51).
att(89,49).
att(89,48).
att(89,47).
att(89,46).
att(89,45).
att(89,44).
att(89,42).
att(89,39).
att(89,38).
att(89,37).
att(89,36).
att(89,35).
att(89,34).
att(89,33).
att(89,32).
att(89,30).
att(89,29).
att(89,26).
att(89,24).
att(89,23).
att(89,21).
att(89,20).
att(89,19).
att(89,18).
att(89,16).
att(89,15).
att(89,14).
att(89,13).
att(89,11).
att(89,9).
att(89,8).
att(89,7).
att(89,6).
att(89,5).
att(89,4).
att(89,3).
att(86,120).
att(86,119).
att(86,118).
att(86,117).
att(86,116).
att(86,115).
att(86,114).
att(86,113).
att(86,112).
att(86,111).
att(86,110).
att(86,109).
att(86,108).
att(86,107).
att(86,105).
att(86,103).
att(86,102).
att(86,101).
att(86,100).
att(86,99).
att(86,98).
att(86,97).
att(86,96).
att(86,95).
att(86,94).
att(86,93).
att(86,92).
att(86,91).
att(86,90).
att(86,89).
att(86,86).
att(86,85).
att(86,84).
att(86,83).
att(86,82).
att(86,81).
att(86,80).
att(86,79).
att(86,78).
att(86,77).
att(86,76).
att(86,75).
att(86,74).
att(86,73).
att(86,72).
att(86,71).
att(86,70).
att(86,69).
att(86,66).
att(86,65).
att(86,64).
att(86,63).
att(86,62).
att(86,61).
att(86,60).
att(86,59).
att(86,58).
att(86,56).
att(86,55).
att(86,54).
att(86,53).
att(86,52).
att(86,51).
att(86,49).
att(86,48).
att(86,47).
att(86,46).
att(86,45).
att(86,44).
att(86,43).
att(86,42).
att(86,39).
att(86,38).
att(86,37).
att(86,36).
att(86,35).
att(86,34).
att(86,33).
att(86,32).
att(86,30).
att(86,29).
att(86,26).
att(86,24).
att(86,23).
att(86,22).
att(86,20).
att(86,19).
att(86,18).
att(86,16).
att(86,15).
att(86,14).
att(86,13).
att(86,12).
att(86,11).
att(86,9).
att(86,8).
att(86,7).
att(86,6).
att(86,5).
att(86,4).
att(86,3).
att(86,2).
att(85,120).
att(85,119).
att(85,118).
att(85,117).
att(85,116).
att(85,115).
att(85,114).
att(85,113).
att(85,112).
att(85,111).
att(85,109).
att(85,108).
att(85,107).
att(85,106).
att(85,105).
att(85,103).
att(85,102).
att(85,101).
att(85,100).
att(85,99).
att(85,98).
att(85,97).
att(85,96).
att(85,95).
att(85,94).
att(85,93).
att(85,92).
att(85,91).
att(85,90).
att(85,89).
att(85,86).
att(85,85).
att(85,84).
att(85,83).
att(85,82).
att(85,81).
att(85,80).
att(85,79).
att(85,77).
att(85,76).
att(85,75).
att(85,74).
att(85,73).
att(85,72).
att(85,71).
att(85,70).
att(85,69).
att(85,66).
att(85,65).
att(85,64).
att(85,63).
att(85,62).
att(85,61).
att(85,59).
att(85,58).
att(85,56).
att(85,55).
att(85,54).
att(85,53).
att(85,52).
att(85,51).
att(85,49).
att(85,48).
att(85,47).
att(85,46).
att(85,45).
att(85,44).
att(85,42).
att(85,41).
att(85,39).
att(85,38).
att(85,37).
att(85,36).
att(85,35).
att(85,34).
att(85,33).
att(85,32).
att(85,30).
att(85,29).
att(85,27).
att(85,26).
att(85,24).
att(85,23).
att(85,21).
att(85,20).
att(85,19).
att(85,18).
att(85,16).
att(85,15).
att(85,14).
att(85,13).
att(85,11).
att(85,9).
att(85,8).
att(85,7).
att(85,6).
att(85,5).
att(85,4).
att(85,3).
att(84,120).
att(84,119).
att(84,118).
att(84,117).
att(84,116).
att(84,115).
att(84,114).
att(84,113).
att(84,112).
att(84,111).
att(84,110).
att(84,109).
att(84,108).
att(84,107).
att(84,106).
att(84,105).
att(84,103).
att(84,102).
att(84,101).
att(84,100).
att(84,99).
att(84,98).
att(84,97).
att(84,96).
att(84,95).
att(84,94).
att(84,93).
att(84,92).
att(84,91).
att(84,90).
att(84,89).
att(84,86).
att(84,85).
att(84,84).
att(84,83).
att(84,82).
att(84,81).
att(84,80).
att(84,79).
att(84,78).
att(84,77).
att(84,76).
att(84,75).
att(84,74).
att(84,73).
att(84,72).
att(84,71).
att(84,70).
att(84,69).
att(84,66).
att(84,65).
att(84,64).
att(84,63).
att(84,62).
att(84,61).
att(84,59).
att(84,58).
att(84,56).
att(84,55).
att(84,54).
att(84,53).
att(84,52).
att(84,51).
att(84,49).
att(84,48).
att(84,47).
att(84,46).
att(84,45).
att(84,44).
att(84,42).
att(84,41).
att(84,39).
att(84,38).
att(84,37).
att(84,36).
att(84,35).
att(84,34).
att(84,33).
att(84,32).
att(84,30).
att(84,29).
att(84,27).
att(84,26).
att(84,24).
att(84,23).
att(84,21).
att(84,20).
att(84,19).
att(84,18).
att(84,16).
att(84,15).
att(84,14).
att(84,13).
att(84,11).
att(84,9).
att(84,8).
att(84,7).
att(84,6).
att(84,5).
att(84,4).
att(84,3).
att(84,2).
att(83,120).
att(83,119).
att(83,118).
att(83,117).
att(83,116).
att(83,115).
att(83,114).
att(83,113).
att(83,112).
att(83,111).
att(83,109).
att(83,108).
att(83,107).
att(83,106).
att(83,105).
att(83,102).
att(83,101).
att(83,99).
att(83,98).
att(83,97).
att(83,96).
att(83,95).
att(83,94).
att(83,92).
att(83,91).
att(83,90).
att(83,89).
att(83,86).
att(83,85).
att(83,84).
att(83,83).
att(83,82).
att(83,81).
att(83,80).
att(83,79).
att(83,77).
att(83,76).
att(83,75).
att(83,74).
att(83,73).
att(83,71).
att(83,70).
att(83,69).
att(83,66).
att(83,65).
att(83,64).
att(83,63).
att(83,62).
att(83,61).
att(83,59).
att(83,56).
att(83,54).
att(83,52).
att(83,51).
att(83,49).
att(83,48).
att(83,47).
att(83,46).
att(83,45).
att(83,44).
att(83,42).
att(83,41).
att(83,39).
att(83,38).
att(83,37).
att(83,36).
att(83,35).
att(83,34).
att(83,33).
att(83,32).
att(83,30).
att(83,29).
att(83,27).
att(83,24).
att(83,23).
att(83,21).
att(83,20).
att(83,19).
att(83,15).
att(83,14).
att(83,13).
att(83,11).
att(83,9).
att(83,8).
att(83,7).
att(83,6).
att(83,5).
att(83,4).
att(83,3).
att(82,120).
att(82,119).
att(82,118).
att(82,117).
att(82,116).
att(82,115).
att(82,114).
att(82,113).
att(82,112).
att(82,111).
att(82,109).
att(82,108).
att(82,107).
att(82,106).
att(82,105).
att(82,103).
att(82,102).
att(82,101).
att(82,100).
att(82,99).
att(82,98).
att(82,97).
att(82,96).
att(82,95).
att(82,94).
att(82,93).
att(82,92).
att(82,91).
att(82,90).
att(82,89).
att(82,88).
att(82,86).
att(82,85).
att(82,84).
att(82,83).
att(82,82).
att(82,81).
att(82,80).
att(82,79).
att(82,78).
att(82,77).
att(82,76).
att(82,75).
att(82,74).
att(82,73).
att(82,72).
att(82,71).
att(82,70).
att(82,69).
att(82,66).
att(82,65).
att(82,64).
att(82,63).
att(82,62).
att(82,61).
att(82,59).
att(82,58).
att(82,56).
att(82,55).
att(82,54).
att(82,53).
att(82,52).
att(82,51).
att(82,49).
att(82,48).
att(82,47).
att(82,46).
att(82,45).
att(82,44).
att(82,42).
att(82,39).
att(82,38).
att(82,37).
att(82,36).
att(82,35).
att(82,34).
att(82,33).
att(82,32).
att(82,31).
att(82,30).
att(82,29).
att(82,26).
att(82,24).
att(82,23).
att(82,21).
att(82,20).
att(82,19).
att(82,18).
att(82,16).
att(82,15).
att(82,14).
att(82,13).
att(82,11).
att(82,9).
att(82,8).
att(82,7).
att(82,6).
att(82,5).
att(82,4).
att(82,3).
att(82,2).
att(81,120).
att(81,119).
att(81,118).
att(81,117).
att(81,116).
att(81,115).
att(81,114).
att(81,113).
att(81,112).
att(81,111).
att(81,109).
att(81,108).
att(81,107).
att(81,106).
att(81,105).
att(81,104).
att(81,103).
att(81,102).
att(81,101).
att(81,100).
att(81,99).
att(81,98).
att(81,97).
att(81,96).
att(81,95).
att(81,94).
att(81,93).
att(81,92).
att(81,91).
att(81,90).
att(81,89).
att(81,86).
att(81,85).
att(81,84).
att(81,83).
att(81,82).
att(81,81).
att(81,80).
att(81,79).
att(81,78).
att(81,77).
att(81,76).
att(81,75).
att(81,74).
att(81,73).
att(81,72).
att(81,70).
att(81,69).
att(81,68).
att(81,66).
att(81,64).
att(81,63).
att(81,62).
att(81,61).
att(81,59).
att(81,58).
att(81,56).
att(81,55).
att(81,54).
att(81,53).
att(81,52).
att(81,51).
att(81,50).
att(81,49).
att(81,48).
att(81,47).
att(81,46).
att(81,45).
att(81,44).
att(81,42).
att(81,41).
att(81,39).
att(81,38).
att(81,37).
att(81,36).
att(81,35).
att(81,34).
att(81,33).
att(81,32).
att(81,31).
att(81,30).
att(81,29).
att(81,28).
att(81,27).
att(81,26).
att(81,25).
att(81,24).
att(81,23).
att(81,21).
att(81,20).
att(81,19).
att(81,18).
att(81,17).
att(81,16).
att(81,15).
att(81,14).
att(81,13).
att(81,11).
att(81,9).
att(81,8).
att(81,7).
att(81,6).
att(81,5).
att(81,4).
att(81,3).
att(80,120).
att(80,119).
att(80,118).
att(80,117).
att(80,116).
att(80,115).
att(80,114).
att(80,113).
att(80,112).
att(80,111).
att(80,109).
att(80,108).
att(80,107).
att(80,106).
att(80,105).
att(80,103).
att(80,102).
att(80,101).
att(80,100).
att(80,99).
att(80,98).
att(80,97).
att(80,96).
att(80,95).
att(80,94).
att(80,93).
att(80,92).
att(80,91).
att(80,90).
att(80,89).
att(80,88).
att(80,86).
att(80,85).
att(80,84).
att(80,83).
att(80,82).
att(80,81).
att(80,80).
att(80,79).
att(80,78).
att(80,77).
att(80,76).
att(80,75).
att(80,74).
att(80,73).
att(80,72).
att(80,70).
att(80,69).
att(80,66).
att(80,65).
att(80,64).
att(80,63).
att(80,62).
att(80,61).
att(80,60).
att(80,59).
att(80,56).
att(80,55).
att(80,53).
att(80,52).
att(80,51).
att(80,49).
att(80,48).
att(80,47).
att(80,46).
att(80,45).
att(80,44).
att(80,43).
att(80,42).
att(80,41).
att(80,39).
att(80,38).
att(80,37).
att(80,36).
att(80,35).
att(80,34).
att(80,33).
att(80,32).
att(80,31).
att(80,30).
att(80,29).
att(80,26).
att(80,24).
att(80,23).
att(80,22).
att(80,21).
att(80,20).
att(80,19).
att(80,15).
att(80,14).
att(80,13).
att(80,12).
att(80,11).
att(80,9).
att(80,8).
att(80,7).
att(80,6).
att(80,5).
att(80,4).
att(80,3).
att(80,2).
att(79,118).
att(79,117).
att(79,116).
att(79,115).
att(79,114).
att(79,113).
att(79,112).
att(79,111).
att(79,108).
att(79,107).
att(79,106).
att(79,105).
att(79,102).
att(79,101).
att(79,99).
att(79,98).
att(79,97).
att(79,96).
att(79,94).
att(79,93).
att(79,92).
att(79,91).
att(79,90).
att(79,89).
att(79,86).
att(79,85).
att(79,84).
att(79,83).
att(79,82).
att(79,81).
att(79,80).
att(79,76).
att(79,75).
att(79,74).
att(79,73).
att(79,71).
att(79,70).
att(79,66).
att(79,65).
att(79,64).
att(79,63).
att(79,62).
att(79,61).
att(79,59).
att(79,58).
att(79,54).
att(79,53).
att(79,52).
att(79,51).
att(79,49).
att(79,48).
att(79,47).
att(79,46).
att(79,45).
att(79,44).
att(79,42).
att(79,41).
att(79,39).
att(79,38).
att(79,37).
att(79,35).
att(79,34).
att(79,33).
att(79,32).
att(79,30).
att(79,29).
att(79,26).
att(79,24).
att(79,23).
att(79,21).
att(79,20).
att(79,19).
att(79,18).
att(79,16).
att(79,15).
att(79,14).
att(79,13).
att(79,11).
att(79,9).
att(79,4).
att(79,3).
att(78,119).
att(78,118).
att(78,116).
att(78,114).
att(78,107).
att(78,106).
att(78,105).
att(78,102).
att(78,101).
att(78,99).
att(78,98).
att(78,94).
att(78,86).
att(78,84).
att(78,79).
att(78,76).
att(78,75).
att(78,74).
att(78,73).
att(78,70).
att(78,62).
att(78,52).
att(78,51).
att(78,49).
att(78,48).
att(78,47).
att(78,46).
att(78,44).
att(78,38).
att(78,37).
att(78,36).
att(78,32).
att(78,30).
att(78,29).
att(78,24).
att(78,23).
att(78,21).
att(78,19).
att(78,14).
att(78,9).
att(78,5).
att(78,4).
att(78,3).
att(77,120).
att(77,119).
att(77,118).
att(77,117).
att(77,116).
att(77,115).
att(77,114).
att(77,113).
att(77,112).
att(77,111).
att(77,108).
att(77,107).
att(77,106).
att(77,105).
att(77,103).
att(77,102).
att(77,101).
att(77,99).
att(77,98).
att(77,97).
att(77,96).
att(77,95).
att(77,94).
att(77,93).
att(77,92).
att(77,91).
att(77,90).
att(77,89).
att(77,88).
att(77,86).
att(77,85).
att(77,84).
att(77,83).
att(77,82).
att(77,81).
att(77,80).
att(77,78).
att(77,77).
att(77,76).
att(77,75).
att(77,74).
att(77,73).
att(77,71).
att(77,70).
att(77,66).
att(77,65).
att(77,64).
att(77,63).
att(77,62).
att(77,61).
att(77,60).
att(77,59).
att(77,58).
att(77,56).
att(77,54).
att(77,53).
att(77,52).
att(77,51).
att(77,49).
att(77,48).
att(77,47).
att(77,46).
att(77,45).
att(77,44).
att(77,42).
att(77,41).
att(77,39).
att(77,38).
att(77,37).
att(77,36).
att(77,35).
att(77,34).
att(77,33).
att(77,32).
att(77,31).
att(77,30).
att(77,29).
att(77,27).
att(77,26).
att(77,24).
att(77,23).
att(77,22).
att(77,21).
att(77,20).
att(77,19).
att(77,18).
att(77,16).
att(77,15).
att(77,14).
att(77,13).
att(77,11).
att(77,9).
att(77,8).
att(77,7).
att(77,6).
att(77,4).
att(77,3).
att(77,2).
att(76,120).
att(76,119).
att(76,118).
att(76,117).
att(76,116).
att(76,115).
att(76,114).
att(76,113).
att(76,112).
att(76,111).
att(76,109).
att(76,108).
att(76,107).
att(76,106).
att(76,105).
att(76,103).
att(76,102).
att(76,101).
att(76,100).
att(76,99).
att(76,98).
att(76,96).
att(76,95).
att(76,94).
att(76,91).
att(76,90).
att(76,89).
att(76,86).
att(76,85).
att(76,84).
att(76,83).
att(76,82).
att(76,81).
att(76,80).
att(76,79).
att(76,78).
att(76,77).
att(76,76).
att(76,75).
att(76,74).
att(76,73).
att(76,72).
att(76,70).
att(76,69).
att(76,66).
att(76,64).
att(76,63).
att(76,62).
att(76,61).
att(76,60).
att(76,59).
att(76,58).
att(76,56).
att(76,55).
att(76,53).
att(76,52).
att(76,51).
att(76,49).
att(76,48).
att(76,47).
att(76,46).
att(76,45).
att(76,44).
att(76,42).
att(76,41).
att(76,39).
att(76,38).
att(76,37).
att(76,36).
att(76,35).
att(76,34).
att(76,33).
att(76,32).
att(76,31).
att(76,30).
att(76,29).
att(76,25).
att(76,24).
att(76,23).
att(76,22).
att(76,21).
att(76,20).
att(76,19).
att(76,18).
att(76,15).
att(76,14).
att(76,13).
att(76,11).
att(76,10).
att(76,9).
att(76,8).
att(76,7).
att(76,6).
att(76,5).
att(76,4).
att(76,3).
att(76,2).
att(75,120).
att(75,119).
att(75,118).
att(75,117).
att(75,116).
att(75,115).
att(75,114).
att(75,113).
att(75,112).
att(75,111).
att(75,110).
att(75,109).
att(75,108).
att(75,107).
att(75,106).
att(75,105).
att(75,103).
att(75,102).
att(75,101).
att(75,100).
att(75,99).
att(75,98).
att(75,97).
att(75,96).
att(75,95).
att(75,94).
att(75,93).
att(75,92).
att(75,91).
att(75,90).
att(75,89).
att(75,86).
att(75,85).
att(75,84).
att(75,83).
att(75,82).
att(75,81).
att(75,80).
att(75,79).
att(75,78).
att(75,77).
att(75,76).
att(75,75).
att(75,74).
att(75,73).
att(75,72).
att(75,70).
att(75,69).
att(75,66).
att(75,65).
att(75,64).
att(75,63).
att(75,62).
att(75,61).
att(75,59).
att(75,58).
att(75,56).
att(75,55).
att(75,53).
att(75,52).
att(75,51).
att(75,49).
att(75,48).
att(75,47).
att(75,46).
att(75,45).
att(75,44).
att(75,42).
att(75,41).
att(75,39).
att(75,38).
att(75,37).
att(75,36).
att(75,35).
att(75,34).
att(75,33).
att(75,32).
att(75,30).
att(75,29).
att(75,26).
att(75,24).
att(75,23).
att(75,21).
att(75,20).
att(75,19).
att(75,18).
att(75,16).
att(75,15).
att(75,14).
att(75,13).
att(75,11).
att(75,9).
att(75,8).
att(75,7).
att(75,6).
att(75,5).
att(75,4).
att(75,3).
att(75,2).
att(74,120).
att(74,119).
att(74,118).
att(74,117).
att(74,116).
att(74,115).
att(74,114).
att(74,113).
att(74,112).
att(74,111).
att(74,108).
att(74,107).
att(74,106).
att(74,105).
att(74,103).
att(74,102).
att(74,101).
att(74,99).
att(74,98).
att(74,97).
att(74,96).
att(74,95).
att(74,94).
att(74,93).
att(74,92).
att(74,91).
att(74,90).
att(74,89).
att(74,88).
att(74,86).
att(74,85).
att(74,84).
att(74,83).
att(74,82).
att(74,81).
att(74,80).
att(74,79).
att(74,78).
att(74,77).
att(74,76).
att(74,75).
att(74,74).
att(74,73).
att(74,71).
att(74,70).
att(74,66).
att(74,65).
att(74,64).
att(74,63).
att(74,62).
att(74,61).
att(74,59).
att(74,58).
att(74,56).
att(74,54).
att(74,53).
att(74,52).
att(74,51).
att(74,49).
att(74,48).
att(74,47).
att(74,46).
att(74,44).
att(74,42).
att(74,39).
att(74,38).
att(74,37).
att(74,36).
att(74,35).
att(74,34).
att(74,33).
att(74,32).
att(74,31).
att(74,30).
att(74,29).
att(74,26).
att(74,24).
att(74,23).
att(74,21).
att(74,20).
att(74,19).
att(74,18).
att(74,16).
att(74,15).
att(74,14).
att(74,13).
att(74,11).
att(74,9).
att(74,8).
att(74,7).
att(74,6).
att(74,5).
att(74,4).
att(74,3).
att(74,2).
att(73,120).
att(73,119).
att(73,118).
att(73,116).
att(73,114).
att(73,113).
att(73,112).
att(73,111).
att(73,109).
att(73,108).
att(73,107).
att(73,106).
att(73,105).
att(73,103).
att(73,102).
att(73,101).
att(73,100).
att(73,99).
att(73,98).
att(73,96).
att(73,95).
att(73,94).
att(73,91).
att(73,90).
att(73,89).
att(73,88).
att(73,86).
att(73,85).
att(73,84).
att(73,83).
att(73,82).
att(73,81).
att(73,80).
att(73,79).
att(73,78).
att(73,77).
att(73,76).
att(73,75).
att(73,74).
att(73,73).
att(73,72).
att(73,70).
att(73,69).
att(73,66).
att(73,64).
att(73,63).
att(73,62).
att(73,61).
att(73,59).
att(73,56).
att(73,55).
att(73,53).
att(73,52).
att(73,51).
att(73,49).
att(73,48).
att(73,47).
att(73,46).
att(73,45).
att(73,44).
att(73,42).
att(73,41).
att(73,39).
att(73,38).
att(73,37).
att(73,36).
att(73,35).
att(73,34).
att(73,33).
att(73,32).
att(73,31).
att(73,30).
att(73,29).
att(73,24).
att(73,23).
att(73,21).
att(73,20).
att(73,19).
att(73,15).
att(73,14).
att(73,13).
att(73,11).
att(73,9).
att(73,8).
att(73,7).
att(73,6).
att(73,5).
att(73,4).
att(73,3).
att(73,2).
att(72,120).
att(72,118).
att(72,113).
att(72,103).
att(72,99).
att(72,96).
att(72,95).
att(72,91).
att(72,90).
att(72,88).
att(72,84).
att(72,81).
att(72,78).
att(72,66).
att(72,39).
att(72,35).
att(72,31).
att(72,30).
att(72,21).
att(72,15).
att(72,9).
att(72,8).
att(72,4).
att(72,3).
att(72,2).
att(71,116).
att(71,114).
att(71,112).
att(71,111).
att(71,109).
att(71,108).
att(71,107).
att(71,102).
att(71,101).
att(71,95).
att(71,94).
att(71,91).
att(71,90).
att(71,89).
att(71,85).
att(71,82).
att(71,77).
att(71,76).
att(71,74).
att(71,73).
att(71,69).
att(71,66).
att(71,64).
att(71,59).
att(71,52).
att(71,51).
att(71,48).
att(71,45).
att(71,42).
att(71,37).
att(71,35).
att(71,34).
att(71,33).
att(71,23).
att(71,14).
att(71,13).
att(71,11).
att(71,6).
att(71,4).
att(70,120).
att(70,119).
att(70,116).
att(70,115).
att(70,114).
att(70,113).
att(70,112).
att(70,111).
att(70,109).
att(70,108).
att(70,107).
att(70,104).
att(70,103).
att(70,102).
att(70,101).
att(70,100).
att(70,99).
att(70,97).
att(70,95).
att(70,94).
att(70,93).
att(70,91).
att(70,90).
att(70,89).
att(70,86).
att(70,85).
att(70,84).
att(70,83).
att(70,82).
att(70,81).
att(70,80).
att(70,77).
att(70,76).
att(70,75).
att(70,74).
att(70,73).
att(70,69).
att(70,66).
att(70,64).
att(70,62).
att(70,61).
att(70,59).
att(70,58).
att(70,54).
att(70,53).
att(70,52).
att(70,51).
att(70,49).
att(70,48).
att(70,45).
att(70,42).
att(70,39).
att(70,37).
att(70,35).
att(70,34).
att(70,33).
att(70,30).
att(70,26).
att(70,23).
att(70,18).
att(70,16).
att(70,14).
att(70,13).
att(70,11).
att(70,8).
att(70,6).
att(70,4).
att(70,3).
att(70,1).
att(69,118).
att(69,117).
att(69,116).
att(69,115).
att(69,114).
att(69,113).
att(69,112).
att(69,108).
att(69,107).
att(69,106).
att(69,105).
att(69,103).
att(69,102).
att(69,101).
att(69,99).
att(69,98).
att(69,96).
att(69,95).
att(69,94).
att(69,91).
att(69,90).
att(69,85).
att(69,84).
att(69,83).
att(69,81).
att(69,80).
att(69,78).
att(69,77).
att(69,76).
att(69,75).
att(69,74).
att(69,73).
att(69,70).
att(69,69).
att(69,66).
att(69,64).
att(69,61).
att(69,60).
att(69,59).
att(69,58).
att(69,52).
att(69,51).
att(69,49).
att(69,48).
att(69,47).
att(69,45).
att(69,44).
att(69,42).
att(69,41).
att(69,39).
att(69,38).
att(69,37).
att(69,35).
att(69,32).
att(69,31).
att(69,30).
att(69,29).
att(69,25).
att(69,24).
att(69,23).
att(69,22).
att(69,21).
att(69,20).
att(69,19).
att(69,18).
att(69,15).
att(69,14).
att(69,13).
att(69,11).
att(69,10).
att(69,9).
att(69,4).
att(69,3).
att(69,2).
att(68,118).
att(68,116).
att(68,114).
att(68,112).
att(68,107).
att(68,106).
att(68,105).
att(68,102).
att(68,101).
att(68,99).
att(68,98).
att(68,97).
att(68,94).
att(68,93).
att(68,91).
att(68,90).
att(68,84).
att(68,83).
att(68,76).
att(68,75).
att(68,74).
att(68,73).
att(68,70).
att(68,66).
att(68,64).
att(68,59).
att(68,58).
att(68,53).
att(68,52).
att(68,51).
att(68,49).
att(68,48).
att(68,47).
att(68,45).
att(68,44).
att(68,42).
att(68,41).
att(68,38).
att(68,37).
att(68,35).
att(68,34).
att(68,32).
att(68,30).
att(68,29).
att(68,26).
att(68,24).
att(68,23).
att(68,21).
att(68,19).
att(68,18).
att(68,16).
att(68,14).
att(68,13).
att(68,11).
att(68,9).
att(68,4).
att(68,3).
att(66,120).
att(66,119).
att(66,118).
att(66,117).
att(66,116).
att(66,115).
att(66,114).
att(66,113).
att(66,112).
att(66,111).
att(66,109).
att(66,108).
att(66,107).
att(66,106).
att(66,105).
att(66,104).
att(66,103).
att(66,102).
att(66,101).
att(66,100).
att(66,99).
att(66,98).
att(66,97).
att(66,96).
att(66,95).
att(66,94).
att(66,93).
att(66,92).
att(66,91).
att(66,90).
att(66,89).
att(66,88).
att(66,86).
att(66,85).
att(66,84).
att(66,83).
att(66,82).
att(66,81).
att(66,80).
att(66,79).
att(66,78).
att(66,77).
att(66,76).
att(66,75).
att(66,74).
att(66,73).
att(66,72).
att(66,70).
att(66,69).
att(66,68).
att(66,66).
att(66,65).
att(66,64).
att(66,63).
att(66,62).
att(66,61).
att(66,59).
att(66,58).
att(66,56).
att(66,55).
att(66,54).
att(66,53).
att(66,52).
att(66,51).
att(66,50).
att(66,49).
att(66,48).
att(66,47).
att(66,46).
att(66,45).
att(66,44).
att(66,42).
att(66,41).
att(66,39).
att(66,38).
att(66,37).
att(66,36).
att(66,35).
att(66,34).
att(66,33).
att(66,32).
att(66,31).
att(66,30).
att(66,29).
att(66,28).
att(66,27).
att(66,26).
att(66,25).
att(66,24).
att(66,23).
att(66,21).
att(66,20).
att(66,19).
att(66,18).
att(66,17).
att(66,16).
att(66,15).
att(66,14).
att(66,13).
att(66,12).
att(66,11).
att(66,9).
att(66,8).
att(66,7).
att(66,6).
att(66,5).
att(66,4).
att(66,3).
att(66,2).
att(65,120).
att(65,119).
att(65,118).
att(65,117).
att(65,116).
att(65,115).
att(65,114).
att(65,113).
att(65,112).
att(65,111).
att(65,110).
att(65,109).
att(65,108).
att(65,107).
att(65,105).
att(65,103).
att(65,102).
att(65,101).
att(65,100).
att(65,99).
att(65,98).
att(65,97).
att(65,96).
att(65,95).
att(65,94).
att(65,93).
att(65,92).
att(65,91).
att(65,90).
att(65,89).
att(65,86).
att(65,85).
att(65,84).
att(65,83).
att(65,82).
att(65,81).
att(65,80).
att(65,79).
att(65,78).
att(65,77).
att(65,76).
att(65,75).
att(65,74).
att(65,73).
att(65,72).
att(65,70).
att(65,69).
att(65,66).
att(65,65).
att(65,64).
att(65,63).
att(65,62).
att(65,61).
att(65,60).
att(65,59).
att(65,56).
att(65,55).
att(65,53).
att(65,52).
att(65,51).
att(65,48).
att(65,47).
att(65,46).
att(65,45).
att(65,44).
att(65,43).
att(65,42).
att(65,39).
att(65,38).
att(65,37).
att(65,36).
att(65,35).
att(65,34).
att(65,33).
att(65,32).
att(65,30).
att(65,29).
att(65,24).
att(65,23).
att(65,22).
att(65,20).
att(65,19).
att(65,15).
att(65,14).
att(65,13).
att(65,11).
att(65,9).
att(65,8).
att(65,7).
att(65,6).
att(65,5).
att(65,4).
att(65,3).
att(65,2).
att(64,120).
att(64,119).
att(64,118).
att(64,117).
att(64,116).
att(64,115).
att(64,114).
att(64,113).
att(64,112).
att(64,111).
att(64,108).
att(64,107).
att(64,105).
att(64,104).
att(64,103).
att(64,102).
att(64,100).
att(64,99).
att(64,97).
att(64,96).
att(64,95).
att(64,94).
att(64,93).
att(64,92).
att(64,91).
att(64,90).
att(64,89).
att(64,86).
att(64,85).
att(64,84).
att(64,83).
att(64,82).
att(64,81).
att(64,80).
att(64,79).
att(64,78).
att(64,77).
att(64,76).
att(64,75).
att(64,74).
att(64,73).
att(64,70).
att(64,69).
att(64,68).
att(64,66).
att(64,65).
att(64,64).
att(64,63).
att(64,61).
att(64,59).
att(64,58).
att(64,55).
att(64,54).
att(64,53).
att(64,52).
att(64,51).
att(64,50).
att(64,49).
att(64,48).
att(64,47).
att(64,45).
att(64,39).
att(64,37).
att(64,36).
att(64,35).
att(64,34).
att(64,33).
att(64,32).
att(64,31).
att(64,30).
att(64,29).
att(64,28).
att(64,26).
att(64,25).
att(64,24).
att(64,23).
att(64,19).
att(64,18).
att(64,17).
att(64,16).
att(64,15).
att(64,14).
att(64,13).
att(64,12).
att(64,11).
att(64,9).
att(64,8).
att(64,7).
att(64,6).
att(64,4).
att(64,3).
att(63,120).
att(63,119).
att(63,118).
att(63,117).
att(63,116).
att(63,115).
att(63,114).
att(63,113).
att(63,112).
att(63,111).
att(63,109).
att(63,108).
att(63,107).
att(63,105).
att(63,104).
att(63,103).
att(63,102).
att(63,101).
att(63,100).
att(63,99).
att(63,98).
att(63,97).
att(63,96).
att(63,95).
att(63,94).
att(63,93).
att(63,92).
att(63,91).
att(63,90).
att(63,89).
att(63,86).
att(63,85).
att(63,84).
att(63,83).
att(63,82).
att(63,81).
att(63,80).
att(63,79).
att(63,78).
att(63,77).
att(63,76).
att(63,75).
att(63,74).
att(63,73).
att(63,72).
att(63,71).
att(63,70).
att(63,69).
att(63,68).
att(63,66).
att(63,65).
att(63,64).
att(63,63).
att(63,62).
att(63,61).
att(63,60).
att(63,59).
att(63,56).
att(63,55).
att(63,54).
att(63,53).
att(63,52).
att(63,51).
att(63,50).
att(63,49).
att(63,48).
att(63,47).
att(63,46).
att(63,45).
att(63,44).
att(63,43).
att(63,42).
att(63,39).
att(63,38).
att(63,37).
att(63,36).
att(63,35).
att(63,34).
att(63,33).
att(63,32).
att(63,31).
att(63,30).
att(63,29).
att(63,25).
att(63,24).
att(63,23).
att(63,22).
att(63,20).
att(63,19).
att(63,18).
att(63,17).
att(63,15).
att(63,14).
att(63,13).
att(63,11).
att(63,9).
att(63,8).
att(63,7).
att(63,6).
att(63,5).
att(63,4).
att(63,3).
att(63,2).
att(62,119).
att(62,118).
att(62,117).
att(62,116).
att(62,115).
att(62,114).
att(62,113).
att(62,112).
att(62,111).
att(62,109).
att(62,108).
att(62,107).
att(62,105).
att(62,102).
att(62,101).
att(62,99).
att(62,97).
att(62,96).
att(62,95).
att(62,94).
att(62,93).
att(62,92).
att(62,91).
att(62,90).
att(62,89).
att(62,86).
att(62,85).
att(62,84).
att(62,83).
att(62,82).
att(62,81).
att(62,80).
att(62,77).
att(62,76).
att(62,75).
att(62,74).
att(62,73).
att(62,71).
att(62,70).
att(62,69).
att(62,66).
att(62,65).
att(62,64).
att(62,63).
att(62,62).
att(62,61).
att(62,60).
att(62,59).
att(62,54).
att(62,52).
att(62,51).
att(62,49).
att(62,48).
att(62,47).
att(62,46).
att(62,45).
att(62,44).
att(62,43).
att(62,42).
att(62,39).
att(62,38).
att(62,37).
att(62,35).
att(62,34).
att(62,33).
att(62,32).
att(62,30).
att(62,29).
att(62,23).
att(62,22).
att(62,20).
att(62,19).
att(62,15).
att(62,14).
att(62,13).
att(62,11).
att(62,9).
att(62,6).
att(62,4).
att(62,3).
att(62,2).
att(61,120).
att(61,119).
att(61,118).
att(61,117).
att(61,116).
att(61,115).
att(61,114).
att(61,113).
att(61,112).
att(61,111).
att(61,109).
att(61,108).
att(61,107).
att(61,106).
att(61,105).
att(61,103).
att(61,102).
att(61,101).
att(61,99).
att(61,98).
att(61,97).
att(61,96).
att(61,95).
att(61,94).
att(61,92).
att(61,91).
att(61,90).
att(61,89).
att(61,88).
att(61,86).
att(61,85).
att(61,84).
att(61,83).
att(61,82).
att(61,81).
att(61,80).
att(61,79).
att(61,78).
att(61,77).
att(61,76).
att(61,75).
att(61,74).
att(61,73).
att(61,70).
att(61,69).
att(61,66).
att(61,65).
att(61,64).
att(61,63).
att(61,62).
att(61,59).
att(61,53).
att(61,52).
att(61,51).
att(61,49).
att(61,48).
att(61,47).
att(61,46).
att(61,45).
att(61,44).
att(61,42).
att(61,41).
att(61,39).
att(61,38).
att(61,37).
att(61,36).
att(61,35).
att(61,34).
att(61,33).
att(61,32).
att(61,31).
att(61,30).
att(61,29).
att(61,26).
att(61,24).
att(61,23).
att(61,21).
att(61,19).
att(61,15).
att(61,14).
att(61,13).
att(61,12).
att(61,11).
att(61,9).
att(61,8).
att(61,7).
att(61,6).
att(61,5).
att(61,4).
att(61,3).
att(61,2).
att(60,94).
att(60,92).
att(60,91).
att(60,86).
att(60,80).
att(60,66).
att(60,64).
att(60,61).
att(60,59).
att(60,49).
att(60,42).
att(60,36).
att(60,35).
att(60,27).
att(60,24).
att(60,14).
att(60,11).
att(59,120).
att(59,119).
att(59,118).
att(59,117).
att(59,116).
att(59,115).
att(59,114).
att(59,113).
att(59,112).
att(59,111).
att(59,110).
att(59,109).
att(59,108).
att(59,107).
att(59,106).
att(59,105).
att(59,104).
att(59,103).
att(59,102).
att(59,101).
att(59,100).
att(59,99).
att(59,98).
att(59,97).
att(59,96).
att(59,95).
att(59,94).
att(59,93).
att(59,92).
att(59,91).
att(59,90).
att(59,89).
att(59,86).
att(59,85).
att(59,84).
att(59,83).
att(59,82).
att(59,81).
att(59,80).
att(59,79).
att(59,78).
att(59,77).
att(59,76).
att(59,75).
att(59,74).
att(59,73).
att(59,72).
att(59,70).
att(59,69).
att(59,68).
att(59,66).
att(59,65).
att(59,64).
att(59,63).
att(59,62).
att(59,61).
att(59,59).
att(59,58).
att(59,56).
att(59,55).
att(59,54).
att(59,53).
att(59,52).
att(59,51).
att(59,50).
att(59,49).
att(59,48).
att(59,47).
att(59,46).
att(59,45).
att(59,44).
att(59,42).
att(59,41).
att(59,39).
att(59,38).
att(59,37).
att(59,36).
att(59,35).
att(59,34).
att(59,33).
att(59,32).
att(59,31).
att(59,30).
att(59,29).
att(59,28).
att(59,27).
att(59,26).
att(59,25).
att(59,24).
att(59,23).
att(59,21).
att(59,20).
att(59,19).
att(59,18).
att(59,17).
att(59,16).
att(59,15).
att(59,14).
att(59,13).
att(59,12).
att(59,11).
att(59,9).
att(59,8).
att(59,7).
att(59,6).
att(59,5).
att(59,4).
att(59,3).
att(59,2).
att(58,118).
att(58,117).
att(58,116).
att(58,115).
att(58,113).
att(58,112).
att(58,111).
att(58,110).
att(58,108).
att(58,103).
att(58,102).
att(58,99).
att(58,97).
att(58,96).
att(58,95).
att(58,94).
att(58,92).
att(58,91).
att(58,90).
att(58,89).
att(58,86).
att(58,85).
att(58,84).
att(58,83).
att(58,82).
att(58,81).
att(58,80).
att(58,78).
att(58,77).
att(58,76).
att(58,75).
att(58,74).
att(58,73).
att(58,66).
att(58,65).
att(58,63).
att(58,61).
att(58,60).
att(58,59).
att(58,53).
att(58,52).
att(58,48).
att(58,47).
att(58,44).
att(58,42).
att(58,39).
att(58,38).
att(58,37).
att(58,35).
att(58,34).
att(58,33).
att(58,32).
att(58,30).
att(58,29).
att(58,23).
att(58,22).
att(58,20).
att(58,19).
att(58,15).
att(58,14).
att(58,11).
att(58,9).
att(58,4).
att(58,3).
att(58,2).
att(57,120).
att(57,117).
att(57,116).
att(57,115).
att(57,114).
att(57,113).
att(57,112).
att(57,111).
att(57,108).
att(57,107).
att(57,105).
att(57,104).
att(57,103).
att(57,102).
att(57,100).
att(57,99).
att(57,97).
att(57,96).
att(57,95).
att(57,90).
att(57,89).
att(57,85).
att(57,84).
att(57,83).
att(57,82).
att(57,81).
att(57,80).
att(57,79).
att(57,78).
att(57,77).
att(57,76).
att(57,75).
att(57,74).
att(57,73).
att(57,69).
att(57,68).
att(57,66).
att(57,61).
att(57,59).
att(57,55).
att(57,54).
att(57,53).
att(57,52).
att(57,50).
att(57,49).
att(57,47).
att(57,45).
att(57,39).
att(57,37).
att(57,35).
att(57,34).
att(57,33).
att(57,32).
att(57,31).
att(57,30).
att(57,25).
att(57,19).
att(57,18).
att(57,17).
att(57,15).
att(57,14).
att(57,13).
att(57,9).
att(57,8).
att(57,6).
att(57,4).
att(57,3).
att(56,118).
att(56,117).
att(56,116).
att(56,115).
att(56,113).
att(56,112).
att(56,111).
att(56,108).
att(56,102).
att(56,99).
att(56,97).
att(56,96).
att(56,94).
att(56,92).
att(56,91).
att(56,89).
att(56,86).
att(56,85).
att(56,84).
att(56,83).
att(56,82).
att(56,81).
att(56,80).
att(56,76).
att(56,75).
att(56,73).
att(56,71).
att(56,70).
att(56,66).
att(56,65).
att(56,63).
att(56,62).
att(56,61).
att(56,59).
att(56,54).
att(56,52).
att(56,49).
att(56,48).
att(56,47).
att(56,46).
att(56,39).
att(56,38).
att(56,37).
att(56,35).
att(56,33).
att(56,30).
att(56,29).
att(56,20).
att(56,19).
att(56,15).
att(56,14).
att(56,11).
att(56,9).
att(56,3).
att(55,120).
att(55,118).
att(55,116).
att(55,114).
att(55,113).
att(55,112).
att(55,107).
att(55,106).
att(55,105).
att(55,103).
att(55,102).
att(55,101).
att(55,99).
att(55,98).
att(55,96).
att(55,95).
att(55,94).
att(55,91).
att(55,90).
att(55,88).
att(55,84).
att(55,81).
att(55,78).
att(55,76).
att(55,75).
att(55,74).
att(55,73).
att(55,70).
att(55,66).
att(55,52).
att(55,51).
att(55,49).
att(55,48).
att(55,47).
att(55,45).
att(55,44).
att(55,42).
att(55,41).
att(55,39).
att(55,38).
att(55,37).
att(55,35).
att(55,32).
att(55,31).
att(55,30).
att(55,29).
att(55,24).
att(55,21).
att(55,19).
att(55,15).
att(55,14).
att(55,13).
att(55,9).
att(55,8).
att(55,4).
att(55,3).
att(55,2).
att(54,120).
att(54,118).
att(54,117).
att(54,116).
att(54,115).
att(54,114).
att(54,113).
att(54,112).
att(54,111).
att(54,109).
att(54,108).
att(54,107).
att(54,106).
att(54,105).
att(54,104).
att(54,103).
att(54,102).
att(54,101).
att(54,100).
att(54,99).
att(54,98).
att(54,97).
att(54,96).
att(54,95).
att(54,94).
att(54,91).
att(54,90).
att(54,89).
att(54,85).
att(54,84).
att(54,83).
att(54,82).
att(54,81).
att(54,80).
att(54,79).
att(54,78).
att(54,77).
att(54,76).
att(54,75).
att(54,74).
att(54,73).
att(54,70).
att(54,69).
att(54,68).
att(54,66).
att(54,64).
att(54,61).
att(54,59).
att(54,55).
att(54,54).
att(54,53).
att(54,52).
att(54,51).
att(54,50).
att(54,49).
att(54,48).
att(54,47).
att(54,45).
att(54,44).
att(54,42).
att(54,41).
att(54,39).
att(54,38).
att(54,37).
att(54,35).
att(54,34).
att(54,33).
att(54,32).
att(54,31).
att(54,30).
att(54,29).
att(54,25).
att(54,24).
att(54,23).
att(54,21).
att(54,19).
att(54,18).
att(54,17).
att(54,15).
att(54,14).
att(54,13).
att(54,11).
att(54,9).
att(54,8).
att(54,6).
att(54,4).
att(54,3).
att(53,120).
att(53,119).
att(53,118).
att(53,116).
att(53,114).
att(53,113).
att(53,112).
att(53,108).
att(53,107).
att(53,106).
att(53,105).
att(53,103).
att(53,102).
att(53,101).
att(53,99).
att(53,98).
att(53,96).
att(53,95).
att(53,94).
att(53,91).
att(53,90).
att(53,88).
att(53,86).
att(53,85).
att(53,84).
att(53,83).
att(53,82).
att(53,81).
att(53,79).
att(53,78).
att(53,77).
att(53,76).
att(53,75).
att(53,74).
att(53,73).
att(53,70).
att(53,66).
att(53,63).
att(53,62).
att(53,56).
att(53,52).
att(53,51).
att(53,49).
att(53,48).
att(53,47).
att(53,46).
att(53,45).
att(53,44).
att(53,42).
att(53,41).
att(53,39).
att(53,38).
att(53,37).
att(53,36).
att(53,35).
att(53,34).
att(53,32).
att(53,31).
att(53,30).
att(53,29).
att(53,24).
att(53,23).
att(53,21).
att(53,20).
att(53,19).
att(53,15).
att(53,14).
att(53,13).
att(53,9).
att(53,8).
att(53,7).
att(53,6).
att(53,5).
att(53,4).
att(53,3).
att(53,2).
att(52,120).
att(52,119).
att(52,118).
att(52,117).
att(52,116).
att(52,115).
att(52,114).
att(52,113).
att(52,112).
att(52,111).
att(52,109).
att(52,108).
att(52,107).
att(52,106).
att(52,105).
att(52,103).
att(52,102).
att(52,101).
att(52,100).
att(52,99).
att(52,98).
att(52,97).
att(52,96).
att(52,95).
att(52,94).
att(52,93).
att(52,92).
att(52,91).
att(52,90).
att(52,89).
att(52,88).
att(52,86).
att(52,85).
att(52,84).
att(52,83).
att(52,82).
att(52,81).
att(52,80).
att(52,79).
att(52,78).
att(52,77).
att(52,76).
att(52,75).
att(52,74).
att(52,73).
att(52,72).
att(52,71).
att(52,70).
att(52,69).
att(52,66).
att(52,65).
att(52,64).
att(52,63).
att(52,62).
att(52,61).
att(52,59).
att(52,58).
att(52,56).
att(52,55).
att(52,54).
att(52,53).
att(52,52).
att(52,51).
att(52,49).
att(52,48).
att(52,47).
att(52,46).
att(52,45).
att(52,44).
att(52,42).
att(52,39).
att(52,38).
att(52,37).
att(52,36).
att(52,35).
att(52,34).
att(52,33).
att(52,32).
att(52,31).
att(52,30).
att(52,29).
att(52,26).
att(52,24).
att(52,23).
att(52,21).
att(52,20).
att(52,19).
att(52,18).
att(52,16).
att(52,15).
att(52,14).
att(52,13).
att(52,11).
att(52,9).
att(52,8).
att(52,7).
att(52,6).
att(52,5).
att(52,4).
att(52,3).
att(52,2).
att(51,118).
att(51,117).
att(51,116).
att(51,115).
att(51,114).
att(51,113).
att(51,112).
att(51,111).
att(51,108).
att(51,107).
att(51,106).
att(51,105).
att(51,102).
att(51,101).
att(51,99).
att(51,98).
att(51,97).
att(51,96).
att(51,94).
att(51,93).
att(51,92).
att(51,91).
att(51,89).
att(51,86).
att(51,85).
att(51,84).
att(51,83).
att(51,82).
att(51,81).
att(51,80).
att(51,76).
att(51,75).
att(51,74).
att(51,73).
att(51,71).
att(51,70).
att(51,66).
att(51,65).
att(51,64).
att(51,63).
att(51,62).
att(51,61).
att(51,59).
att(51,58).
att(51,54).
att(51,53).
att(51,52).
att(51,51).
att(51,49).
att(51,48).
att(51,47).
att(51,46).
att(51,44).
att(51,39).
att(51,38).
att(51,37).
att(51,35).
att(51,34).
att(51,33).
att(51,30).
att(51,29).
att(51,26).
att(51,24).
att(51,23).
att(51,21).
att(51,20).
att(51,19).
att(51,18).
att(51,16).
att(51,15).
att(51,14).
att(51,13).
att(51,11).
att(51,9).
att(51,4).
att(51,3).
att(50,118).
att(50,116).
att(50,114).
att(50,112).
att(50,107).
att(50,106).
att(50,105).
att(50,102).
att(50,101).
att(50,99).
att(50,98).
att(50,94).
att(50,90).
att(50,84).
att(50,76).
att(50,75).
att(50,74).
att(50,73).
att(50,70).
att(50,52).
att(50,51).
att(50,49).
att(50,48).
att(50,47).
att(50,45).
att(50,44).
att(50,42).
att(50,41).
att(50,38).
att(50,37).
att(50,32).
att(50,30).
att(50,29).
att(50,24).
att(50,21).
att(50,19).
att(50,14).
att(50,13).
att(50,9).
att(50,4).
att(50,3).
att(49,119).
att(49,118).
att(49,117).
att(49,116).
att(49,115).
att(49,114).
att(49,113).
att(49,112).
att(49,111).
att(49,109).
att(49,108).
att(49,107).
att(49,102).
att(49,101).
att(49,99).
att(49,97).
att(49,96).
att(49,95).
att(49,94).
att(49,92).
att(49,91).
att(49,90).
att(49,89).
att(49,86).
att(49,85).
att(49,84).
att(49,83).
att(49,82).
att(49,81).
att(49,80).
att(49,77).
att(49,76).
att(49,75).
att(49,74).
att(49,73).
att(49,71).
att(49,70).
att(49,69).
att(49,66).
att(49,65).
att(49,64).
att(49,63).
att(49,62).
att(49,61).
att(49,59).
att(49,54).
att(49,53).
att(49,52).
att(49,51).
att(49,49).
att(49,48).
att(49,47).
att(49,46).
att(49,45).
att(49,42).
att(49,39).
att(49,38).
att(49,37).
att(49,35).
att(49,34).
att(49,33).
att(49,32).
att(49,30).
att(49,29).
att(49,26).
att(49,23).
att(49,20).
att(49,19).
att(49,15).
att(49,14).
att(49,13).
att(49,12).
att(49,11).
att(49,9).
att(49,7).
att(49,6).
att(49,4).
att(49,3).
att(48,120).
att(48,119).
att(48,118).
att(48,116).
att(48,114).
att(48,112).
att(48,111).
att(48,109).
att(48,108).
att(48,107).
att(48,105).
att(48,103).
att(48,102).
att(48,101).
att(48,100).
att(48,98).
att(48,96).
att(48,95).
att(48,94).
att(48,91).
att(48,90).
att(48,89).
att(48,86).
att(48,85).
att(48,84).
att(48,83).
att(48,82).
att(48,80).
att(48,79).
att(48,77).
att(48,76).
att(48,74).
att(48,73).
att(48,72).
att(48,69).
att(48,66).
att(48,64).
att(48,63).
att(48,62).
att(48,61).
att(48,59).
att(48,56).
att(48,55).
att(48,53).
att(48,52).
att(48,51).
att(48,48).
att(48,46).
att(48,45).
att(48,42).
att(48,39).
att(48,38).
att(48,37).
att(48,36).
att(48,35).
att(48,34).
att(48,33).
att(48,32).
att(48,24).
att(48,23).
att(48,20).
att(48,15).
att(48,14).
att(48,13).
att(48,11).
att(48,9).
att(48,8).
att(48,7).
att(48,6).
att(48,5).
att(48,4).
att(48,3).
att(47,120).
att(47,119).
att(47,118).
att(47,117).
att(47,116).
att(47,115).
att(47,114).
att(47,113).
att(47,112).
att(47,111).
att(47,110).
att(47,109).
att(47,108).
att(47,107).
att(47,106).
att(47,105).
att(47,104).
att(47,103).
att(47,102).
att(47,101).
att(47,100).
att(47,99).
att(47,98).
att(47,97).
att(47,96).
att(47,95).
att(47,94).
att(47,93).
att(47,92).
att(47,91).
att(47,90).
att(47,89).
att(47,86).
att(47,85).
att(47,84).
att(47,83).
att(47,82).
att(47,81).
att(47,80).
att(47,79).
att(47,78).
att(47,77).
att(47,76).
att(47,75).
att(47,74).
att(47,73).
att(47,72).
att(47,70).
att(47,69).
att(47,68).
att(47,66).
att(47,65).
att(47,64).
att(47,63).
att(47,62).
att(47,61).
att(47,59).
att(47,58).
att(47,56).
att(47,55).
att(47,54).
att(47,53).
att(47,52).
att(47,51).
att(47,50).
att(47,49).
att(47,48).
att(47,47).
att(47,46).
att(47,45).
att(47,44).
att(47,42).
att(47,41).
att(47,39).
att(47,38).
att(47,37).
att(47,36).
att(47,35).
att(47,34).
att(47,33).
att(47,32).
att(47,31).
att(47,30).
att(47,29).
att(47,28).
att(47,27).
att(47,26).
att(47,25).
att(47,24).
att(47,23).
att(47,21).
att(47,20).
att(47,19).
att(47,18).
att(47,17).
att(47,16).
att(47,15).
att(47,14).
att(47,13).
att(47,11).
att(47,9).
att(47,8).
att(47,7).
att(47,6).
att(47,5).
att(47,4).
att(47,3).
att(47,2).
att(46,118).
att(46,117).
att(46,116).
att(46,115).
att(46,114).
att(46,113).
att(46,112).
att(46,111).
att(46,109).
att(46,108).
att(46,107).
att(46,102).
att(46,101).
att(46,99).
att(46,97).
att(46,96).
att(46,95).
att(46,94).
att(46,92).
att(46,91).
att(46,90).
att(46,89).
att(46,86).
att(46,85).
att(46,84).
att(46,83).
att(46,82).
att(46,81).
att(46,80).
att(46,77).
att(46,76).
att(46,75).
att(46,74).
att(46,73).
att(46,71).
att(46,70).
att(46,69).
att(46,66).
att(46,65).
att(46,64).
att(46,63).
att(46,62).
att(46,61).
att(46,59).
att(46,57).
att(46,54).
att(46,52).
att(46,51).
att(46,49).
att(46,48).
att(46,47).
att(46,46).
att(46,45).
att(46,42).
att(46,39).
att(46,38).
att(46,37).
att(46,36).
att(46,35).
att(46,34).
att(46,33).
att(46,30).
att(46,29).
att(46,24).
att(46,23).
att(46,20).
att(46,19).
att(46,17).
att(46,15).
att(46,14).
att(46,13).
att(46,11).
att(46,9).
att(46,7).
att(46,6).
att(46,4).
att(46,3).
att(45,118).
att(45,117).
att(45,116).
att(45,115).
att(45,114).
att(45,112).
att(45,108).
att(45,107).
att(45,106).
att(45,105).
att(45,102).
att(45,101).
att(45,99).
att(45,98).
att(45,97).
att(45,96).
att(45,94).
att(45,93).
att(45,91).
att(45,90).
att(45,85).
att(45,84).
att(45,83).
att(45,81).
att(45,77).
att(45,76).
att(45,75).
att(45,74).
att(45,73).
att(45,70).
att(45,66).
att(45,64).
att(45,60).
att(45,59).
att(45,58).
att(45,53).
att(45,52).
att(45,51).
att(45,49).
att(45,48).
att(45,47).
att(45,45).
att(45,44).
att(45,42).
att(45,41).
att(45,39).
att(45,38).
att(45,37).
att(45,35).
att(45,34).
att(45,32).
att(45,30).
att(45,29).
att(45,26).
att(45,24).
att(45,23).
att(45,22).
att(45,21).
att(45,20).
att(45,19).
att(45,18).
att(45,16).
att(45,15).
att(45,14).
att(45,13).
att(45,11).
att(45,9).
att(45,4).
att(45,3).
att(45,2).
att(44,94).
att(44,92).
att(44,91).
att(44,86).
att(44,80).
att(44,66).
att(44,64).
att(44,61).
att(44,59).
att(44,49).
att(44,42).
att(44,36).
att(44,35).
att(44,27).
att(44,24).
att(44,14).
att(44,11).
att(42,120).
att(42,119).
att(42,118).
att(42,117).
att(42,116).
att(42,115).
att(42,114).
att(42,113).
att(42,112).
att(42,111).
att(42,108).
att(42,107).
att(42,105).
att(42,104).
att(42,103).
att(42,102).
att(42,100).
att(42,99).
att(42,97).
att(42,96).
att(42,95).
att(42,94).
att(42,92).
att(42,91).
att(42,90).
att(42,89).
att(42,86).
att(42,85).
att(42,84).
att(42,83).
att(42,82).
att(42,81).
att(42,80).
att(42,79).
att(42,78).
att(42,77).
att(42,76).
att(42,75).
att(42,74).
att(42,73).
att(42,71).
att(42,70).
att(42,69).
att(42,68).
att(42,66).
att(42,65).
att(42,64).
att(42,63).
att(42,62).
att(42,61).
att(42,60).
att(42,59).
att(42,55).
att(42,54).
att(42,53).
att(42,52).
att(42,51).
att(42,50).
att(42,49).
att(42,48).
att(42,47).
att(42,46).
att(42,45).
att(42,44).
att(42,42).
att(42,39).
att(42,38).
att(42,37).
att(42,36).
att(42,35).
att(42,34).
att(42,33).
att(42,32).
att(42,31).
att(42,30).
att(42,29).
att(42,27).
att(42,26).
att(42,25).
att(42,24).
att(42,23).
att(42,22).
att(42,20).
att(42,19).
att(42,18).
att(42,17).
att(42,15).
att(42,14).
att(42,13).
att(42,12).
att(42,11).
att(42,9).
att(42,8).
att(42,7).
att(42,6).
att(42,5).
att(42,4).
att(42,3).
att(42,2).
att(40,120).
att(40,119).
att(40,118).
att(40,117).
att(40,116).
att(40,115).
att(40,114).
att(40,113).
att(40,112).
att(40,111).
att(40,110).
att(40,108).
att(40,104).
att(40,103).
att(40,102).
att(40,100).
att(40,99).
att(40,97).
att(40,96).
att(40,95).
att(40,94).
att(40,92).
att(40,91).
att(40,90).
att(40,89).
att(40,86).
att(40,85).
att(40,84).
att(40,83).
att(40,82).
att(40,81).
att(40,80).
att(40,78).
att(40,77).
att(40,76).
att(40,75).
att(40,74).
att(40,73).
att(40,66).
att(40,65).
att(40,63).
att(40,62).
att(40,61).
att(40,60).
att(40,59).
att(40,54).
att(40,53).
att(40,52).
att(40,49).
att(40,48).
att(40,47).
att(40,45).
att(40,44).
att(40,42).
att(40,39).
att(40,38).
att(40,37).
att(40,35).
att(40,34).
att(40,33).
att(40,32).
att(40,30).
att(40,29).
att(40,23).
att(40,22).
att(40,20).
att(40,19).
att(40,15).
att(40,14).
att(40,11).
att(40,9).
att(40,8).
att(40,6).
att(40,4).
att(40,3).
att(40,2).
att(40,1).
att(39,119).
att(39,118).
att(39,117).
att(39,116).
att(39,115).
att(39,114).
att(39,113).
att(39,112).
att(39,111).
att(39,109).
att(39,108).
att(39,107).
att(39,106).
att(39,105).
att(39,102).
att(39,101).
att(39,99).
att(39,98).
att(39,97).
att(39,96).
att(39,95).
att(39,94).
att(39,92).
att(39,91).
att(39,90).
att(39,89).
att(39,86).
att(39,85).
att(39,84).
att(39,83).
att(39,82).
att(39,81).
att(39,80).
att(39,79).
att(39,77).
att(39,76).
att(39,75).
att(39,74).
att(39,73).
att(39,71).
att(39,70).
att(39,69).
att(39,66).
att(39,65).
att(39,64).
att(39,63).
att(39,62).
att(39,61).
att(39,59).
att(39,54).
att(39,52).
att(39,51).
att(39,49).
att(39,48).
att(39,47).
att(39,46).
att(39,45).
att(39,44).
att(39,42).
att(39,41).
att(39,39).
att(39,38).
att(39,37).
att(39,36).
att(39,35).
att(39,34).
att(39,33).
att(39,32).
att(39,30).
att(39,29).
att(39,27).
att(39,24).
att(39,23).
att(39,21).
att(39,20).
att(39,19).
att(39,15).
att(39,14).
att(39,13).
att(39,11).
att(39,9).
att(39,6).
att(39,5).
att(39,4).
att(39,3).
att(38,120).
att(38,119).
att(38,118).
att(38,117).
att(38,116).
att(38,115).
att(38,114).
att(38,113).
att(38,112).
att(38,111).
att(38,110).
att(38,109).
att(38,108).
att(38,107).
att(38,105).
att(38,103).
att(38,102).
att(38,101).
att(38,99).
att(38,97).
att(38,96).
att(38,95).
att(38,94).
att(38,92).
att(38,91).
att(38,90).
att(38,89).
att(38,88).
att(38,86).
att(38,85).
att(38,84).
att(38,83).
att(38,82).
att(38,81).
att(38,80).
att(38,79).
att(38,78).
att(38,77).
att(38,76).
att(38,75).
att(38,74).
att(38,73).
att(38,71).
att(38,70).
att(38,69).
att(38,66).
att(38,65).
att(38,64).
att(38,63).
att(38,62).
att(38,61).
att(38,59).
att(38,57).
att(38,54).
att(38,53).
att(38,52).
att(38,51).
att(38,49).
att(38,48).
att(38,47).
att(38,46).
att(38,45).
att(38,42).
att(38,39).
att(38,38).
att(38,37).
att(38,36).
att(38,35).
att(38,34).
att(38,33).
att(38,32).
att(38,31).
att(38,30).
att(38,29).
att(38,24).
att(38,23).
att(38,21).
att(38,20).
att(38,19).
att(38,17).
att(38,15).
att(38,14).
att(38,13).
att(38,11).
att(38,9).
att(38,8).
att(38,7).
att(38,6).
att(38,5).
att(38,4).
att(38,3).
att(38,2).
att(37,120).
att(37,119).
att(37,118).
att(37,117).
att(37,116).
att(37,115).
att(37,114).
att(37,113).
att(37,112).
att(37,111).
att(37,109).
att(37,108).
att(37,107).
att(37,106).
att(37,105).
att(37,103).
att(37,102).
att(37,101).
att(37,100).
att(37,99).
att(37,98).
att(37,97).
att(37,96).
att(37,95).
att(37,94).
att(37,92).
att(37,91).
att(37,90).
att(37,89).
att(37,88).
att(37,86).
att(37,85).
att(37,84).
att(37,83).
att(37,82).
att(37,81).
att(37,80).
att(37,79).
att(37,78).
att(37,77).
att(37,76).
att(37,75).
att(37,74).
att(37,73).
att(37,72).
att(37,71).
att(37,70).
att(37,69).
att(37,66).
att(37,65).
att(37,64).
att(37,63).
att(37,62).
att(37,61).
att(37,59).
att(37,56).
att(37,55).
att(37,54).
att(37,53).
att(37,52).
att(37,51).
att(37,49).
att(37,48).
att(37,47).
att(37,46).
att(37,45).
att(37,44).
att(37,42).
att(37,39).
att(37,38).
att(37,37).
att(37,36).
att(37,35).
att(37,34).
att(37,33).
att(37,32).
att(37,31).
att(37,30).
att(37,29).
att(37,24).
att(37,23).
att(37,21).
att(37,20).
att(37,19).
att(37,15).
att(37,14).
att(37,13).
att(37,11).
att(37,9).
att(37,8).
att(37,7).
att(37,6).
att(37,5).
att(37,4).
att(37,3).
att(37,2).
att(36,120).
att(36,119).
att(36,118).
att(36,117).
att(36,116).
att(36,115).
att(36,114).
att(36,113).
att(36,112).
att(36,111).
att(36,108).
att(36,107).
att(36,105).
att(36,104).
att(36,103).
att(36,102).
att(36,100).
att(36,99).
att(36,97).
att(36,96).
att(36,95).
att(36,94).
att(36,93).
att(36,92).
att(36,91).
att(36,90).
att(36,89).
att(36,88).
att(36,86).
att(36,85).
att(36,84).
att(36,83).
att(36,82).
att(36,81).
att(36,80).
att(36,79).
att(36,78).
att(36,77).
att(36,76).
att(36,75).
att(36,74).
att(36,73).
att(36,71).
att(36,70).
att(36,69).
att(36,68).
att(36,66).
att(36,65).
att(36,64).
att(36,63).
att(36,62).
att(36,61).
att(36,59).
att(36,58).
att(36,55).
att(36,54).
att(36,53).
att(36,52).
att(36,50).
att(36,49).
att(36,48).
att(36,47).
att(36,46).
att(36,45).
att(36,39).
att(36,38).
att(36,37).
att(36,35).
att(36,34).
att(36,33).
att(36,32).
att(36,31).
att(36,30).
att(36,29).
att(36,26).
att(36,25).
att(36,23).
att(36,21).
att(36,20).
att(36,19).
att(36,18).
att(36,17).
att(36,16).
att(36,15).
att(36,14).
att(36,13).
att(36,12).
att(36,11).
att(36,9).
att(36,8).
att(36,7).
att(36,6).
att(36,4).
att(36,3).
att(36,2).
att(35,120).
att(35,119).
att(35,118).
att(35,117).
att(35,116).
att(35,115).
att(35,114).
att(35,113).
att(35,112).
att(35,111).
att(35,109).
att(35,108).
att(35,107).
att(35,106).
att(35,105).
att(35,104).
att(35,103).
att(35,102).
att(35,101).
att(35,100).
att(35,99).
att(35,98).
att(35,97).
att(35,96).
att(35,95).
att(35,94).
att(35,93).
att(35,92).
att(35,91).
att(35,90).
att(35,89).
att(35,86).
att(35,85).
att(35,84).
att(35,83).
att(35,82).
att(35,81).
att(35,80).
att(35,79).
att(35,78).
att(35,77).
att(35,76).
att(35,75).
att(35,74).
att(35,73).
att(35,72).
att(35,70).
att(35,69).
att(35,68).
att(35,66).
att(35,65).
att(35,64).
att(35,63).
att(35,62).
att(35,61).
att(35,59).
att(35,58).
att(35,56).
att(35,55).
att(35,54).
att(35,53).
att(35,52).
att(35,51).
att(35,50).
att(35,49).
att(35,48).
att(35,47).
att(35,46).
att(35,45).
att(35,44).
att(35,42).
att(35,41).
att(35,39).
att(35,38).
att(35,37).
att(35,36).
att(35,35).
att(35,34).
att(35,33).
att(35,32).
att(35,31).
att(35,30).
att(35,29).
att(35,28).
att(35,27).
att(35,26).
att(35,25).
att(35,24).
att(35,23).
att(35,21).
att(35,20).
att(35,19).
att(35,18).
att(35,17).
att(35,16).
att(35,15).
att(35,14).
att(35,13).
att(35,12).
att(35,11).
att(35,9).
att(35,8).
att(35,7).
att(35,6).
att(35,5).
att(35,4).
att(35,3).
att(34,120).
att(34,119).
att(34,118).
att(34,117).
att(34,116).
att(34,115).
att(34,114).
att(34,113).
att(34,112).
att(34,111).
att(34,108).
att(34,107).
att(34,106).
att(34,105).
att(34,103).
att(34,102).
att(34,101).
att(34,99).
att(34,98).
att(34,97).
att(34,96).
att(34,95).
att(34,94).
att(34,92).
att(34,91).
att(34,90).
att(34,89).
att(34,88).
att(34,86).
att(34,85).
att(34,84).
att(34,83).
att(34,82).
att(34,81).
att(34,80).
att(34,79).
att(34,78).
att(34,77).
att(34,76).
att(34,75).
att(34,74).
att(34,73).
att(34,71).
att(34,70).
att(34,66).
att(34,65).
att(34,63).
att(34,62).
att(34,61).
att(34,59).
att(34,56).
att(34,54).
att(34,52).
att(34,51).
att(34,49).
att(34,48).
att(34,47).
att(34,46).
att(34,44).
att(34,42).
att(34,39).
att(34,38).
att(34,37).
att(34,36).
att(34,35).
att(34,34).
att(34,33).
att(34,32).
att(34,31).
att(34,30).
att(34,29).
att(34,24).
att(34,23).
att(34,21).
att(34,20).
att(34,19).
att(34,15).
att(34,14).
att(34,11).
att(34,9).
att(34,8).
att(34,7).
att(34,6).
att(34,5).
att(34,4).
att(34,3).
att(34,2).
att(33,120).
att(33,119).
att(33,118).
att(33,117).
att(33,116).
att(33,115).
att(33,114).
att(33,113).
att(33,112).
att(33,111).
att(33,109).
att(33,108).
att(33,107).
att(33,106).
att(33,105).
att(33,104).
att(33,103).
att(33,102).
att(33,101).
att(33,100).
att(33,99).
att(33,98).
att(33,97).
att(33,96).
att(33,95).
att(33,94).
att(33,93).
att(33,91).
att(33,90).
att(33,89).
att(33,86).
att(33,85).
att(33,84).
att(33,83).
att(33,82).
att(33,81).
att(33,80).
att(33,79).
att(33,78).
att(33,77).
att(33,76).
att(33,75).
att(33,74).
att(33,73).
att(33,72).
att(33,70).
att(33,69).
att(33,68).
att(33,66).
att(33,64).
att(33,63).
att(33,62).
att(33,61).
att(33,59).
att(33,58).
att(33,56).
att(33,55).
att(33,54).
att(33,53).
att(33,52).
att(33,51).
att(33,50).
att(33,49).
att(33,48).
att(33,47).
att(33,46).
att(33,45).
att(33,44).
att(33,42).
att(33,41).
att(33,39).
att(33,38).
att(33,37).
att(33,36).
att(33,35).
att(33,34).
att(33,33).
att(33,32).
att(33,31).
att(33,30).
att(33,29).
att(33,26).
att(33,25).
att(33,24).
att(33,23).
att(33,21).
att(33,20).
att(33,19).
att(33,18).
att(33,17).
att(33,16).
att(33,15).
att(33,14).
att(33,13).
att(33,11).
att(33,9).
att(33,8).
att(33,7).
att(33,6).
att(33,5).
att(33,4).
att(33,3).
att(32,120).
att(32,119).
att(32,118).
att(32,117).
att(32,116).
att(32,115).
att(32,114).
att(32,113).
att(32,112).
att(32,111).
att(32,108).
att(32,107).
att(32,106).
att(32,105).
att(32,103).
att(32,102).
att(32,101).
att(32,99).
att(32,98).
att(32,97).
att(32,96).
att(32,95).
att(32,94).
att(32,92).
att(32,91).
att(32,90).
att(32,89).
att(32,88).
att(32,86).
att(32,85).
att(32,84).
att(32,83).
att(32,82).
att(32,81).
att(32,80).
att(32,79).
att(32,78).
att(32,77).
att(32,76).
att(32,75).
att(32,74).
att(32,73).
att(32,71).
att(32,70).
att(32,66).
att(32,65).
att(32,63).
att(32,62).
att(32,61).
att(32,59).
att(32,56).
att(32,54).
att(32,52).
att(32,51).
att(32,49).
att(32,48).
att(32,47).
att(32,46).
att(32,44).
att(32,42).
att(32,39).
att(32,38).
att(32,37).
att(32,36).
att(32,35).
att(32,34).
att(32,33).
att(32,32).
att(32,31).
att(32,30).
att(32,29).
att(32,24).
att(32,23).
att(32,21).
att(32,20).
att(32,19).
att(32,15).
att(32,14).
att(32,11).
att(32,9).
att(32,8).
att(32,7).
att(32,6).
att(32,5).
att(32,4).
att(32,3).
att(32,2).
att(31,118).
att(31,117).
att(31,116).
att(31,115).
att(31,114).
att(31,113).
att(31,112).
att(31,111).
att(31,110).
att(31,108).
att(31,107).
att(31,106).
att(31,105).
att(31,103).
att(31,102).
att(31,101).
att(31,99).
att(31,98).
att(31,97).
att(31,96).
att(31,95).
att(31,94).
att(31,92).
att(31,91).
att(31,90).
att(31,89).
att(31,86).
att(31,85).
att(31,84).
att(31,83).
att(31,82).
att(31,81).
att(31,80).
att(31,78).
att(31,76).
att(31,75).
att(31,74).
att(31,73).
att(31,70).
att(31,66).
att(31,65).
att(31,63).
att(31,61).
att(31,59).
att(31,53).
att(31,52).
att(31,51).
att(31,49).
att(31,48).
att(31,47).
att(31,44).
att(31,42).
att(31,39).
att(31,38).
att(31,37).
att(31,35).
att(31,34).
att(31,33).
att(31,32).
att(31,30).
att(31,29).
att(31,24).
att(31,21).
att(31,19).
att(31,15).
att(31,14).
att(31,11).
att(31,9).
att(31,4).
att(31,3).
att(31,2).
att(30,120).
att(30,119).
att(30,118).
att(30,117).
att(30,116).
att(30,115).
att(30,114).
att(30,113).
att(30,112).
att(30,111).
att(30,110).
att(30,109).
att(30,108).
att(30,107).
att(30,106).
att(30,105).
att(30,104).
att(30,103).
att(30,102).
att(30,101).
att(30,100).
att(30,99).
att(30,98).
att(30,97).
att(30,96).
att(30,95).
att(30,94).
att(30,92).
att(30,91).
att(30,90).
att(30,89).
att(30,86).
att(30,85).
att(30,84).
att(30,83).
att(30,82).
att(30,81).
att(30,80).
att(30,79).
att(30,78).
att(30,77).
att(30,76).
att(30,75).
att(30,74).
att(30,73).
att(30,72).
att(30,70).
att(30,69).
att(30,68).
att(30,66).
att(30,65).
att(30,64).
att(30,63).
att(30,62).
att(30,61).
att(30,59).
att(30,56).
att(30,55).
att(30,54).
att(30,53).
att(30,52).
att(30,51).
att(30,50).
att(30,49).
att(30,48).
att(30,47).
att(30,46).
att(30,45).
att(30,44).
att(30,42).
att(30,41).
att(30,39).
att(30,38).
att(30,37).
att(30,36).
att(30,35).
att(30,34).
att(30,33).
att(30,32).
att(30,31).
att(30,30).
att(30,29).
att(30,25).
att(30,24).
att(30,23).
att(30,21).
att(30,20).
att(30,19).
att(30,18).
att(30,17).
att(30,15).
att(30,14).
att(30,13).
att(30,11).
att(30,9).
att(30,8).
att(30,7).
att(30,6).
att(30,5).
att(30,4).
att(30,3).
att(30,2).
att(29,120).
att(29,119).
att(29,118).
att(29,117).
att(29,116).
att(29,115).
att(29,114).
att(29,113).
att(29,112).
att(29,111).
att(29,110).
att(29,109).
att(29,108).
att(29,107).
att(29,105).
att(29,103).
att(29,102).
att(29,101).
att(29,100).
att(29,99).
att(29,98).
att(29,97).
att(29,96).
att(29,95).
att(29,94).
att(29,92).
att(29,91).
att(29,90).
att(29,89).
att(29,86).
att(29,85).
att(29,84).
att(29,83).
att(29,82).
att(29,81).
att(29,80).
att(29,79).
att(29,78).
att(29,77).
att(29,76).
att(29,75).
att(29,74).
att(29,73).
att(29,72).
att(29,69).
att(29,66).
att(29,65).
att(29,64).
att(29,63).
att(29,62).
att(29,61).
att(29,59).
att(29,56).
att(29,55).
att(29,53).
att(29,52).
att(29,51).
att(29,48).
att(29,47).
att(29,46).
att(29,45).
att(29,42).
att(29,39).
att(29,38).
att(29,37).
att(29,36).
att(29,35).
att(29,34).
att(29,33).
att(29,32).
att(29,30).
att(29,29).
att(29,24).
att(29,23).
att(29,20).
att(29,19).
att(29,15).
att(29,14).
att(29,13).
att(29,11).
att(29,9).
att(29,8).
att(29,7).
att(29,6).
att(29,5).
att(29,4).
att(29,3).
att(29,2).
att(28,97).
att(28,94).
att(28,93).
att(28,91).
att(28,83).
att(28,74).
att(28,66).
att(28,64).
att(28,59).
att(28,58).
att(28,53).
att(28,35).
att(28,34).
att(28,26).
att(28,23).
att(28,18).
att(28,16).
att(28,14).
att(28,13).
att(28,11).
att(27,119).
att(27,118).
att(27,117).
att(27,116).
att(27,115).
att(27,112).
att(27,111).
att(27,108).
att(27,102).
att(27,99).
att(27,97).
att(27,96).
att(27,94).
att(27,92).
att(27,91).
att(27,89).
att(27,86).
att(27,85).
att(27,84).
att(27,83).
att(27,82).
att(27,81).
att(27,80).
att(27,77).
att(27,76).
att(27,75).
att(27,74).
att(27,73).
att(27,66).
att(27,65).
att(27,63).
att(27,59).
att(27,53).
att(27,52).
att(27,48).
att(27,47).
att(27,37).
att(27,35).
att(27,34).
att(27,33).
att(27,32).
att(27,30).
att(27,29).
att(27,26).
att(27,19).
att(27,15).
att(27,14).
att(27,13).
att(27,12).
att(27,11).
att(27,9).
att(27,7).
att(27,3).
att(26,120).
att(26,119).
att(26,118).
att(26,114).
att(26,108).
att(26,102).
att(26,101).
att(26,96).
att(26,95).
att(26,91).
att(26,85).
att(26,84).
att(26,83).
att(26,82).
att(26,77).
att(26,74).
att(26,63).
att(26,56).
att(26,52).
att(26,51).
att(26,42).
att(26,39).
att(26,37).
att(26,34).
att(26,20).
att(26,8).
att(26,7).
att(26,6).
att(26,4).
att(25,118).
att(25,116).
att(25,114).
att(25,112).
att(25,107).
att(25,106).
att(25,105).
att(25,102).
att(25,101).
att(25,99).
att(25,98).
att(25,94).
att(25,90).
att(25,84).
att(25,76).
att(25,75).
att(25,74).
att(25,73).
att(25,70).
att(25,52).
att(25,51).
att(25,49).
att(25,48).
att(25,47).
att(25,45).
att(25,44).
att(25,42).
att(25,41).
att(25,38).
att(25,37).
att(25,32).
att(25,30).
att(25,29).
att(25,24).
att(25,21).
att(25,19).
att(25,14).
att(25,13).
att(25,9).
att(25,4).
att(25,3).
att(24,120).
att(24,119).
att(24,118).
att(24,117).
att(24,116).
att(24,115).
att(24,114).
att(24,113).
att(24,112).
att(24,111).
att(24,108).
att(24,107).
att(24,105).
att(24,104).
att(24,103).
att(24,102).
att(24,100).
att(24,99).
att(24,97).
att(24,96).
att(24,95).
att(24,94).
att(24,93).
att(24,92).
att(24,91).
att(24,90).
att(24,89).
att(24,88).
att(24,86).
att(24,85).
att(24,84).
att(24,83).
att(24,82).
att(24,81).
att(24,80).
att(24,79).
att(24,78).
att(24,77).
att(24,76).
att(24,75).
att(24,74).
att(24,73).
att(24,71).
att(24,70).
att(24,69).
att(24,68).
att(24,66).
att(24,65).
att(24,64).
att(24,63).
att(24,62).
att(24,61).
att(24,59).
att(24,58).
att(24,55).
att(24,54).
att(24,53).
att(24,52).
att(24,50).
att(24,49).
att(24,48).
att(24,47).
att(24,46).
att(24,45).
att(24,39).
att(24,38).
att(24,37).
att(24,35).
att(24,34).
att(24,33).
att(24,32).
att(24,31).
att(24,30).
att(24,29).
att(24,26).
att(24,25).
att(24,23).
att(24,21).
att(24,20).
att(24,19).
att(24,18).
att(24,17).
att(24,16).
att(24,15).
att(24,14).
att(24,13).
att(24,12).
att(24,11).
att(24,9).
att(24,8).
att(24,7).
att(24,6).
att(24,4).
att(24,3).
att(24,2).
att(23,120).
att(23,118).
att(23,117).
att(23,116).
att(23,115).
att(23,114).
att(23,113).
att(23,112).
att(23,111).
att(23,108).
att(23,107).
att(23,105).
att(23,104).
att(23,103).
att(23,102).
att(23,100).
att(23,99).
att(23,97).
att(23,96).
att(23,95).
att(23,94).
att(23,92).
att(23,91).
att(23,90).
att(23,89).
att(23,88).
att(23,86).
att(23,85).
att(23,84).
att(23,83).
att(23,82).
att(23,81).
att(23,80).
att(23,79).
att(23,78).
att(23,77).
att(23,76).
att(23,75).
att(23,74).
att(23,73).
att(23,71).
att(23,70).
att(23,69).
att(23,68).
att(23,66).
att(23,65).
att(23,64).
att(23,63).
att(23,62).
att(23,61).
att(23,60).
att(23,59).
att(23,55).
att(23,54).
att(23,53).
att(23,52).
att(23,50).
att(23,49).
att(23,48).
att(23,47).
att(23,46).
att(23,45).
att(23,44).
att(23,42).
att(23,39).
att(23,38).
att(23,37).
att(23,36).
att(23,35).
att(23,34).
att(23,33).
att(23,32).
att(23,31).
att(23,30).
att(23,29).
att(23,27).
att(23,25).
att(23,24).
att(23,23).
att(23,22).
att(23,21).
att(23,20).
att(23,19).
att(23,18).
att(23,17).
att(23,15).
att(23,14).
att(23,13).
att(23,11).
att(23,9).
att(23,8).
att(23,6).
att(23,4).
att(23,3).
att(23,2).
att(22,94).
att(22,92).
att(22,91).
att(22,86).
att(22,80).
att(22,66).
att(22,64).
att(22,61).
att(22,59).
att(22,49).
att(22,42).
att(22,36).
att(22,35).
att(22,27).
att(22,24).
att(22,14).
att(22,11).
att(20,118).
att(20,117).
att(20,116).
att(20,115).
att(20,114).
att(20,113).
att(20,112).
att(20,111).
att(20,109).
att(20,108).
att(20,107).
att(20,102).
att(20,101).
att(20,99).
att(20,97).
att(20,96).
att(20,95).
att(20,94).
att(20,92).
att(20,91).
att(20,90).
att(20,89).
att(20,86).
att(20,85).
att(20,84).
att(20,83).
att(20,82).
att(20,81).
att(20,80).
att(20,77).
att(20,76).
att(20,75).
att(20,74).
att(20,73).
att(20,71).
att(20,70).
att(20,69).
att(20,66).
att(20,65).
att(20,64).
att(20,63).
att(20,62).
att(20,61).
att(20,59).
att(20,54).
att(20,52).
att(20,51).
att(20,49).
att(20,48).
att(20,47).
att(20,46).
att(20,45).
att(20,42).
att(20,39).
att(20,38).
att(20,37).
att(20,36).
att(20,35).
att(20,34).
att(20,33).
att(20,30).
att(20,29).
att(20,27).
att(20,24).
att(20,23).
att(20,20).
att(20,19).
att(20,15).
att(20,14).
att(20,13).
att(20,11).
att(20,9).
att(20,6).
att(20,4).
att(20,3).
att(19,120).
att(19,119).
att(19,118).
att(19,116).
att(19,114).
att(19,112).
att(19,111).
att(19,109).
att(19,108).
att(19,107).
att(19,106).
att(19,105).
att(19,103).
att(19,102).
att(19,101).
att(19,100).
att(19,99).
att(19,98).
att(19,97).
att(19,96).
att(19,95).
att(19,94).
att(19,93).
att(19,91).
att(19,90).
att(19,89).
att(19,86).
att(19,85).
att(19,84).
att(19,83).
att(19,82).
att(19,80).
att(19,79).
att(19,77).
att(19,76).
att(19,75).
att(19,74).
att(19,73).
att(19,72).
att(19,70).
att(19,69).
att(19,66).
att(19,64).
att(19,63).
att(19,62).
att(19,61).
att(19,59).
att(19,58).
att(19,56).
att(19,55).
att(19,53).
att(19,52).
att(19,51).
att(19,49).
att(19,48).
att(19,47).
att(19,46).
att(19,45).
att(19,44).
att(19,42).
att(19,41).
att(19,39).
att(19,38).
att(19,37).
att(19,36).
att(19,35).
att(19,34).
att(19,33).
att(19,32).
att(19,30).
att(19,29).
att(19,26).
att(19,24).
att(19,23).
att(19,21).
att(19,20).
att(19,19).
att(19,18).
att(19,16).
att(19,15).
att(19,14).
att(19,13).
att(19,11).
att(19,9).
att(19,8).
att(19,7).
att(19,6).
att(19,5).
att(19,4).
att(19,3).
att(18,118).
att(18,116).
att(18,114).
att(18,112).
att(18,107).
att(18,106).
att(18,105).
att(18,102).
att(18,101).
att(18,99).
att(18,98).
att(18,97).
att(18,94).
att(18,93).
att(18,91).
att(18,90).
att(18,84).
att(18,83).
att(18,76).
att(18,75).
att(18,74).
att(18,73).
att(18,70).
att(18,66).
att(18,64).
att(18,59).
att(18,58).
att(18,53).
att(18,52).
att(18,51).
att(18,49).
att(18,48).
att(18,47).
att(18,45).
att(18,44).
att(18,42).
att(18,41).
att(18,38).
att(18,37).
att(18,35).
att(18,34).
att(18,32).
att(18,30).
att(18,29).
att(18,26).
att(18,24).
att(18,23).
att(18,21).
att(18,19).
att(18,18).
att(18,16).
att(18,14).
att(18,13).
att(18,11).
att(18,9).
att(18,4).
att(18,3).
att(17,120).
att(17,118).
att(17,117).
att(17,116).
att(17,115).
att(17,114).
att(17,113).
att(17,112).
att(17,111).
att(17,108).
att(17,107).
att(17,106).
att(17,105).
att(17,104).
att(17,103).
att(17,102).
att(17,101).
att(17,100).
att(17,99).
att(17,98).
att(17,97).
att(17,96).
att(17,95).
att(17,94).
att(17,93).
att(17,92).
att(17,91).
att(17,90).
att(17,89).
att(17,86).
att(17,85).
att(17,84).
att(17,83).
att(17,82).
att(17,81).
att(17,80).
att(17,79).
att(17,78).
att(17,77).
att(17,76).
att(17,75).
att(17,74).
att(17,73).
att(17,70).
att(17,69).
att(17,68).
att(17,66).
att(17,64).
att(17,61).
att(17,59).
att(17,58).
att(17,55).
att(17,54).
att(17,53).
att(17,52).
att(17,51).
att(17,50).
att(17,49).
att(17,48).
att(17,47).
att(17,45).
att(17,44).
att(17,39).
att(17,37).
att(17,36).
att(17,35).
att(17,34).
att(17,33).
att(17,32).
att(17,31).
att(17,30).
att(17,29).
att(17,28).
att(17,26).
att(17,25).
att(17,24).
att(17,23).
att(17,21).
att(17,19).
att(17,18).
att(17,17).
att(17,16).
att(17,15).
att(17,14).
att(17,13).
att(17,11).
att(17,9).
att(17,8).
att(17,6).
att(17,4).
att(17,3).
att(15,120).
att(15,119).
att(15,118).
att(15,117).
att(15,116).
att(15,115).
att(15,114).
att(15,113).
att(15,112).
att(15,111).
att(15,109).
att(15,108).
att(15,107).
att(15,106).
att(15,105).
att(15,104).
att(15,103).
att(15,102).
att(15,101).
att(15,100).
att(15,99).
att(15,98).
att(15,97).
att(15,96).
att(15,95).
att(15,94).
att(15,93).
att(15,92).
att(15,91).
att(15,90).
att(15,89).
att(15,88).
att(15,86).
att(15,85).
att(15,84).
att(15,83).
att(15,82).
att(15,81).
att(15,80).
att(15,79).
att(15,78).
att(15,77).
att(15,76).
att(15,75).
att(15,74).
att(15,73).
att(15,72).
att(15,70).
att(15,69).
att(15,68).
att(15,66).
att(15,64).
att(15,63).
att(15,62).
att(15,61).
att(15,59).
att(15,58).
att(15,56).
att(15,55).
att(15,54).
att(15,53).
att(15,52).
att(15,51).
att(15,50).
att(15,49).
att(15,48).
att(15,47).
att(15,46).
att(15,45).
att(15,44).
att(15,42).
att(15,41).
att(15,39).
att(15,38).
att(15,37).
att(15,36).
att(15,35).
att(15,34).
att(15,33).
att(15,32).
att(15,31).
att(15,30).
att(15,29).
att(15,28).
att(15,27).
att(15,26).
att(15,25).
att(15,24).
att(15,23).
att(15,21).
att(15,20).
att(15,19).
att(15,18).
att(15,17).
att(15,16).
att(15,15).
att(15,14).
att(15,13).
att(15,11).
att(15,9).
att(15,8).
att(15,7).
att(15,6).
att(15,5).
att(15,4).
att(15,3).
att(15,2).
att(14,120).
att(14,119).
att(14,118).
att(14,117).
att(14,116).
att(14,115).
att(14,114).
att(14,113).
att(14,112).
att(14,111).
att(14,109).
att(14,108).
att(14,107).
att(14,106).
att(14,105).
att(14,104).
att(14,103).
att(14,102).
att(14,101).
att(14,100).
att(14,99).
att(14,98).
att(14,97).
att(14,96).
att(14,95).
att(14,94).
att(14,93).
att(14,92).
att(14,91).
att(14,90).
att(14,89).
att(14,86).
att(14,85).
att(14,84).
att(14,83).
att(14,82).
att(14,81).
att(14,80).
att(14,79).
att(14,78).
att(14,77).
att(14,76).
att(14,75).
att(14,74).
att(14,73).
att(14,72).
att(14,70).
att(14,69).
att(14,68).
att(14,66).
att(14,65).
att(14,64).
att(14,63).
att(14,62).
att(14,61).
att(14,59).
att(14,58).
att(14,56).
att(14,55).
att(14,54).
att(14,53).
att(14,52).
att(14,51).
att(14,50).
att(14,49).
att(14,48).
att(14,47).
att(14,46).
att(14,45).
att(14,44).
att(14,42).
att(14,41).
att(14,39).
att(14,38).
att(14,37).
att(14,36).
att(14,35).
att(14,34).
att(14,33).
att(14,32).
att(14,31).
att(14,30).
att(14,29).
att(14,28).
att(14,27).
att(14,26).
att(14,25).
att(14,24).
att(14,23).
att(14,21).
att(14,20).
att(14,19).
att(14,18).
att(14,17).
att(14,16).
att(14,15).
att(14,14).
att(14,13).
att(14,12).
att(14,11).
att(14,9).
att(14,8).
att(14,7).
att(14,6).
att(14,5).
att(14,4).
att(14,3).
att(13,120).
att(13,119).
att(13,118).
att(13,117).
att(13,116).
att(13,115).
att(13,114).
att(13,113).
att(13,112).
att(13,108).
att(13,107).
att(13,106).
att(13,105).
att(13,103).
att(13,102).
att(13,101).
att(13,99).
att(13,98).
att(13,96).
att(13,95).
att(13,94).
att(13,91).
att(13,90).
att(13,85).
att(13,84).
att(13,83).
att(13,82).
att(13,81).
att(13,80).
att(13,78).
att(13,77).
att(13,76).
att(13,75).
att(13,74).
att(13,73).
att(13,70).
att(13,69).
att(13,66).
att(13,64).
att(13,63).
att(13,61).
att(13,60).
att(13,59).
att(13,58).
att(13,56).
att(13,52).
att(13,51).
att(13,49).
att(13,48).
att(13,47).
att(13,45).
att(13,44).
att(13,42).
att(13,41).
att(13,39).
att(13,38).
att(13,37).
att(13,35).
att(13,34).
att(13,32).
att(13,31).
att(13,30).
att(13,29).
att(13,25).
att(13,24).
att(13,23).
att(13,22).
att(13,21).
att(13,20).
att(13,19).
att(13,18).
att(13,15).
att(13,14).
att(13,13).
att(13,11).
att(13,10).
att(13,9).
att(13,8).
att(13,7).
att(13,6).
att(13,4).
att(13,3).
att(13,2).
att(12,120).
att(12,119).
att(12,118).
att(12,114).
att(12,108).
att(12,102).
att(12,101).
att(12,96).
att(12,95).
att(12,91).
att(12,85).
att(12,84).
att(12,83).
att(12,82).
att(12,77).
att(12,74).
att(12,63).
att(12,56).
att(12,52).
att(12,51).
att(12,42).
att(12,39).
att(12,37).
att(12,34).
att(12,20).
att(12,8).
att(12,7).
att(12,6).
att(12,4).
att(11,120).
att(11,119).
att(11,118).
att(11,117).
att(11,116).
att(11,115).
att(11,114).
att(11,113).
att(11,112).
att(11,111).
att(11,109).
att(11,108).
att(11,107).
att(11,105).
att(11,104).
att(11,103).
att(11,102).
att(11,101).
att(11,100).
att(11,99).
att(11,98).
att(11,97).
att(11,96).
att(11,95).
att(11,94).
att(11,93).
att(11,92).
att(11,91).
att(11,90).
att(11,89).
att(11,86).
att(11,85).
att(11,84).
att(11,83).
att(11,82).
att(11,81).
att(11,80).
att(11,79).
att(11,78).
att(11,77).
att(11,76).
att(11,75).
att(11,74).
att(11,73).
att(11,72).
att(11,70).
att(11,69).
att(11,68).
att(11,66).
att(11,65).
att(11,64).
att(11,63).
att(11,62).
att(11,61).
att(11,59).
att(11,58).
att(11,56).
att(11,55).
att(11,54).
att(11,53).
att(11,52).
att(11,51).
att(11,50).
att(11,49).
att(11,48).
att(11,47).
att(11,46).
att(11,45).
att(11,42).
att(11,39).
att(11,38).
att(11,37).
att(11,36).
att(11,35).
att(11,34).
att(11,33).
att(11,32).
att(11,31).
att(11,30).
att(11,29).
att(11,28).
att(11,27).
att(11,26).
att(11,25).
att(11,24).
att(11,23).
att(11,20).
att(11,19).
att(11,18).
att(11,17).
att(11,16).
att(11,15).
att(11,14).
att(11,13).
att(11,12).
att(11,11).
att(11,9).
att(11,8).
att(11,7).
att(11,6).
att(11,5).
att(11,4).
att(11,3).
att(9,120).
att(9,119).
att(9,118).
att(9,117).
att(9,116).
att(9,115).
att(9,114).
att(9,113).
att(9,112).
att(9,111).
att(9,110).
att(9,109).
att(9,108).
att(9,107).
att(9,106).
att(9,105).
att(9,103).
att(9,102).
att(9,101).
att(9,100).
att(9,99).
att(9,98).
att(9,97).
att(9,96).
att(9,95).
att(9,94).
att(9,92).
att(9,91).
att(9,90).
att(9,89).
att(9,88).
att(9,86).
att(9,85).
att(9,84).
att(9,83).
att(9,82).
att(9,81).
att(9,80).
att(9,79).
att(9,78).
att(9,77).
att(9,76).
att(9,75).
att(9,74).
att(9,73).
att(9,72).
att(9,70).
att(9,69).
att(9,66).
att(9,65).
att(9,64).
att(9,63).
att(9,62).
att(9,61).
att(9,59).
att(9,56).
att(9,55).
att(9,53).
att(9,52).
att(9,51).
att(9,49).
att(9,48).
att(9,47).
att(9,46).
att(9,45).
att(9,44).
att(9,42).
att(9,41).
att(9,39).
att(9,38).
att(9,37).
att(9,36).
att(9,35).
att(9,34).
att(9,33).
att(9,32).
att(9,31).
att(9,30).
att(9,29).
att(9,24).
att(9,23).
att(9,21).
att(9,20).
att(9,19).
att(9,15).
att(9,14).
att(9,13).
att(9,11).
att(9,9).
att(9,8).
att(9,7).
att(9,6).
att(9,5).
att(9,4).
att(9,3).
att(9,2).
att(8,120).
att(8,119).
att(8,118).
att(8,117).
att(8,116).
att(8,115).
att(8,114).
att(8,113).
att(8,112).
att(8,111).
att(8,108).
att(8,107).
att(8,106).
att(8,105).
att(8,104).
att(8,103).
att(8,102).
att(8,101).
att(8,100).
att(8,99).
att(8,98).
att(8,97).
att(8,96).
att(8,95).
att(8,94).
att(8,93).
att(8,92).
att(8,91).
att(8,90).
att(8,89).
att(8,86).
att(8,85).
att(8,84).
att(8,83).
att(8,82).
att(8,81).
att(8,80).
att(8,76).
att(8,75).
att(8,74).
att(8,73).
att(8,71).
att(8,70).
att(8,66).
att(8,65).
att(8,64).
att(8,63).
att(8,62).
att(8,61).
att(8,59).
att(8,58).
att(8,54).
att(8,53).
att(8,52).
att(8,51).
att(8,49).
att(8,48).
att(8,47).
att(8,46).
att(8,45).
att(8,44).
att(8,42).
att(8,41).
att(8,39).
att(8,38).
att(8,37).
att(8,35).
att(8,34).
att(8,33).
att(8,32).
att(8,30).
att(8,29).
att(8,26).
att(8,24).
att(8,23).
att(8,21).
att(8,20).
att(8,19).
att(8,18).
att(8,16).
att(8,15).
att(8,14).
att(8,13).
att(8,11).
att(8,9).
att(8,8).
att(8,6).
att(8,4).
att(8,3).
att(8,1).
att(7,120).
att(7,119).
att(7,118).
att(7,117).
att(7,116).
att(7,115).
att(7,114).
att(7,113).
att(7,112).
att(7,111).
att(7,108).
att(7,107).
att(7,105).
att(7,104).
att(7,103).
att(7,102).
att(7,101).
att(7,100).
att(7,99).
att(7,97).
att(7,96).
att(7,95).
att(7,94).
att(7,92).
att(7,91).
att(7,90).
att(7,89).
att(7,86).
att(7,85).
att(7,84).
att(7,83).
att(7,82).
att(7,81).
att(7,80).
att(7,79).
att(7,78).
att(7,77).
att(7,76).
att(7,75).
att(7,74).
att(7,73).
att(7,71).
att(7,70).
att(7,69).
att(7,68).
att(7,66).
att(7,65).
att(7,63).
att(7,62).
att(7,61).
att(7,59).
att(7,56).
att(7,55).
att(7,54).
att(7,53).
att(7,52).
att(7,51).
att(7,50).
att(7,49).
att(7,48).
att(7,47).
att(7,46).
att(7,45).
att(7,42).
att(7,39).
att(7,38).
att(7,37).
att(7,35).
att(7,34).
att(7,33).
att(7,32).
att(7,31).
att(7,30).
att(7,29).
att(7,25).
att(7,20).
att(7,19).
att(7,18).
att(7,17).
att(7,15).
att(7,14).
att(7,13).
att(7,11).
att(7,9).
att(7,8).
att(7,7).
att(7,6).
att(7,4).
att(7,3).
att(6,118).
att(6,117).
att(6,116).
att(6,115).
att(6,114).
att(6,113).
att(6,112).
att(6,111).
att(6,108).
att(6,107).
att(6,106).
att(6,105).
att(6,102).
att(6,101).
att(6,99).
att(6,98).
att(6,97).
att(6,96).
att(6,94).
att(6,93).
att(6,92).
att(6,91).
att(6,89).
att(6,86).
att(6,85).
att(6,84).
att(6,83).
att(6,82).
att(6,81).
att(6,80).
att(6,76).
att(6,75).
att(6,74).
att(6,73).
att(6,71).
att(6,70).
att(6,66).
att(6,65).
att(6,64).
att(6,63).
att(6,62).
att(6,61).
att(6,59).
att(6,58).
att(6,54).
att(6,53).
att(6,52).
att(6,51).
att(6,49).
att(6,48).
att(6,47).
att(6,46).
att(6,44).
att(6,39).
att(6,38).
att(6,37).
att(6,35).
att(6,34).
att(6,33).
att(6,30).
att(6,29).
att(6,26).
att(6,24).
att(6,23).
att(6,21).
att(6,20).
att(6,19).
att(6,18).
att(6,16).
att(6,15).
att(6,14).
att(6,13).
att(6,11).
att(6,9).
att(6,4).
att(6,3).
att(5,118).
att(5,117).
att(5,116).
att(5,115).
att(5,113).
att(5,112).
att(5,111).
att(5,108).
att(5,102).
att(5,99).
att(5,97).
att(5,96).
att(5,94).
att(5,92).
att(5,91).
att(5,89).
att(5,86).
att(5,85).
att(5,84).
att(5,83).
att(5,82).
att(5,81).
att(5,80).
att(5,76).
att(5,75).
att(5,73).
att(5,71).
att(5,70).
att(5,66).
att(5,65).
att(5,63).
att(5,62).
att(5,61).
att(5,59).
att(5,54).
att(5,52).
att(5,49).
att(5,48).
att(5,47).
att(5,46).
att(5,39).
att(5,38).
att(5,37).
att(5,35).
att(5,33).
att(5,30).
att(5,29).
att(5,20).
att(5,19).
att(5,15).
att(5,14).
att(5,11).
att(5,9).
att(5,3).
att(4,120).
att(4,119).
att(4,118).
att(4,117).
att(4,116).
att(4,115).
att(4,114).
att(4,113).
att(4,112).
att(4,111).
att(4,108).
att(4,107).
att(4,106).
att(4,105).
att(4,103).
att(4,102).
att(4,101).
att(4,99).
att(4,98).
att(4,97).
att(4,96).
att(4,95).
att(4,94).
att(4,93).
att(4,92).
att(4,91).
att(4,90).
att(4,89).
att(4,88).
att(4,86).
att(4,85).
att(4,84).
att(4,83).
att(4,82).
att(4,81).
att(4,80).
att(4,79).
att(4,78).
att(4,76).
att(4,75).
att(4,74).
att(4,73).
att(4,71).
att(4,70).
att(4,66).
att(4,65).
att(4,64).
att(4,63).
att(4,62).
att(4,61).
att(4,59).
att(4,58).
att(4,54).
att(4,53).
att(4,52).
att(4,51).
att(4,49).
att(4,48).
att(4,47).
att(4,46).
att(4,44).
att(4,39).
att(4,38).
att(4,37).
att(4,36).
att(4,35).
att(4,34).
att(4,33).
att(4,32).
att(4,31).
att(4,30).
att(4,29).
att(4,26).
att(4,24).
att(4,23).
att(4,21).
att(4,20).
att(4,19).
att(4,18).
att(4,16).
att(4,15).
att(4,14).
att(4,13).
att(4,11).
att(4,9).
att(4,8).
att(4,5).
att(4,4).
att(4,3).
att(4,2).
att(3,120).
att(3,119).
att(3,118).
att(3,117).
att(3,116).
att(3,115).
att(3,114).
att(3,113).
att(3,112).
att(3,111).
att(3,110).
att(3,109).
att(3,108).
att(3,107).
att(3,106).
att(3,105).
att(3,103).
att(3,102).
att(3,101).
att(3,100).
att(3,99).
att(3,98).
att(3,97).
att(3,96).
att(3,95).
att(3,94).
att(3,93).
att(3,92).
att(3,91).
att(3,90).
att(3,89).
att(3,88).
att(3,86).
att(3,85).
att(3,84).
att(3,83).
att(3,82).
att(3,81).
att(3,80).
att(3,79).
att(3,78).
att(3,77).
att(3,76).
att(3,75).
att(3,74).
att(3,73).
att(3,72).
att(3,70).
att(3,69).
att(3,66).
att(3,65).
att(3,64).
att(3,63).
att(3,62).
att(3,61).
att(3,59).
att(3,58).
att(3,56).
att(3,55).
att(3,53).
att(3,52).
att(3,51).
att(3,49).
att(3,48).
att(3,47).
att(3,46).
att(3,45).
att(3,44).
att(3,42).
att(3,41).
att(3,39).
att(3,38).
att(3,37).
att(3,36).
att(3,35).
att(3,34).
att(3,33).
att(3,32).
att(3,31).
att(3,30).
att(3,29).
att(3,26).
att(3,24).
att(3,23).
att(3,21).
att(3,20).
att(3,19).
att(3,18).
att(3,16).
att(3,15).
att(3,14).
att(3,13).
att(3,11).
att(3,9).
att(3,8).
att(3,7).
att(3,6).
att(3,5).
att(3,4).
att(3,3).
att(3,2).
att(2,119).
att(2,118).
att(2,117).
att(2,116).
att(2,115).
att(2,114).
att(2,113).
att(2,112).
att(2,111).
att(2,108).
att(2,105).
att(2,102).
att(2,99).
att(2,97).
att(2,96).
att(2,94).
att(2,92).
att(2,91).
att(2,89).
att(2,86).
att(2,85).
att(2,84).
att(2,83).
att(2,82).
att(2,81).
att(2,80).
att(2,79).
att(2,76).
att(2,75).
att(2,74).
att(2,73).
att(2,71).
att(2,70).
att(2,66).
att(2,65).
att(2,64).
att(2,63).
att(2,62).
att(2,61).
att(2,59).
att(2,54).
att(2,52).
att(2,51).
att(2,49).
att(2,48).
att(2,47).
att(2,46).
att(2,42).
att(2,39).
att(2,38).
att(2,37).
att(2,36).
att(2,35).
att(2,33).
att(2,32).
att(2,30).
att(2,29).
att(2,27).
att(2,24).
att(2,23).
att(2,20).
att(2,19).
att(2,15).
att(2,14).
att(2,11).
att(2,9).
att(2,5).
att(2,4).
att(2,3).
