arg(1..182).
att(182,182).
att(182,181).
att(182,180).
att(182,179).
att(182,178).
att(182,177).
att(182,176).
att(182,175).
att(182,174).
att(182,173).
att(182,170).
att(182,169).
att(182,168).
att(182,166).
att(182,165).
att(182,164).
att(182,163).
att(182,160).
att(182,159).
att(182,158).
att(182,157).
att(182,155).
att(182,154).
att(182,153).
att(182,152).
att(182,151).
att(182,150).
att(182,149).
att(182,148).
att(182,147).
att(182,146).
att(182,145).
att(182,144).
att(182,143).
att(182,139).
att(182,138).
att(182,137).
att(182,136).
att(182,134).
att(182,133).
att(182,132).
att(182,131).
att(182,130).
att(182,129).
att(182,127).
att(182,125).
att(182,124).
att(182,123).
att(182,122).
att(182,121).
att(182,120).
att(182,118).
att(182,117).
att(182,116).
att(182,115).
att(182,114).
att(182,113).
att(182,112).
att(182,111).
att(182,110).
att(182,109).
att(182,108).
att(182,107).
att(182,106).
att(182,105).
att(182,104).
att(182,103).
att(182,102).
att(182,101).
att(182,100).
att(182,99).
att(182,98).
att(182,97).
att(182,96).
att(182,95).
att(182,93).
att(182,92).
att(182,91).
att(182,90).
att(182,89).
att(182,87).
att(182,86).
att(182,85).
att(182,84).
att(182,82).
att(182,81).
att(182,80).
att(182,79).
att(182,78).
att(182,77).
att(182,76).
att(182,75).
att(182,73).
att(182,72).
att(182,71).
att(182,70).
att(182,69).
att(182,68).
att(182,66).
att(182,65).
att(182,64).
att(182,63).
att(182,62).
att(182,60).
att(182,59).
att(182,58).
att(182,56).
att(182,55).
att(182,54).
att(182,53).
att(182,52).
att(182,51).
att(182,50).
att(182,49).
att(182,48).
att(182,46).
att(182,44).
att(182,43).
att(182,42).
att(182,41).
att(182,40).
att(182,39).
att(182,38).
att(182,36).
att(182,35).
att(182,33).
att(182,32).
att(182,31).
att(182,30).
att(182,29).
att(182,28).
att(182,27).
att(182,26).
att(182,25).
att(182,23).
att(182,22).
att(182,21).
att(182,20).
att(182,19).
att(182,18).
att(182,15).
att(182,13).
att(182,12).
att(182,11).
att(182,10).
att(182,9).
att(182,8).
att(182,4).
att(182,3).
att(182,2).
att(182,1).
att(181,182).
att(181,181).
att(181,180).
att(181,179).
att(181,178).
att(181,177).
att(181,176).
att(181,175).
att(181,174).
att(181,173).
att(181,170).
att(181,169).
att(181,168).
att(181,166).
att(181,165).
att(181,164).
att(181,163).
att(181,161).
att(181,160).
att(181,159).
att(181,158).
att(181,157).
att(181,155).
att(181,154).
att(181,153).
att(181,152).
att(181,151).
att(181,150).
att(181,149).
att(181,148).
att(181,147).
att(181,146).
att(181,145).
att(181,144).
att(181,143).
att(181,139).
att(181,138).
att(181,137).
att(181,136).
att(181,134).
att(181,133).
att(181,132).
att(181,131).
att(181,130).
att(181,129).
att(181,127).
att(181,124).
att(181,123).
att(181,122).
att(181,121).
att(181,120).
att(181,118).
att(181,117).
att(181,116).
att(181,115).
att(181,113).
att(181,112).
att(181,111).
att(181,110).
att(181,108).
att(181,107).
att(181,106).
att(181,105).
att(181,104).
att(181,103).
att(181,102).
att(181,101).
att(181,100).
att(181,99).
att(181,98).
att(181,97).
att(181,96).
att(181,95).
att(181,93).
att(181,92).
att(181,91).
att(181,89).
att(181,87).
att(181,86).
att(181,85).
att(181,84).
att(181,82).
att(181,81).
att(181,80).
att(181,79).
att(181,78).
att(181,77).
att(181,76).
att(181,75).
att(181,73).
att(181,72).
att(181,71).
att(181,70).
att(181,69).
att(181,68).
att(181,65).
att(181,64).
att(181,63).
att(181,62).
att(181,60).
att(181,59).
att(181,58).
att(181,56).
att(181,55).
att(181,54).
att(181,53).
att(181,52).
att(181,51).
att(181,50).
att(181,49).
att(181,48).
att(181,46).
att(181,44).
att(181,43).
att(181,42).
att(181,41).
att(181,40).
att(181,39).
att(181,38).
att(181,37).
att(181,35).
att(181,33).
att(181,31).
att(181,30).
att(181,29).
att(181,28).
att(181,27).
att(181,26).
att(181,25).
att(181,23).
att(181,22).
att(181,20).
att(181,19).
att(181,15).
att(181,13).
att(181,12).
att(181,11).
att(181,10).
att(181,8).
att(181,4).
att(181,3).
att(181,2).
att(180,182).
att(180,181).
att(180,180).
att(180,179).
att(180,178).
att(180,177).
att(180,176).
att(180,175).
att(180,174).
att(180,173).
att(180,170).
att(180,169).
att(180,168).
att(180,166).
att(180,165).
att(180,164).
att(180,163).
att(180,160).
att(180,159).
att(180,158).
att(180,157).
att(180,155).
att(180,154).
att(180,153).
att(180,152).
att(180,151).
att(180,150).
att(180,149).
att(180,148).
att(180,147).
att(180,146).
att(180,145).
att(180,144).
att(180,143).
att(180,139).
att(180,138).
att(180,137).
att(180,136).
att(180,134).
att(180,133).
att(180,132).
att(180,131).
att(180,130).
att(180,129).
att(180,127).
att(180,124).
att(180,123).
att(180,122).
att(180,121).
att(180,120).
att(180,118).
att(180,117).
att(180,116).
att(180,115).
att(180,113).
att(180,112).
att(180,111).
att(180,110).
att(180,108).
att(180,107).
att(180,106).
att(180,105).
att(180,104).
att(180,103).
att(180,102).
att(180,101).
att(180,100).
att(180,99).
att(180,98).
att(180,97).
att(180,96).
att(180,95).
att(180,93).
att(180,92).
att(180,91).
att(180,89).
att(180,87).
att(180,86).
att(180,84).
att(180,82).
att(180,81).
att(180,80).
att(180,79).
att(180,78).
att(180,77).
att(180,76).
att(180,75).
att(180,73).
att(180,72).
att(180,71).
att(180,70).
att(180,69).
att(180,68).
att(180,65).
att(180,64).
att(180,63).
att(180,62).
att(180,60).
att(180,59).
att(180,58).
att(180,56).
att(180,55).
att(180,54).
att(180,53).
att(180,52).
att(180,51).
att(180,50).
att(180,49).
att(180,48).
att(180,46).
att(180,44).
att(180,43).
att(180,42).
att(180,41).
att(180,40).
att(180,39).
att(180,38).
att(180,35).
att(180,33).
att(180,31).
att(180,30).
att(180,29).
att(180,28).
att(180,27).
att(180,26).
att(180,25).
att(180,23).
att(180,22).
att(180,20).
att(180,19).
att(180,15).
att(180,13).
att(180,12).
att(180,11).
att(180,10).
att(180,8).
att(180,4).
att(180,3).
att(180,2).
att(179,182).
att(179,181).
att(179,180).
att(179,179).
att(179,178).
att(179,177).
att(179,176).
att(179,175).
att(179,174).
att(179,173).
att(179,171).
att(179,170).
att(179,169).
att(179,168).
att(179,166).
att(179,165).
att(179,164).
att(179,163).
att(179,162).
att(179,161).
att(179,160).
att(179,159).
att(179,158).
att(179,157).
att(179,155).
att(179,154).
att(179,153).
att(179,152).
att(179,151).
att(179,150).
att(179,149).
att(179,148).
att(179,147).
att(179,146).
att(179,145).
att(179,144).
att(179,143).
att(179,142).
att(179,141).
att(179,139).
att(179,138).
att(179,137).
att(179,136).
att(179,135).
att(179,134).
att(179,133).
att(179,132).
att(179,131).
att(179,130).
att(179,129).
att(179,128).
att(179,127).
att(179,124).
att(179,123).
att(179,122).
att(179,121).
att(179,120).
att(179,118).
att(179,117).
att(179,116).
att(179,115).
att(179,114).
att(179,113).
att(179,112).
att(179,111).
att(179,110).
att(179,108).
att(179,107).
att(179,106).
att(179,105).
att(179,104).
att(179,103).
att(179,102).
att(179,101).
att(179,100).
att(179,99).
att(179,98).
att(179,97).
att(179,96).
att(179,95).
att(179,93).
att(179,92).
att(179,91).
att(179,89).
att(179,87).
att(179,86).
att(179,85).
att(179,84).
att(179,83).
att(179,82).
att(179,81).
att(179,80).
att(179,79).
att(179,78).
att(179,77).
att(179,76).
att(179,75).
att(179,73).
att(179,72).
att(179,71).
att(179,70).
att(179,69).
att(179,68).
att(179,65).
att(179,64).
att(179,63).
att(179,62).
att(179,61).
att(179,60).
att(179,59).
att(179,58).
att(179,56).
att(179,55).
att(179,54).
att(179,53).
att(179,52).
att(179,51).
att(179,50).
att(179,49).
att(179,48).
att(179,46).
att(179,44).
att(179,43).
att(179,42).
att(179,41).
att(179,40).
att(179,39).
att(179,38).
att(179,37).
att(179,35).
att(179,33).
att(179,31).
att(179,30).
att(179,29).
att(179,28).
att(179,27).
att(179,26).
att(179,25).
att(179,23).
att(179,22).
att(179,20).
att(179,19).
att(179,18).
att(179,15).
att(179,14).
att(179,13).
att(179,12).
att(179,11).
att(179,10).
att(179,8).
att(179,4).
att(179,3).
att(179,2).
att(178,179).
att(178,177).
att(178,176).
att(178,174).
att(178,173).
att(178,170).
att(178,168).
att(178,166).
att(178,164).
att(178,163).
att(178,157).
att(178,155).
att(178,153).
att(178,151).
att(178,150).
att(178,149).
att(178,148).
att(178,147).
att(178,145).
att(178,144).
att(178,138).
att(178,137).
att(178,136).
att(178,132).
att(178,130).
att(178,129).
att(178,126).
att(178,123).
att(178,122).
att(178,120).
att(178,118).
att(178,117).
att(178,116).
att(178,114).
att(178,113).
att(178,112).
att(178,111).
att(178,110).
att(178,109).
att(178,107).
att(178,106).
att(178,105).
att(178,102).
att(178,101).
att(178,100).
att(178,98).
att(178,96).
att(178,95).
att(178,93).
att(178,92).
att(178,91).
att(178,90).
att(178,89).
att(178,87).
att(178,86).
att(178,81).
att(178,79).
att(178,78).
att(178,77).
att(178,73).
att(178,66).
att(178,65).
att(178,59).
att(178,58).
att(178,56).
att(178,55).
att(178,53).
att(178,52).
att(178,50).
att(178,48).
att(178,46).
att(178,42).
att(178,39).
att(178,38).
att(178,36).
att(178,35).
att(178,32).
att(178,31).
att(178,29).
att(178,28).
att(178,27).
att(178,26).
att(178,23).
att(178,22).
att(178,21).
att(178,20).
att(178,19).
att(178,18).
att(178,15).
att(178,13).
att(178,12).
att(178,11).
att(178,10).
att(178,9).
att(178,4).
att(178,3).
att(178,2).
att(177,182).
att(177,181).
att(177,180).
att(177,179).
att(177,178).
att(177,177).
att(177,176).
att(177,175).
att(177,174).
att(177,173).
att(177,172).
att(177,170).
att(177,169).
att(177,168).
att(177,167).
att(177,166).
att(177,165).
att(177,164).
att(177,163).
att(177,161).
att(177,160).
att(177,159).
att(177,158).
att(177,157).
att(177,155).
att(177,154).
att(177,153).
att(177,152).
att(177,151).
att(177,150).
att(177,149).
att(177,148).
att(177,147).
att(177,146).
att(177,145).
att(177,144).
att(177,143).
att(177,142).
att(177,141).
att(177,139).
att(177,138).
att(177,137).
att(177,136).
att(177,135).
att(177,134).
att(177,133).
att(177,132).
att(177,131).
att(177,130).
att(177,129).
att(177,128).
att(177,127).
att(177,124).
att(177,123).
att(177,122).
att(177,121).
att(177,120).
att(177,119).
att(177,118).
att(177,117).
att(177,116).
att(177,115).
att(177,114).
att(177,113).
att(177,112).
att(177,111).
att(177,110).
att(177,108).
att(177,107).
att(177,106).
att(177,105).
att(177,104).
att(177,103).
att(177,102).
att(177,101).
att(177,100).
att(177,99).
att(177,98).
att(177,97).
att(177,96).
att(177,95).
att(177,94).
att(177,93).
att(177,92).
att(177,91).
att(177,89).
att(177,88).
att(177,87).
att(177,86).
att(177,85).
att(177,84).
att(177,83).
att(177,82).
att(177,81).
att(177,80).
att(177,79).
att(177,78).
att(177,77).
att(177,76).
att(177,75).
att(177,73).
att(177,72).
att(177,71).
att(177,70).
att(177,69).
att(177,68).
att(177,66).
att(177,65).
att(177,64).
att(177,63).
att(177,62).
att(177,60).
att(177,59).
att(177,58).
att(177,57).
att(177,56).
att(177,55).
att(177,54).
att(177,53).
att(177,52).
att(177,51).
att(177,50).
att(177,49).
att(177,48).
att(177,47).
att(177,46).
att(177,44).
att(177,43).
att(177,42).
att(177,41).
att(177,40).
att(177,39).
att(177,38).
att(177,37).
att(177,35).
att(177,33).
att(177,32).
att(177,31).
att(177,30).
att(177,29).
att(177,28).
att(177,27).
att(177,26).
att(177,25).
att(177,23).
att(177,22).
att(177,20).
att(177,19).
att(177,18).
att(177,15).
att(177,14).
att(177,13).
att(177,12).
att(177,11).
att(177,10).
att(177,8).
att(177,6).
att(177,4).
att(177,3).
att(177,2).
att(176,182).
att(176,181).
att(176,180).
att(176,179).
att(176,178).
att(176,177).
att(176,176).
att(176,175).
att(176,174).
att(176,173).
att(176,172).
att(176,171).
att(176,170).
att(176,169).
att(176,168).
att(176,167).
att(176,166).
att(176,165).
att(176,164).
att(176,163).
att(176,162).
att(176,161).
att(176,160).
att(176,159).
att(176,158).
att(176,157).
att(176,155).
att(176,154).
att(176,153).
att(176,152).
att(176,151).
att(176,150).
att(176,149).
att(176,148).
att(176,147).
att(176,146).
att(176,145).
att(176,144).
att(176,143).
att(176,141).
att(176,139).
att(176,138).
att(176,137).
att(176,136).
att(176,134).
att(176,133).
att(176,132).
att(176,131).
att(176,130).
att(176,129).
att(176,128).
att(176,127).
att(176,126).
att(176,124).
att(176,123).
att(176,122).
att(176,121).
att(176,120).
att(176,118).
att(176,117).
att(176,116).
att(176,115).
att(176,114).
att(176,113).
att(176,112).
att(176,111).
att(176,110).
att(176,109).
att(176,108).
att(176,107).
att(176,106).
att(176,105).
att(176,104).
att(176,103).
att(176,102).
att(176,101).
att(176,100).
att(176,99).
att(176,98).
att(176,97).
att(176,96).
att(176,95).
att(176,93).
att(176,92).
att(176,91).
att(176,90).
att(176,89).
att(176,87).
att(176,86).
att(176,85).
att(176,84).
att(176,82).
att(176,81).
att(176,80).
att(176,79).
att(176,78).
att(176,77).
att(176,76).
att(176,75).
att(176,73).
att(176,72).
att(176,71).
att(176,70).
att(176,69).
att(176,68).
att(176,66).
att(176,65).
att(176,64).
att(176,63).
att(176,62).
att(176,61).
att(176,60).
att(176,59).
att(176,58).
att(176,56).
att(176,55).
att(176,54).
att(176,53).
att(176,52).
att(176,51).
att(176,50).
att(176,49).
att(176,48).
att(176,46).
att(176,44).
att(176,43).
att(176,42).
att(176,41).
att(176,40).
att(176,39).
att(176,38).
att(176,36).
att(176,35).
att(176,33).
att(176,32).
att(176,31).
att(176,30).
att(176,29).
att(176,28).
att(176,27).
att(176,26).
att(176,25).
att(176,23).
att(176,22).
att(176,21).
att(176,20).
att(176,19).
att(176,18).
att(176,15).
att(176,13).
att(176,12).
att(176,11).
att(176,10).
att(176,9).
att(176,8).
att(176,6).
att(176,4).
att(176,3).
att(176,2).
att(175,182).
att(175,181).
att(175,180).
att(175,179).
att(175,178).
att(175,177).
att(175,176).
att(175,175).
att(175,174).
att(175,173).
att(175,171).
att(175,170).
att(175,169).
att(175,168).
att(175,166).
att(175,165).
att(175,164).
att(175,163).
att(175,162).
att(175,161).
att(175,160).
att(175,159).
att(175,158).
att(175,157).
att(175,155).
att(175,154).
att(175,153).
att(175,152).
att(175,151).
att(175,150).
att(175,149).
att(175,148).
att(175,147).
att(175,146).
att(175,145).
att(175,144).
att(175,143).
att(175,139).
att(175,138).
att(175,137).
att(175,136).
att(175,134).
att(175,133).
att(175,132).
att(175,131).
att(175,130).
att(175,129).
att(175,128).
att(175,127).
att(175,124).
att(175,123).
att(175,122).
att(175,121).
att(175,120).
att(175,118).
att(175,117).
att(175,116).
att(175,115).
att(175,113).
att(175,112).
att(175,111).
att(175,110).
att(175,108).
att(175,107).
att(175,106).
att(175,105).
att(175,104).
att(175,103).
att(175,102).
att(175,101).
att(175,100).
att(175,99).
att(175,98).
att(175,97).
att(175,96).
att(175,95).
att(175,93).
att(175,92).
att(175,91).
att(175,89).
att(175,87).
att(175,86).
att(175,85).
att(175,84).
att(175,82).
att(175,81).
att(175,80).
att(175,79).
att(175,78).
att(175,77).
att(175,76).
att(175,75).
att(175,73).
att(175,72).
att(175,71).
att(175,70).
att(175,69).
att(175,68).
att(175,65).
att(175,64).
att(175,63).
att(175,62).
att(175,61).
att(175,60).
att(175,59).
att(175,58).
att(175,56).
att(175,55).
att(175,54).
att(175,53).
att(175,52).
att(175,51).
att(175,50).
att(175,49).
att(175,48).
att(175,46).
att(175,44).
att(175,43).
att(175,42).
att(175,41).
att(175,40).
att(175,39).
att(175,38).
att(175,37).
att(175,35).
att(175,33).
att(175,31).
att(175,30).
att(175,29).
att(175,28).
att(175,27).
att(175,26).
att(175,25).
att(175,23).
att(175,22).
att(175,20).
att(175,19).
att(175,18).
att(175,15).
att(175,13).
att(175,12).
att(175,11).
att(175,10).
att(175,8).
att(175,4).
att(175,3).
att(175,2).
att(174,182).
att(174,181).
att(174,180).
att(174,179).
att(174,178).
att(174,177).
att(174,176).
att(174,175).
att(174,174).
att(174,173).
att(174,172).
att(174,171).
att(174,170).
att(174,169).
att(174,168).
att(174,167).
att(174,166).
att(174,165).
att(174,164).
att(174,163).
att(174,162).
att(174,161).
att(174,160).
att(174,159).
att(174,158).
att(174,157).
att(174,155).
att(174,154).
att(174,153).
att(174,152).
att(174,151).
att(174,150).
att(174,149).
att(174,148).
att(174,147).
att(174,146).
att(174,145).
att(174,144).
att(174,143).
att(174,141).
att(174,139).
att(174,138).
att(174,137).
att(174,136).
att(174,134).
att(174,133).
att(174,132).
att(174,131).
att(174,130).
att(174,129).
att(174,128).
att(174,127).
att(174,126).
att(174,124).
att(174,123).
att(174,122).
att(174,121).
att(174,120).
att(174,118).
att(174,117).
att(174,116).
att(174,115).
att(174,113).
att(174,112).
att(174,111).
att(174,110).
att(174,108).
att(174,107).
att(174,106).
att(174,105).
att(174,104).
att(174,103).
att(174,102).
att(174,101).
att(174,100).
att(174,99).
att(174,98).
att(174,97).
att(174,96).
att(174,95).
att(174,93).
att(174,92).
att(174,91).
att(174,89).
att(174,87).
att(174,86).
att(174,85).
att(174,84).
att(174,82).
att(174,81).
att(174,80).
att(174,79).
att(174,78).
att(174,77).
att(174,76).
att(174,75).
att(174,73).
att(174,72).
att(174,71).
att(174,70).
att(174,69).
att(174,68).
att(174,65).
att(174,64).
att(174,63).
att(174,62).
att(174,61).
att(174,60).
att(174,59).
att(174,58).
att(174,56).
att(174,55).
att(174,54).
att(174,53).
att(174,52).
att(174,51).
att(174,50).
att(174,49).
att(174,48).
att(174,46).
att(174,44).
att(174,43).
att(174,42).
att(174,41).
att(174,40).
att(174,39).
att(174,38).
att(174,37).
att(174,35).
att(174,33).
att(174,32).
att(174,31).
att(174,30).
att(174,29).
att(174,28).
att(174,27).
att(174,26).
att(174,25).
att(174,23).
att(174,22).
att(174,20).
att(174,19).
att(174,18).
att(174,15).
att(174,13).
att(174,12).
att(174,11).
att(174,10).
att(174,8).
att(174,6).
att(174,4).
att(174,3).
att(174,2).
att(173,182).
att(173,181).
att(173,180).
att(173,179).
att(173,178).
att(173,177).
att(173,176).
att(173,175).
att(173,174).
att(173,173).
att(173,172).
att(173,171).
att(173,170).
att(173,169).
att(173,168).
att(173,167).
att(173,166).
att(173,165).
att(173,164).
att(173,163).
att(173,161).
att(173,160).
att(173,159).
att(173,158).
att(173,157).
att(173,155).
att(173,154).
att(173,153).
att(173,152).
att(173,151).
att(173,150).
att(173,149).
att(173,148).
att(173,147).
att(173,146).
att(173,145).
att(173,144).
att(173,143).
att(173,141).
att(173,139).
att(173,138).
att(173,137).
att(173,136).
att(173,134).
att(173,133).
att(173,132).
att(173,131).
att(173,130).
att(173,129).
att(173,128).
att(173,127).
att(173,126).
att(173,124).
att(173,123).
att(173,122).
att(173,121).
att(173,120).
att(173,118).
att(173,117).
att(173,116).
att(173,115).
att(173,114).
att(173,113).
att(173,112).
att(173,111).
att(173,110).
att(173,109).
att(173,108).
att(173,107).
att(173,106).
att(173,105).
att(173,104).
att(173,103).
att(173,102).
att(173,101).
att(173,100).
att(173,99).
att(173,98).
att(173,97).
att(173,96).
att(173,95).
att(173,94).
att(173,93).
att(173,92).
att(173,91).
att(173,90).
att(173,89).
att(173,88).
att(173,87).
att(173,86).
att(173,85).
att(173,84).
att(173,82).
att(173,81).
att(173,80).
att(173,79).
att(173,78).
att(173,77).
att(173,76).
att(173,75).
att(173,73).
att(173,72).
att(173,71).
att(173,70).
att(173,69).
att(173,68).
att(173,66).
att(173,65).
att(173,64).
att(173,63).
att(173,62).
att(173,61).
att(173,60).
att(173,59).
att(173,58).
att(173,57).
att(173,56).
att(173,55).
att(173,54).
att(173,53).
att(173,52).
att(173,51).
att(173,50).
att(173,49).
att(173,48).
att(173,46).
att(173,45).
att(173,44).
att(173,43).
att(173,42).
att(173,41).
att(173,40).
att(173,39).
att(173,38).
att(173,36).
att(173,35).
att(173,33).
att(173,32).
att(173,31).
att(173,30).
att(173,29).
att(173,28).
att(173,27).
att(173,26).
att(173,25).
att(173,24).
att(173,23).
att(173,22).
att(173,21).
att(173,20).
att(173,19).
att(173,18).
att(173,15).
att(173,13).
att(173,12).
att(173,11).
att(173,10).
att(173,9).
att(173,8).
att(173,6).
att(173,4).
att(173,3).
att(173,2).
att(172,182).
att(172,180).
att(172,179).
att(172,178).
att(172,176).
att(172,175).
att(172,174).
att(172,173).
att(172,170).
att(172,169).
att(172,168).
att(172,165).
att(172,164).
att(172,163).
att(172,160).
att(172,158).
att(172,157).
att(172,155).
att(172,153).
att(172,152).
att(172,151).
att(172,150).
att(172,149).
att(172,148).
att(172,143).
att(172,138).
att(172,136).
att(172,132).
att(172,131).
att(172,130).
att(172,127).
att(172,124).
att(172,123).
att(172,121).
att(172,120).
att(172,116).
att(172,115).
att(172,113).
att(172,111).
att(172,110).
att(172,108).
att(172,107).
att(172,106).
att(172,105).
att(172,104).
att(172,103).
att(172,102).
att(172,101).
att(172,98).
att(172,97).
att(172,95).
att(172,93).
att(172,92).
att(172,89).
att(172,87).
att(172,84).
att(172,81).
att(172,77).
att(172,76).
att(172,73).
att(172,72).
att(172,71).
att(172,70).
att(172,69).
att(172,65).
att(172,62).
att(172,58).
att(172,51).
att(172,50).
att(172,49).
att(172,48).
att(172,46).
att(172,44).
att(172,42).
att(172,39).
att(172,35).
att(172,30).
att(172,22).
att(172,20).
att(172,19).
att(172,15).
att(172,13).
att(172,12).
att(172,11).
att(172,10).
att(172,8).
att(172,4).
att(172,3).
att(171,182).
att(171,180).
att(171,179).
att(171,178).
att(171,177).
att(171,176).
att(171,175).
att(171,174).
att(171,173).
att(171,172).
att(171,171).
att(171,170).
att(171,169).
att(171,168).
att(171,167).
att(171,166).
att(171,165).
att(171,164).
att(171,163).
att(171,160).
att(171,158).
att(171,157).
att(171,155).
att(171,153).
att(171,152).
att(171,151).
att(171,150).
att(171,149).
att(171,148).
att(171,145).
att(171,144).
att(171,143).
att(171,141).
att(171,138).
att(171,137).
att(171,136).
att(171,132).
att(171,131).
att(171,130).
att(171,129).
att(171,128).
att(171,127).
att(171,124).
att(171,123).
att(171,122).
att(171,121).
att(171,120).
att(171,118).
att(171,116).
att(171,115).
att(171,114).
att(171,113).
att(171,112).
att(171,111).
att(171,110).
att(171,109).
att(171,108).
att(171,107).
att(171,106).
att(171,105).
att(171,104).
att(171,103).
att(171,102).
att(171,101).
att(171,100).
att(171,98).
att(171,97).
att(171,95).
att(171,93).
att(171,92).
att(171,91).
att(171,90).
att(171,89).
att(171,88).
att(171,87).
att(171,86).
att(171,84).
att(171,81).
att(171,80).
att(171,78).
att(171,77).
att(171,76).
att(171,73).
att(171,72).
att(171,71).
att(171,70).
att(171,69).
att(171,66).
att(171,65).
att(171,62).
att(171,61).
att(171,59).
att(171,58).
att(171,57).
att(171,56).
att(171,55).
att(171,53).
att(171,52).
att(171,51).
att(171,50).
att(171,49).
att(171,48).
att(171,46).
att(171,45).
att(171,44).
att(171,42).
att(171,40).
att(171,39).
att(171,38).
att(171,36).
att(171,35).
att(171,32).
att(171,30).
att(171,29).
att(171,27).
att(171,26).
att(171,24).
att(171,23).
att(171,22).
att(171,20).
att(171,19).
att(171,18).
att(171,15).
att(171,13).
att(171,12).
att(171,11).
att(171,10).
att(171,9).
att(171,8).
att(171,4).
att(171,3).
att(171,2).
att(170,182).
att(170,181).
att(170,180).
att(170,179).
att(170,178).
att(170,177).
att(170,176).
att(170,175).
att(170,174).
att(170,173).
att(170,172).
att(170,171).
att(170,170).
att(170,169).
att(170,168).
att(170,167).
att(170,166).
att(170,165).
att(170,164).
att(170,163).
att(170,162).
att(170,161).
att(170,160).
att(170,159).
att(170,158).
att(170,157).
att(170,155).
att(170,154).
att(170,153).
att(170,152).
att(170,151).
att(170,150).
att(170,149).
att(170,148).
att(170,147).
att(170,146).
att(170,145).
att(170,144).
att(170,143).
att(170,142).
att(170,141).
att(170,139).
att(170,138).
att(170,137).
att(170,136).
att(170,135).
att(170,134).
att(170,133).
att(170,132).
att(170,131).
att(170,130).
att(170,129).
att(170,128).
att(170,127).
att(170,124).
att(170,123).
att(170,122).
att(170,121).
att(170,120).
att(170,119).
att(170,118).
att(170,117).
att(170,116).
att(170,115).
att(170,114).
att(170,113).
att(170,112).
att(170,111).
att(170,110).
att(170,109).
att(170,108).
att(170,107).
att(170,106).
att(170,105).
att(170,104).
att(170,103).
att(170,102).
att(170,101).
att(170,100).
att(170,99).
att(170,98).
att(170,97).
att(170,96).
att(170,95).
att(170,94).
att(170,93).
att(170,92).
att(170,91).
att(170,90).
att(170,89).
att(170,88).
att(170,87).
att(170,86).
att(170,84).
att(170,83).
att(170,82).
att(170,81).
att(170,80).
att(170,79).
att(170,78).
att(170,77).
att(170,76).
att(170,75).
att(170,73).
att(170,72).
att(170,71).
att(170,70).
att(170,69).
att(170,68).
att(170,66).
att(170,65).
att(170,64).
att(170,63).
att(170,62).
att(170,61).
att(170,60).
att(170,59).
att(170,58).
att(170,57).
att(170,56).
att(170,55).
att(170,54).
att(170,53).
att(170,52).
att(170,51).
att(170,50).
att(170,49).
att(170,48).
att(170,47).
att(170,46).
att(170,45).
att(170,44).
att(170,43).
att(170,42).
att(170,41).
att(170,40).
att(170,39).
att(170,38).
att(170,37).
att(170,36).
att(170,35).
att(170,33).
att(170,32).
att(170,31).
att(170,30).
att(170,29).
att(170,28).
att(170,27).
att(170,26).
att(170,25).
att(170,24).
att(170,23).
att(170,22).
att(170,20).
att(170,19).
att(170,18).
att(170,17).
att(170,15).
att(170,14).
att(170,13).
att(170,12).
att(170,11).
att(170,10).
att(170,9).
att(170,8).
att(170,7).
att(170,6).
att(170,4).
att(170,3).
att(170,2).
att(169,182).
att(169,181).
att(169,180).
att(169,179).
att(169,178).
att(169,177).
att(169,176).
att(169,175).
att(169,174).
att(169,173).
att(169,170).
att(169,169).
att(169,168).
att(169,166).
att(169,165).
att(169,164).
att(169,163).
att(169,161).
att(169,160).
att(169,159).
att(169,158).
att(169,157).
att(169,155).
att(169,154).
att(169,153).
att(169,152).
att(169,151).
att(169,150).
att(169,149).
att(169,148).
att(169,147).
att(169,146).
att(169,145).
att(169,144).
att(169,143).
att(169,139).
att(169,138).
att(169,137).
att(169,136).
att(169,134).
att(169,133).
att(169,132).
att(169,131).
att(169,130).
att(169,129).
att(169,127).
att(169,124).
att(169,123).
att(169,122).
att(169,121).
att(169,120).
att(169,118).
att(169,117).
att(169,116).
att(169,115).
att(169,113).
att(169,112).
att(169,111).
att(169,110).
att(169,108).
att(169,107).
att(169,106).
att(169,105).
att(169,104).
att(169,103).
att(169,102).
att(169,101).
att(169,100).
att(169,99).
att(169,98).
att(169,97).
att(169,96).
att(169,95).
att(169,93).
att(169,92).
att(169,91).
att(169,89).
att(169,87).
att(169,86).
att(169,85).
att(169,84).
att(169,82).
att(169,81).
att(169,80).
att(169,79).
att(169,78).
att(169,77).
att(169,76).
att(169,75).
att(169,73).
att(169,72).
att(169,71).
att(169,70).
att(169,69).
att(169,68).
att(169,65).
att(169,64).
att(169,63).
att(169,62).
att(169,60).
att(169,59).
att(169,58).
att(169,56).
att(169,55).
att(169,54).
att(169,53).
att(169,52).
att(169,51).
att(169,50).
att(169,49).
att(169,48).
att(169,46).
att(169,44).
att(169,43).
att(169,42).
att(169,41).
att(169,40).
att(169,39).
att(169,38).
att(169,37).
att(169,35).
att(169,33).
att(169,31).
att(169,30).
att(169,29).
att(169,28).
att(169,27).
att(169,26).
att(169,25).
att(169,23).
att(169,22).
att(169,20).
att(169,19).
att(169,15).
att(169,13).
att(169,12).
att(169,11).
att(169,10).
att(169,8).
att(169,4).
att(169,3).
att(169,2).
att(168,182).
att(168,181).
att(168,180).
att(168,179).
att(168,178).
att(168,177).
att(168,176).
att(168,175).
att(168,174).
att(168,173).
att(168,172).
att(168,171).
att(168,170).
att(168,169).
att(168,168).
att(168,167).
att(168,166).
att(168,165).
att(168,164).
att(168,163).
att(168,161).
att(168,160).
att(168,159).
att(168,158).
att(168,157).
att(168,155).
att(168,154).
att(168,153).
att(168,152).
att(168,151).
att(168,150).
att(168,149).
att(168,148).
att(168,147).
att(168,146).
att(168,145).
att(168,144).
att(168,143).
att(168,142).
att(168,141).
att(168,139).
att(168,138).
att(168,137).
att(168,136).
att(168,135).
att(168,134).
att(168,133).
att(168,132).
att(168,131).
att(168,130).
att(168,129).
att(168,128).
att(168,127).
att(168,125).
att(168,124).
att(168,123).
att(168,122).
att(168,121).
att(168,120).
att(168,118).
att(168,117).
att(168,116).
att(168,115).
att(168,114).
att(168,113).
att(168,112).
att(168,111).
att(168,110).
att(168,109).
att(168,108).
att(168,107).
att(168,106).
att(168,105).
att(168,104).
att(168,103).
att(168,102).
att(168,101).
att(168,100).
att(168,99).
att(168,98).
att(168,97).
att(168,96).
att(168,95).
att(168,93).
att(168,92).
att(168,91).
att(168,90).
att(168,89).
att(168,88).
att(168,87).
att(168,86).
att(168,85).
att(168,84).
att(168,83).
att(168,82).
att(168,81).
att(168,80).
att(168,79).
att(168,78).
att(168,77).
att(168,76).
att(168,75).
att(168,73).
att(168,72).
att(168,71).
att(168,70).
att(168,69).
att(168,68).
att(168,66).
att(168,65).
att(168,64).
att(168,63).
att(168,62).
att(168,61).
att(168,60).
att(168,59).
att(168,58).
att(168,57).
att(168,56).
att(168,55).
att(168,54).
att(168,53).
att(168,52).
att(168,51).
att(168,50).
att(168,49).
att(168,48).
att(168,47).
att(168,46).
att(168,45).
att(168,44).
att(168,43).
att(168,42).
att(168,41).
att(168,40).
att(168,39).
att(168,38).
att(168,36).
att(168,35).
att(168,33).
att(168,32).
att(168,31).
att(168,30).
att(168,29).
att(168,28).
att(168,27).
att(168,26).
att(168,25).
att(168,24).
att(168,23).
att(168,22).
att(168,21).
att(168,20).
att(168,19).
att(168,18).
att(168,15).
att(168,14).
att(168,13).
att(168,12).
att(168,11).
att(168,10).
att(168,9).
att(168,8).
att(168,4).
att(168,3).
att(168,2).
att(167,182).
att(167,179).
att(167,178).
att(167,176).
att(167,175).
att(167,174).
att(167,173).
att(167,170).
att(167,168).
att(167,163).
att(167,160).
att(167,158).
att(167,157).
att(167,155).
att(167,151).
att(167,150).
att(167,149).
att(167,148).
att(167,147).
att(167,137).
att(167,136).
att(167,132).
att(167,130).
att(167,124).
att(167,123).
att(167,121).
att(167,120).
att(167,117).
att(167,116).
att(167,111).
att(167,107).
att(167,106).
att(167,105).
att(167,104).
att(167,103).
att(167,102).
att(167,101).
att(167,98).
att(167,96).
att(167,95).
att(167,93).
att(167,89).
att(167,87).
att(167,81).
att(167,79).
att(167,73).
att(167,72).
att(167,71).
att(167,65).
att(167,58).
att(167,56).
att(167,51).
att(167,50).
att(167,48).
att(167,46).
att(167,44).
att(167,42).
att(167,39).
att(167,35).
att(167,31).
att(167,29).
att(167,27).
att(167,26).
att(167,22).
att(167,20).
att(167,19).
att(167,15).
att(167,13).
att(167,12).
att(167,11).
att(167,10).
att(167,4).
att(166,182).
att(166,181).
att(166,180).
att(166,179).
att(166,178).
att(166,177).
att(166,176).
att(166,175).
att(166,174).
att(166,173).
att(166,170).
att(166,169).
att(166,168).
att(166,166).
att(166,165).
att(166,164).
att(166,163).
att(166,160).
att(166,159).
att(166,158).
att(166,157).
att(166,155).
att(166,154).
att(166,153).
att(166,152).
att(166,151).
att(166,150).
att(166,149).
att(166,148).
att(166,147).
att(166,146).
att(166,145).
att(166,144).
att(166,143).
att(166,139).
att(166,138).
att(166,137).
att(166,136).
att(166,134).
att(166,133).
att(166,132).
att(166,131).
att(166,130).
att(166,129).
att(166,127).
att(166,124).
att(166,123).
att(166,122).
att(166,121).
att(166,120).
att(166,118).
att(166,117).
att(166,116).
att(166,115).
att(166,113).
att(166,112).
att(166,111).
att(166,110).
att(166,108).
att(166,107).
att(166,106).
att(166,105).
att(166,104).
att(166,103).
att(166,102).
att(166,101).
att(166,100).
att(166,99).
att(166,98).
att(166,97).
att(166,96).
att(166,95).
att(166,93).
att(166,92).
att(166,91).
att(166,89).
att(166,87).
att(166,86).
att(166,85).
att(166,84).
att(166,82).
att(166,81).
att(166,80).
att(166,79).
att(166,78).
att(166,77).
att(166,76).
att(166,75).
att(166,73).
att(166,72).
att(166,71).
att(166,70).
att(166,69).
att(166,68).
att(166,65).
att(166,64).
att(166,63).
att(166,62).
att(166,60).
att(166,59).
att(166,58).
att(166,56).
att(166,55).
att(166,54).
att(166,53).
att(166,52).
att(166,51).
att(166,50).
att(166,49).
att(166,48).
att(166,46).
att(166,44).
att(166,43).
att(166,42).
att(166,41).
att(166,40).
att(166,39).
att(166,38).
att(166,37).
att(166,35).
att(166,33).
att(166,31).
att(166,30).
att(166,29).
att(166,28).
att(166,27).
att(166,26).
att(166,25).
att(166,23).
att(166,22).
att(166,20).
att(166,19).
att(166,15).
att(166,13).
att(166,12).
att(166,11).
att(166,10).
att(166,8).
att(166,4).
att(166,3).
att(166,2).
att(165,182).
att(165,181).
att(165,180).
att(165,179).
att(165,178).
att(165,177).
att(165,176).
att(165,175).
att(165,174).
att(165,173).
att(165,170).
att(165,169).
att(165,168).
att(165,166).
att(165,165).
att(165,164).
att(165,163).
att(165,161).
att(165,160).
att(165,159).
att(165,158).
att(165,157).
att(165,155).
att(165,154).
att(165,153).
att(165,152).
att(165,151).
att(165,150).
att(165,149).
att(165,148).
att(165,147).
att(165,146).
att(165,145).
att(165,144).
att(165,143).
att(165,140).
att(165,139).
att(165,138).
att(165,137).
att(165,136).
att(165,134).
att(165,133).
att(165,132).
att(165,131).
att(165,130).
att(165,129).
att(165,127).
att(165,124).
att(165,123).
att(165,122).
att(165,121).
att(165,120).
att(165,119).
att(165,118).
att(165,117).
att(165,116).
att(165,115).
att(165,114).
att(165,113).
att(165,112).
att(165,111).
att(165,110).
att(165,109).
att(165,108).
att(165,107).
att(165,106).
att(165,105).
att(165,104).
att(165,103).
att(165,102).
att(165,101).
att(165,100).
att(165,99).
att(165,98).
att(165,97).
att(165,96).
att(165,95).
att(165,93).
att(165,92).
att(165,91).
att(165,89).
att(165,87).
att(165,86).
att(165,85).
att(165,84).
att(165,82).
att(165,81).
att(165,80).
att(165,79).
att(165,78).
att(165,77).
att(165,76).
att(165,75).
att(165,73).
att(165,72).
att(165,71).
att(165,70).
att(165,69).
att(165,68).
att(165,66).
att(165,65).
att(165,64).
att(165,63).
att(165,62).
att(165,60).
att(165,59).
att(165,58).
att(165,56).
att(165,55).
att(165,54).
att(165,53).
att(165,52).
att(165,51).
att(165,50).
att(165,49).
att(165,48).
att(165,46).
att(165,44).
att(165,43).
att(165,42).
att(165,41).
att(165,40).
att(165,39).
att(165,38).
att(165,37).
att(165,35).
att(165,33).
att(165,31).
att(165,30).
att(165,29).
att(165,28).
att(165,27).
att(165,26).
att(165,25).
att(165,23).
att(165,22).
att(165,20).
att(165,19).
att(165,15).
att(165,14).
att(165,13).
att(165,12).
att(165,11).
att(165,10).
att(165,9).
att(165,8).
att(165,7).
att(165,4).
att(165,3).
att(165,2).
att(164,182).
att(164,181).
att(164,180).
att(164,179).
att(164,178).
att(164,177).
att(164,176).
att(164,175).
att(164,174).
att(164,173).
att(164,170).
att(164,169).
att(164,168).
att(164,166).
att(164,165).
att(164,164).
att(164,163).
att(164,160).
att(164,159).
att(164,158).
att(164,157).
att(164,155).
att(164,154).
att(164,153).
att(164,152).
att(164,151).
att(164,150).
att(164,149).
att(164,148).
att(164,147).
att(164,146).
att(164,145).
att(164,144).
att(164,143).
att(164,139).
att(164,138).
att(164,137).
att(164,136).
att(164,134).
att(164,133).
att(164,132).
att(164,131).
att(164,130).
att(164,129).
att(164,127).
att(164,124).
att(164,123).
att(164,122).
att(164,121).
att(164,120).
att(164,118).
att(164,117).
att(164,116).
att(164,115).
att(164,113).
att(164,112).
att(164,111).
att(164,110).
att(164,108).
att(164,107).
att(164,106).
att(164,105).
att(164,104).
att(164,103).
att(164,102).
att(164,101).
att(164,100).
att(164,99).
att(164,98).
att(164,97).
att(164,96).
att(164,95).
att(164,93).
att(164,92).
att(164,91).
att(164,89).
att(164,87).
att(164,86).
att(164,85).
att(164,84).
att(164,82).
att(164,81).
att(164,80).
att(164,79).
att(164,78).
att(164,77).
att(164,76).
att(164,75).
att(164,73).
att(164,72).
att(164,71).
att(164,70).
att(164,69).
att(164,68).
att(164,65).
att(164,64).
att(164,63).
att(164,62).
att(164,60).
att(164,59).
att(164,58).
att(164,56).
att(164,55).
att(164,54).
att(164,53).
att(164,52).
att(164,51).
att(164,50).
att(164,49).
att(164,48).
att(164,46).
att(164,44).
att(164,43).
att(164,42).
att(164,41).
att(164,40).
att(164,39).
att(164,38).
att(164,37).
att(164,35).
att(164,33).
att(164,31).
att(164,30).
att(164,29).
att(164,28).
att(164,27).
att(164,26).
att(164,25).
att(164,23).
att(164,22).
att(164,20).
att(164,19).
att(164,15).
att(164,13).
att(164,12).
att(164,11).
att(164,10).
att(164,8).
att(164,4).
att(164,3).
att(164,2).
att(163,182).
att(163,180).
att(163,179).
att(163,178).
att(163,177).
att(163,176).
att(163,175).
att(163,174).
att(163,173).
att(163,171).
att(163,170).
att(163,169).
att(163,168).
att(163,165).
att(163,164).
att(163,163).
att(163,162).
att(163,161).
att(163,160).
att(163,159).
att(163,158).
att(163,157).
att(163,155).
att(163,153).
att(163,152).
att(163,151).
att(163,150).
att(163,149).
att(163,148).
att(163,147).
att(163,145).
att(163,143).
att(163,142).
att(163,141).
att(163,139).
att(163,138).
att(163,137).
att(163,136).
att(163,135).
att(163,134).
att(163,132).
att(163,131).
att(163,130).
att(163,129).
att(163,128).
att(163,127).
att(163,124).
att(163,123).
att(163,121).
att(163,120).
att(163,118).
att(163,116).
att(163,115).
att(163,114).
att(163,113).
att(163,111).
att(163,110).
att(163,108).
att(163,107).
att(163,106).
att(163,105).
att(163,104).
att(163,103).
att(163,102).
att(163,101).
att(163,100).
att(163,99).
att(163,98).
att(163,97).
att(163,95).
att(163,93).
att(163,92).
att(163,89).
att(163,87).
att(163,84).
att(163,83).
att(163,82).
att(163,81).
att(163,80).
att(163,79).
att(163,78).
att(163,77).
att(163,76).
att(163,73).
att(163,72).
att(163,71).
att(163,70).
att(163,69).
att(163,65).
att(163,64).
att(163,62).
att(163,61).
att(163,60).
att(163,58).
att(163,56).
att(163,55).
att(163,51).
att(163,50).
att(163,49).
att(163,48).
att(163,46).
att(163,44).
att(163,42).
att(163,41).
att(163,40).
att(163,39).
att(163,38).
att(163,35).
att(163,33).
att(163,31).
att(163,30).
att(163,29).
att(163,28).
att(163,27).
att(163,26).
att(163,22).
att(163,20).
att(163,19).
att(163,18).
att(163,15).
att(163,14).
att(163,13).
att(163,12).
att(163,11).
att(163,10).
att(163,8).
att(163,4).
att(163,3).
att(162,182).
att(162,181).
att(162,180).
att(162,179).
att(162,178).
att(162,177).
att(162,176).
att(162,175).
att(162,174).
att(162,173).
att(162,172).
att(162,171).
att(162,170).
att(162,169).
att(162,168).
att(162,167).
att(162,166).
att(162,165).
att(162,164).
att(162,163).
att(162,160).
att(162,159).
att(162,158).
att(162,157).
att(162,155).
att(162,154).
att(162,153).
att(162,152).
att(162,151).
att(162,150).
att(162,149).
att(162,148).
att(162,147).
att(162,146).
att(162,145).
att(162,144).
att(162,143).
att(162,141).
att(162,139).
att(162,138).
att(162,137).
att(162,136).
att(162,134).
att(162,133).
att(162,132).
att(162,131).
att(162,130).
att(162,129).
att(162,128).
att(162,127).
att(162,124).
att(162,123).
att(162,122).
att(162,121).
att(162,120).
att(162,118).
att(162,117).
att(162,116).
att(162,115).
att(162,114).
att(162,113).
att(162,112).
att(162,111).
att(162,110).
att(162,109).
att(162,108).
att(162,107).
att(162,106).
att(162,105).
att(162,104).
att(162,103).
att(162,102).
att(162,101).
att(162,100).
att(162,99).
att(162,98).
att(162,97).
att(162,96).
att(162,95).
att(162,93).
att(162,92).
att(162,91).
att(162,90).
att(162,89).
att(162,88).
att(162,87).
att(162,86).
att(162,84).
att(162,82).
att(162,81).
att(162,80).
att(162,79).
att(162,78).
att(162,77).
att(162,76).
att(162,75).
att(162,73).
att(162,72).
att(162,71).
att(162,70).
att(162,69).
att(162,68).
att(162,66).
att(162,65).
att(162,64).
att(162,63).
att(162,62).
att(162,61).
att(162,60).
att(162,59).
att(162,58).
att(162,57).
att(162,56).
att(162,55).
att(162,54).
att(162,53).
att(162,52).
att(162,51).
att(162,50).
att(162,49).
att(162,48).
att(162,46).
att(162,45).
att(162,44).
att(162,43).
att(162,42).
att(162,41).
att(162,40).
att(162,39).
att(162,38).
att(162,36).
att(162,35).
att(162,33).
att(162,32).
att(162,31).
att(162,30).
att(162,29).
att(162,28).
att(162,27).
att(162,26).
att(162,25).
att(162,24).
att(162,23).
att(162,22).
att(162,20).
att(162,19).
att(162,18).
att(162,15).
att(162,13).
att(162,12).
att(162,11).
att(162,10).
att(162,9).
att(162,8).
att(162,4).
att(162,3).
att(162,2).
att(160,182).
att(160,181).
att(160,180).
att(160,179).
att(160,178).
att(160,177).
att(160,176).
att(160,175).
att(160,174).
att(160,173).
att(160,170).
att(160,169).
att(160,168).
att(160,166).
att(160,165).
att(160,164).
att(160,163).
att(160,160).
att(160,159).
att(160,158).
att(160,157).
att(160,155).
att(160,154).
att(160,153).
att(160,152).
att(160,151).
att(160,150).
att(160,149).
att(160,148).
att(160,147).
att(160,146).
att(160,145).
att(160,144).
att(160,143).
att(160,139).
att(160,138).
att(160,137).
att(160,136).
att(160,134).
att(160,133).
att(160,132).
att(160,131).
att(160,130).
att(160,129).
att(160,127).
att(160,125).
att(160,124).
att(160,123).
att(160,122).
att(160,121).
att(160,120).
att(160,118).
att(160,117).
att(160,116).
att(160,115).
att(160,114).
att(160,113).
att(160,112).
att(160,111).
att(160,110).
att(160,109).
att(160,108).
att(160,107).
att(160,106).
att(160,105).
att(160,104).
att(160,103).
att(160,102).
att(160,101).
att(160,100).
att(160,99).
att(160,98).
att(160,97).
att(160,96).
att(160,95).
att(160,93).
att(160,92).
att(160,91).
att(160,90).
att(160,89).
att(160,87).
att(160,86).
att(160,85).
att(160,84).
att(160,82).
att(160,81).
att(160,80).
att(160,79).
att(160,78).
att(160,77).
att(160,76).
att(160,75).
att(160,73).
att(160,72).
att(160,71).
att(160,70).
att(160,69).
att(160,68).
att(160,66).
att(160,65).
att(160,64).
att(160,63).
att(160,62).
att(160,60).
att(160,59).
att(160,58).
att(160,56).
att(160,55).
att(160,54).
att(160,53).
att(160,52).
att(160,51).
att(160,50).
att(160,49).
att(160,48).
att(160,46).
att(160,44).
att(160,43).
att(160,42).
att(160,41).
att(160,40).
att(160,39).
att(160,38).
att(160,36).
att(160,35).
att(160,33).
att(160,32).
att(160,31).
att(160,30).
att(160,29).
att(160,28).
att(160,27).
att(160,26).
att(160,25).
att(160,23).
att(160,22).
att(160,21).
att(160,20).
att(160,19).
att(160,18).
att(160,15).
att(160,13).
att(160,12).
att(160,11).
att(160,10).
att(160,9).
att(160,8).
att(160,4).
att(160,3).
att(160,2).
att(159,182).
att(159,181).
att(159,180).
att(159,179).
att(159,178).
att(159,177).
att(159,176).
att(159,175).
att(159,174).
att(159,173).
att(159,172).
att(159,171).
att(159,170).
att(159,169).
att(159,168).
att(159,167).
att(159,166).
att(159,165).
att(159,164).
att(159,163).
att(159,161).
att(159,160).
att(159,159).
att(159,158).
att(159,157).
att(159,155).
att(159,154).
att(159,153).
att(159,152).
att(159,151).
att(159,150).
att(159,149).
att(159,148).
att(159,147).
att(159,146).
att(159,145).
att(159,144).
att(159,143).
att(159,141).
att(159,139).
att(159,138).
att(159,137).
att(159,136).
att(159,134).
att(159,133).
att(159,132).
att(159,131).
att(159,130).
att(159,129).
att(159,128).
att(159,127).
att(159,124).
att(159,123).
att(159,122).
att(159,121).
att(159,120).
att(159,118).
att(159,117).
att(159,116).
att(159,115).
att(159,114).
att(159,113).
att(159,112).
att(159,111).
att(159,110).
att(159,109).
att(159,108).
att(159,107).
att(159,106).
att(159,105).
att(159,104).
att(159,103).
att(159,102).
att(159,101).
att(159,100).
att(159,99).
att(159,98).
att(159,97).
att(159,96).
att(159,95).
att(159,93).
att(159,92).
att(159,91).
att(159,90).
att(159,89).
att(159,88).
att(159,87).
att(159,86).
att(159,85).
att(159,84).
att(159,82).
att(159,81).
att(159,80).
att(159,79).
att(159,78).
att(159,77).
att(159,76).
att(159,75).
att(159,73).
att(159,72).
att(159,71).
att(159,70).
att(159,69).
att(159,68).
att(159,66).
att(159,65).
att(159,64).
att(159,63).
att(159,62).
att(159,61).
att(159,60).
att(159,59).
att(159,58).
att(159,57).
att(159,56).
att(159,55).
att(159,54).
att(159,53).
att(159,52).
att(159,51).
att(159,50).
att(159,49).
att(159,48).
att(159,46).
att(159,45).
att(159,44).
att(159,43).
att(159,42).
att(159,41).
att(159,40).
att(159,39).
att(159,38).
att(159,37).
att(159,36).
att(159,35).
att(159,33).
att(159,32).
att(159,31).
att(159,30).
att(159,29).
att(159,28).
att(159,27).
att(159,26).
att(159,25).
att(159,24).
att(159,23).
att(159,22).
att(159,20).
att(159,19).
att(159,18).
att(159,15).
att(159,13).
att(159,12).
att(159,11).
att(159,10).
att(159,9).
att(159,8).
att(159,4).
att(159,3).
att(159,2).
att(158,182).
att(158,181).
att(158,180).
att(158,179).
att(158,178).
att(158,177).
att(158,176).
att(158,175).
att(158,174).
att(158,173).
att(158,170).
att(158,169).
att(158,168).
att(158,166).
att(158,165).
att(158,164).
att(158,163).
att(158,160).
att(158,159).
att(158,158).
att(158,157).
att(158,155).
att(158,154).
att(158,153).
att(158,152).
att(158,151).
att(158,150).
att(158,149).
att(158,148).
att(158,147).
att(158,146).
att(158,145).
att(158,144).
att(158,143).
att(158,139).
att(158,138).
att(158,137).
att(158,136).
att(158,134).
att(158,133).
att(158,132).
att(158,131).
att(158,130).
att(158,129).
att(158,127).
att(158,124).
att(158,123).
att(158,122).
att(158,121).
att(158,120).
att(158,118).
att(158,117).
att(158,116).
att(158,115).
att(158,114).
att(158,113).
att(158,112).
att(158,111).
att(158,110).
att(158,109).
att(158,108).
att(158,107).
att(158,106).
att(158,105).
att(158,104).
att(158,103).
att(158,102).
att(158,101).
att(158,100).
att(158,99).
att(158,98).
att(158,97).
att(158,96).
att(158,95).
att(158,93).
att(158,92).
att(158,91).
att(158,90).
att(158,89).
att(158,87).
att(158,86).
att(158,85).
att(158,84).
att(158,82).
att(158,81).
att(158,80).
att(158,79).
att(158,78).
att(158,77).
att(158,76).
att(158,75).
att(158,73).
att(158,72).
att(158,71).
att(158,70).
att(158,69).
att(158,68).
att(158,66).
att(158,65).
att(158,64).
att(158,63).
att(158,62).
att(158,60).
att(158,59).
att(158,58).
att(158,56).
att(158,55).
att(158,54).
att(158,53).
att(158,52).
att(158,51).
att(158,50).
att(158,49).
att(158,48).
att(158,46).
att(158,44).
att(158,43).
att(158,42).
att(158,41).
att(158,40).
att(158,39).
att(158,38).
att(158,36).
att(158,35).
att(158,33).
att(158,32).
att(158,31).
att(158,30).
att(158,29).
att(158,28).
att(158,27).
att(158,26).
att(158,25).
att(158,23).
att(158,22).
att(158,21).
att(158,20).
att(158,19).
att(158,18).
att(158,15).
att(158,13).
att(158,12).
att(158,11).
att(158,10).
att(158,9).
att(158,8).
att(158,4).
att(158,3).
att(158,2).
att(157,182).
att(157,181).
att(157,180).
att(157,179).
att(157,178).
att(157,177).
att(157,176).
att(157,175).
att(157,174).
att(157,173).
att(157,172).
att(157,171).
att(157,170).
att(157,169).
att(157,168).
att(157,167).
att(157,166).
att(157,165).
att(157,164).
att(157,163).
att(157,162).
att(157,160).
att(157,159).
att(157,158).
att(157,157).
att(157,155).
att(157,154).
att(157,153).
att(157,152).
att(157,151).
att(157,150).
att(157,149).
att(157,148).
att(157,147).
att(157,146).
att(157,145).
att(157,144).
att(157,143).
att(157,141).
att(157,139).
att(157,138).
att(157,137).
att(157,136).
att(157,134).
att(157,133).
att(157,132).
att(157,131).
att(157,130).
att(157,129).
att(157,128).
att(157,127).
att(157,126).
att(157,124).
att(157,123).
att(157,122).
att(157,121).
att(157,120).
att(157,118).
att(157,117).
att(157,116).
att(157,115).
att(157,113).
att(157,112).
att(157,111).
att(157,110).
att(157,108).
att(157,107).
att(157,106).
att(157,105).
att(157,104).
att(157,103).
att(157,102).
att(157,101).
att(157,100).
att(157,99).
att(157,98).
att(157,97).
att(157,96).
att(157,95).
att(157,93).
att(157,92).
att(157,91).
att(157,89).
att(157,87).
att(157,86).
att(157,85).
att(157,84).
att(157,82).
att(157,81).
att(157,80).
att(157,79).
att(157,78).
att(157,77).
att(157,76).
att(157,75).
att(157,73).
att(157,72).
att(157,71).
att(157,70).
att(157,69).
att(157,68).
att(157,65).
att(157,64).
att(157,63).
att(157,62).
att(157,61).
att(157,60).
att(157,59).
att(157,58).
att(157,56).
att(157,55).
att(157,54).
att(157,53).
att(157,52).
att(157,51).
att(157,50).
att(157,49).
att(157,48).
att(157,46).
att(157,44).
att(157,43).
att(157,42).
att(157,41).
att(157,40).
att(157,39).
att(157,38).
att(157,37).
att(157,35).
att(157,33).
att(157,32).
att(157,31).
att(157,30).
att(157,29).
att(157,28).
att(157,27).
att(157,26).
att(157,25).
att(157,23).
att(157,22).
att(157,20).
att(157,19).
att(157,18).
att(157,15).
att(157,13).
att(157,12).
att(157,11).
att(157,10).
att(157,8).
att(157,6).
att(157,4).
att(157,3).
att(157,2).
att(156,103).
att(156,37).
att(155,182).
att(155,181).
att(155,180).
att(155,179).
att(155,178).
att(155,177).
att(155,176).
att(155,175).
att(155,174).
att(155,173).
att(155,172).
att(155,170).
att(155,169).
att(155,168).
att(155,167).
att(155,166).
att(155,165).
att(155,164).
att(155,163).
att(155,160).
att(155,159).
att(155,158).
att(155,157).
att(155,155).
att(155,154).
att(155,153).
att(155,152).
att(155,151).
att(155,150).
att(155,149).
att(155,148).
att(155,147).
att(155,146).
att(155,145).
att(155,144).
att(155,143).
att(155,141).
att(155,139).
att(155,138).
att(155,137).
att(155,136).
att(155,134).
att(155,133).
att(155,132).
att(155,131).
att(155,130).
att(155,129).
att(155,127).
att(155,126).
att(155,124).
att(155,123).
att(155,122).
att(155,121).
att(155,120).
att(155,118).
att(155,117).
att(155,116).
att(155,115).
att(155,114).
att(155,113).
att(155,112).
att(155,111).
att(155,110).
att(155,109).
att(155,108).
att(155,107).
att(155,106).
att(155,105).
att(155,104).
att(155,103).
att(155,102).
att(155,101).
att(155,100).
att(155,99).
att(155,98).
att(155,97).
att(155,96).
att(155,95).
att(155,93).
att(155,92).
att(155,91).
att(155,90).
att(155,89).
att(155,87).
att(155,86).
att(155,85).
att(155,84).
att(155,82).
att(155,81).
att(155,80).
att(155,79).
att(155,78).
att(155,77).
att(155,76).
att(155,75).
att(155,73).
att(155,72).
att(155,71).
att(155,70).
att(155,69).
att(155,68).
att(155,66).
att(155,65).
att(155,64).
att(155,63).
att(155,62).
att(155,60).
att(155,59).
att(155,58).
att(155,56).
att(155,55).
att(155,54).
att(155,53).
att(155,52).
att(155,51).
att(155,50).
att(155,49).
att(155,48).
att(155,46).
att(155,44).
att(155,43).
att(155,42).
att(155,41).
att(155,40).
att(155,39).
att(155,38).
att(155,36).
att(155,35).
att(155,33).
att(155,32).
att(155,31).
att(155,30).
att(155,29).
att(155,28).
att(155,27).
att(155,26).
att(155,25).
att(155,23).
att(155,22).
att(155,21).
att(155,20).
att(155,19).
att(155,18).
att(155,15).
att(155,13).
att(155,12).
att(155,11).
att(155,10).
att(155,9).
att(155,8).
att(155,6).
att(155,4).
att(155,3).
att(155,2).
att(154,182).
att(154,181).
att(154,180).
att(154,179).
att(154,178).
att(154,177).
att(154,176).
att(154,175).
att(154,174).
att(154,173).
att(154,170).
att(154,169).
att(154,168).
att(154,166).
att(154,165).
att(154,164).
att(154,163).
att(154,161).
att(154,160).
att(154,159).
att(154,158).
att(154,157).
att(154,155).
att(154,154).
att(154,153).
att(154,152).
att(154,151).
att(154,150).
att(154,149).
att(154,148).
att(154,147).
att(154,146).
att(154,145).
att(154,144).
att(154,143).
att(154,139).
att(154,138).
att(154,137).
att(154,136).
att(154,134).
att(154,133).
att(154,132).
att(154,131).
att(154,130).
att(154,129).
att(154,127).
att(154,124).
att(154,123).
att(154,122).
att(154,121).
att(154,120).
att(154,118).
att(154,117).
att(154,116).
att(154,115).
att(154,113).
att(154,112).
att(154,111).
att(154,110).
att(154,108).
att(154,107).
att(154,106).
att(154,105).
att(154,104).
att(154,103).
att(154,102).
att(154,101).
att(154,100).
att(154,99).
att(154,98).
att(154,97).
att(154,96).
att(154,95).
att(154,93).
att(154,92).
att(154,91).
att(154,89).
att(154,87).
att(154,86).
att(154,85).
att(154,84).
att(154,82).
att(154,81).
att(154,80).
att(154,79).
att(154,78).
att(154,77).
att(154,76).
att(154,75).
att(154,73).
att(154,72).
att(154,71).
att(154,70).
att(154,69).
att(154,68).
att(154,65).
att(154,64).
att(154,63).
att(154,62).
att(154,60).
att(154,59).
att(154,58).
att(154,56).
att(154,55).
att(154,54).
att(154,53).
att(154,52).
att(154,51).
att(154,50).
att(154,49).
att(154,48).
att(154,46).
att(154,44).
att(154,43).
att(154,42).
att(154,41).
att(154,40).
att(154,39).
att(154,38).
att(154,37).
att(154,35).
att(154,33).
att(154,31).
att(154,30).
att(154,29).
att(154,28).
att(154,27).
att(154,26).
att(154,25).
att(154,23).
att(154,22).
att(154,20).
att(154,19).
att(154,15).
att(154,13).
att(154,12).
att(154,11).
att(154,10).
att(154,8).
att(154,4).
att(154,3).
att(154,2).
att(153,182).
att(153,181).
att(153,180).
att(153,179).
att(153,178).
att(153,177).
att(153,176).
att(153,175).
att(153,174).
att(153,173).
att(153,170).
att(153,169).
att(153,168).
att(153,166).
att(153,165).
att(153,164).
att(153,163).
att(153,160).
att(153,159).
att(153,158).
att(153,157).
att(153,155).
att(153,154).
att(153,153).
att(153,152).
att(153,151).
att(153,150).
att(153,149).
att(153,148).
att(153,147).
att(153,146).
att(153,145).
att(153,144).
att(153,143).
att(153,139).
att(153,138).
att(153,137).
att(153,136).
att(153,134).
att(153,133).
att(153,132).
att(153,131).
att(153,130).
att(153,129).
att(153,127).
att(153,126).
att(153,124).
att(153,123).
att(153,122).
att(153,121).
att(153,120).
att(153,118).
att(153,117).
att(153,116).
att(153,115).
att(153,114).
att(153,113).
att(153,112).
att(153,111).
att(153,110).
att(153,109).
att(153,108).
att(153,107).
att(153,106).
att(153,105).
att(153,104).
att(153,103).
att(153,102).
att(153,101).
att(153,100).
att(153,99).
att(153,98).
att(153,97).
att(153,96).
att(153,95).
att(153,93).
att(153,92).
att(153,91).
att(153,89).
att(153,87).
att(153,86).
att(153,84).
att(153,82).
att(153,81).
att(153,80).
att(153,79).
att(153,78).
att(153,77).
att(153,76).
att(153,75).
att(153,73).
att(153,72).
att(153,71).
att(153,70).
att(153,69).
att(153,68).
att(153,65).
att(153,64).
att(153,63).
att(153,62).
att(153,60).
att(153,59).
att(153,58).
att(153,56).
att(153,55).
att(153,54).
att(153,53).
att(153,52).
att(153,51).
att(153,50).
att(153,49).
att(153,48).
att(153,46).
att(153,44).
att(153,43).
att(153,42).
att(153,41).
att(153,40).
att(153,39).
att(153,38).
att(153,35).
att(153,33).
att(153,31).
att(153,30).
att(153,29).
att(153,28).
att(153,27).
att(153,26).
att(153,25).
att(153,23).
att(153,22).
att(153,20).
att(153,19).
att(153,15).
att(153,13).
att(153,12).
att(153,11).
att(153,10).
att(153,9).
att(153,8).
att(153,4).
att(153,3).
att(153,2).
att(153,1).
att(152,182).
att(152,181).
att(152,180).
att(152,179).
att(152,178).
att(152,177).
att(152,176).
att(152,175).
att(152,174).
att(152,173).
att(152,170).
att(152,169).
att(152,168).
att(152,166).
att(152,165).
att(152,164).
att(152,163).
att(152,160).
att(152,159).
att(152,158).
att(152,157).
att(152,155).
att(152,154).
att(152,153).
att(152,152).
att(152,151).
att(152,150).
att(152,149).
att(152,148).
att(152,147).
att(152,146).
att(152,145).
att(152,144).
att(152,143).
att(152,140).
att(152,139).
att(152,138).
att(152,137).
att(152,136).
att(152,134).
att(152,133).
att(152,132).
att(152,131).
att(152,130).
att(152,129).
att(152,127).
att(152,124).
att(152,123).
att(152,122).
att(152,121).
att(152,120).
att(152,119).
att(152,118).
att(152,117).
att(152,116).
att(152,115).
att(152,114).
att(152,113).
att(152,112).
att(152,111).
att(152,110).
att(152,109).
att(152,108).
att(152,107).
att(152,106).
att(152,105).
att(152,104).
att(152,103).
att(152,102).
att(152,101).
att(152,100).
att(152,99).
att(152,98).
att(152,97).
att(152,96).
att(152,95).
att(152,93).
att(152,92).
att(152,91).
att(152,89).
att(152,87).
att(152,86).
att(152,85).
att(152,84).
att(152,82).
att(152,81).
att(152,80).
att(152,79).
att(152,78).
att(152,77).
att(152,76).
att(152,75).
att(152,73).
att(152,72).
att(152,71).
att(152,70).
att(152,69).
att(152,68).
att(152,66).
att(152,65).
att(152,64).
att(152,63).
att(152,62).
att(152,60).
att(152,59).
att(152,58).
att(152,56).
att(152,55).
att(152,54).
att(152,53).
att(152,52).
att(152,51).
att(152,50).
att(152,49).
att(152,48).
att(152,46).
att(152,44).
att(152,43).
att(152,42).
att(152,41).
att(152,40).
att(152,39).
att(152,38).
att(152,37).
att(152,35).
att(152,33).
att(152,31).
att(152,30).
att(152,29).
att(152,28).
att(152,27).
att(152,26).
att(152,25).
att(152,23).
att(152,22).
att(152,20).
att(152,19).
att(152,15).
att(152,14).
att(152,13).
att(152,12).
att(152,11).
att(152,10).
att(152,9).
att(152,8).
att(152,7).
att(152,4).
att(152,3).
att(152,2).
att(151,182).
att(151,181).
att(151,180).
att(151,179).
att(151,178).
att(151,177).
att(151,176).
att(151,175).
att(151,174).
att(151,173).
att(151,172).
att(151,171).
att(151,170).
att(151,169).
att(151,168).
att(151,167).
att(151,166).
att(151,165).
att(151,164).
att(151,163).
att(151,162).
att(151,160).
att(151,159).
att(151,158).
att(151,157).
att(151,155).
att(151,154).
att(151,153).
att(151,152).
att(151,151).
att(151,150).
att(151,149).
att(151,148).
att(151,147).
att(151,146).
att(151,145).
att(151,144).
att(151,143).
att(151,141).
att(151,139).
att(151,138).
att(151,137).
att(151,136).
att(151,134).
att(151,133).
att(151,132).
att(151,131).
att(151,130).
att(151,129).
att(151,128).
att(151,127).
att(151,126).
att(151,124).
att(151,123).
att(151,122).
att(151,121).
att(151,120).
att(151,118).
att(151,117).
att(151,116).
att(151,115).
att(151,113).
att(151,112).
att(151,111).
att(151,110).
att(151,108).
att(151,107).
att(151,106).
att(151,105).
att(151,104).
att(151,103).
att(151,102).
att(151,101).
att(151,100).
att(151,99).
att(151,98).
att(151,97).
att(151,96).
att(151,95).
att(151,93).
att(151,92).
att(151,91).
att(151,89).
att(151,87).
att(151,86).
att(151,85).
att(151,84).
att(151,82).
att(151,81).
att(151,80).
att(151,79).
att(151,78).
att(151,77).
att(151,76).
att(151,75).
att(151,73).
att(151,72).
att(151,71).
att(151,70).
att(151,69).
att(151,68).
att(151,65).
att(151,64).
att(151,63).
att(151,62).
att(151,61).
att(151,60).
att(151,59).
att(151,58).
att(151,56).
att(151,55).
att(151,54).
att(151,53).
att(151,52).
att(151,51).
att(151,50).
att(151,49).
att(151,48).
att(151,46).
att(151,44).
att(151,43).
att(151,42).
att(151,41).
att(151,40).
att(151,39).
att(151,38).
att(151,37).
att(151,35).
att(151,33).
att(151,32).
att(151,31).
att(151,30).
att(151,29).
att(151,28).
att(151,27).
att(151,26).
att(151,25).
att(151,23).
att(151,22).
att(151,20).
att(151,19).
att(151,18).
att(151,15).
att(151,13).
att(151,12).
att(151,11).
att(151,10).
att(151,8).
att(151,6).
att(151,4).
att(151,3).
att(151,2).
att(150,182).
att(150,181).
att(150,180).
att(150,179).
att(150,178).
att(150,177).
att(150,176).
att(150,175).
att(150,174).
att(150,173).
att(150,170).
att(150,169).
att(150,168).
att(150,166).
att(150,165).
att(150,164).
att(150,163).
att(150,160).
att(150,159).
att(150,158).
att(150,157).
att(150,155).
att(150,154).
att(150,153).
att(150,152).
att(150,151).
att(150,150).
att(150,149).
att(150,148).
att(150,147).
att(150,146).
att(150,145).
att(150,144).
att(150,143).
att(150,140).
att(150,139).
att(150,138).
att(150,137).
att(150,136).
att(150,134).
att(150,133).
att(150,132).
att(150,131).
att(150,130).
att(150,129).
att(150,127).
att(150,126).
att(150,124).
att(150,123).
att(150,122).
att(150,121).
att(150,120).
att(150,119).
att(150,118).
att(150,117).
att(150,116).
att(150,115).
att(150,114).
att(150,113).
att(150,112).
att(150,111).
att(150,110).
att(150,109).
att(150,108).
att(150,107).
att(150,106).
att(150,105).
att(150,104).
att(150,103).
att(150,102).
att(150,101).
att(150,100).
att(150,99).
att(150,98).
att(150,97).
att(150,96).
att(150,95).
att(150,93).
att(150,92).
att(150,91).
att(150,90).
att(150,89).
att(150,87).
att(150,86).
att(150,85).
att(150,84).
att(150,82).
att(150,81).
att(150,80).
att(150,79).
att(150,78).
att(150,77).
att(150,76).
att(150,75).
att(150,73).
att(150,72).
att(150,71).
att(150,70).
att(150,69).
att(150,68).
att(150,66).
att(150,65).
att(150,64).
att(150,63).
att(150,62).
att(150,60).
att(150,59).
att(150,58).
att(150,56).
att(150,55).
att(150,54).
att(150,53).
att(150,52).
att(150,51).
att(150,50).
att(150,49).
att(150,48).
att(150,46).
att(150,44).
att(150,43).
att(150,42).
att(150,41).
att(150,40).
att(150,39).
att(150,38).
att(150,36).
att(150,35).
att(150,33).
att(150,32).
att(150,31).
att(150,30).
att(150,29).
att(150,28).
att(150,27).
att(150,26).
att(150,25).
att(150,23).
att(150,22).
att(150,21).
att(150,20).
att(150,19).
att(150,18).
att(150,15).
att(150,14).
att(150,13).
att(150,12).
att(150,11).
att(150,10).
att(150,9).
att(150,8).
att(150,7).
att(150,4).
att(150,3).
att(150,2).
att(149,182).
att(149,179).
att(149,178).
att(149,177).
att(149,176).
att(149,175).
att(149,174).
att(149,173).
att(149,171).
att(149,170).
att(149,168).
att(149,163).
att(149,162).
att(149,160).
att(149,159).
att(149,158).
att(149,157).
att(149,155).
att(149,151).
att(149,150).
att(149,149).
att(149,148).
att(149,147).
att(149,145).
att(149,142).
att(149,141).
att(149,139).
att(149,138).
att(149,137).
att(149,136).
att(149,135).
att(149,134).
att(149,132).
att(149,131).
att(149,130).
att(149,129).
att(149,128).
att(149,127).
att(149,124).
att(149,123).
att(149,121).
att(149,120).
att(149,118).
att(149,116).
att(149,114).
att(149,111).
att(149,108).
att(149,107).
att(149,106).
att(149,105).
att(149,104).
att(149,103).
att(149,102).
att(149,101).
att(149,100).
att(149,99).
att(149,98).
att(149,95).
att(149,93).
att(149,89).
att(149,87).
att(149,84).
att(149,83).
att(149,82).
att(149,81).
att(149,80).
att(149,79).
att(149,78).
att(149,73).
att(149,72).
att(149,71).
att(149,65).
att(149,64).
att(149,61).
att(149,60).
att(149,58).
att(149,56).
att(149,55).
att(149,51).
att(149,50).
att(149,49).
att(149,48).
att(149,46).
att(149,44).
att(149,42).
att(149,41).
att(149,40).
att(149,39).
att(149,38).
att(149,35).
att(149,33).
att(149,31).
att(149,29).
att(149,28).
att(149,27).
att(149,26).
att(149,22).
att(149,20).
att(149,19).
att(149,18).
att(149,15).
att(149,14).
att(149,13).
att(149,12).
att(149,11).
att(149,10).
att(149,8).
att(149,4).
att(149,3).
att(148,182).
att(148,181).
att(148,180).
att(148,179).
att(148,178).
att(148,177).
att(148,176).
att(148,175).
att(148,174).
att(148,173).
att(148,172).
att(148,171).
att(148,170).
att(148,169).
att(148,168).
att(148,167).
att(148,166).
att(148,165).
att(148,164).
att(148,163).
att(148,162).
att(148,160).
att(148,159).
att(148,158).
att(148,157).
att(148,155).
att(148,154).
att(148,153).
att(148,152).
att(148,151).
att(148,150).
att(148,149).
att(148,148).
att(148,147).
att(148,146).
att(148,145).
att(148,144).
att(148,143).
att(148,141).
att(148,139).
att(148,138).
att(148,137).
att(148,136).
att(148,134).
att(148,133).
att(148,132).
att(148,131).
att(148,130).
att(148,129).
att(148,128).
att(148,127).
att(148,126).
att(148,124).
att(148,123).
att(148,122).
att(148,121).
att(148,120).
att(148,118).
att(148,117).
att(148,116).
att(148,115).
att(148,113).
att(148,112).
att(148,111).
att(148,110).
att(148,108).
att(148,107).
att(148,106).
att(148,105).
att(148,104).
att(148,103).
att(148,102).
att(148,101).
att(148,100).
att(148,99).
att(148,98).
att(148,97).
att(148,96).
att(148,95).
att(148,93).
att(148,92).
att(148,91).
att(148,89).
att(148,87).
att(148,86).
att(148,85).
att(148,84).
att(148,82).
att(148,81).
att(148,80).
att(148,79).
att(148,78).
att(148,77).
att(148,76).
att(148,75).
att(148,73).
att(148,72).
att(148,71).
att(148,70).
att(148,69).
att(148,68).
att(148,65).
att(148,64).
att(148,63).
att(148,62).
att(148,61).
att(148,60).
att(148,59).
att(148,58).
att(148,56).
att(148,55).
att(148,54).
att(148,53).
att(148,52).
att(148,51).
att(148,50).
att(148,49).
att(148,48).
att(148,46).
att(148,44).
att(148,43).
att(148,42).
att(148,41).
att(148,40).
att(148,39).
att(148,38).
att(148,37).
att(148,35).
att(148,33).
att(148,32).
att(148,31).
att(148,30).
att(148,29).
att(148,28).
att(148,27).
att(148,26).
att(148,25).
att(148,23).
att(148,22).
att(148,20).
att(148,19).
att(148,18).
att(148,15).
att(148,13).
att(148,12).
att(148,11).
att(148,10).
att(148,8).
att(148,6).
att(148,4).
att(148,3).
att(148,2).
att(147,182).
att(147,181).
att(147,180).
att(147,179).
att(147,178).
att(147,177).
att(147,176).
att(147,175).
att(147,174).
att(147,173).
att(147,172).
att(147,171).
att(147,170).
att(147,169).
att(147,168).
att(147,167).
att(147,166).
att(147,165).
att(147,164).
att(147,163).
att(147,161).
att(147,160).
att(147,159).
att(147,158).
att(147,157).
att(147,155).
att(147,154).
att(147,153).
att(147,152).
att(147,151).
att(147,150).
att(147,149).
att(147,148).
att(147,147).
att(147,146).
att(147,145).
att(147,144).
att(147,143).
att(147,141).
att(147,139).
att(147,138).
att(147,137).
att(147,136).
att(147,134).
att(147,133).
att(147,132).
att(147,131).
att(147,130).
att(147,129).
att(147,128).
att(147,127).
att(147,126).
att(147,124).
att(147,123).
att(147,122).
att(147,121).
att(147,120).
att(147,118).
att(147,117).
att(147,116).
att(147,115).
att(147,114).
att(147,113).
att(147,112).
att(147,111).
att(147,110).
att(147,109).
att(147,108).
att(147,107).
att(147,106).
att(147,105).
att(147,104).
att(147,103).
att(147,102).
att(147,101).
att(147,100).
att(147,99).
att(147,98).
att(147,97).
att(147,96).
att(147,95).
att(147,93).
att(147,92).
att(147,91).
att(147,90).
att(147,89).
att(147,88).
att(147,87).
att(147,86).
att(147,85).
att(147,84).
att(147,82).
att(147,81).
att(147,80).
att(147,79).
att(147,78).
att(147,77).
att(147,76).
att(147,75).
att(147,73).
att(147,72).
att(147,71).
att(147,70).
att(147,69).
att(147,68).
att(147,66).
att(147,65).
att(147,64).
att(147,63).
att(147,62).
att(147,61).
att(147,60).
att(147,59).
att(147,58).
att(147,57).
att(147,56).
att(147,55).
att(147,54).
att(147,53).
att(147,52).
att(147,51).
att(147,50).
att(147,49).
att(147,48).
att(147,46).
att(147,45).
att(147,44).
att(147,43).
att(147,42).
att(147,41).
att(147,40).
att(147,39).
att(147,38).
att(147,36).
att(147,35).
att(147,33).
att(147,32).
att(147,31).
att(147,30).
att(147,29).
att(147,28).
att(147,27).
att(147,26).
att(147,25).
att(147,24).
att(147,23).
att(147,22).
att(147,20).
att(147,19).
att(147,18).
att(147,15).
att(147,13).
att(147,12).
att(147,11).
att(147,10).
att(147,9).
att(147,8).
att(147,4).
att(147,3).
att(147,2).
att(146,182).
att(146,181).
att(146,180).
att(146,179).
att(146,178).
att(146,177).
att(146,176).
att(146,175).
att(146,174).
att(146,173).
att(146,170).
att(146,169).
att(146,168).
att(146,166).
att(146,165).
att(146,164).
att(146,163).
att(146,161).
att(146,160).
att(146,159).
att(146,158).
att(146,157).
att(146,155).
att(146,154).
att(146,153).
att(146,152).
att(146,151).
att(146,150).
att(146,149).
att(146,148).
att(146,147).
att(146,146).
att(146,145).
att(146,144).
att(146,143).
att(146,139).
att(146,138).
att(146,137).
att(146,136).
att(146,134).
att(146,133).
att(146,132).
att(146,131).
att(146,130).
att(146,129).
att(146,127).
att(146,124).
att(146,123).
att(146,122).
att(146,121).
att(146,120).
att(146,118).
att(146,117).
att(146,116).
att(146,115).
att(146,113).
att(146,112).
att(146,111).
att(146,110).
att(146,108).
att(146,107).
att(146,106).
att(146,105).
att(146,104).
att(146,103).
att(146,102).
att(146,101).
att(146,100).
att(146,99).
att(146,98).
att(146,97).
att(146,96).
att(146,95).
att(146,93).
att(146,92).
att(146,91).
att(146,89).
att(146,87).
att(146,86).
att(146,85).
att(146,84).
att(146,82).
att(146,81).
att(146,80).
att(146,79).
att(146,78).
att(146,77).
att(146,76).
att(146,75).
att(146,73).
att(146,72).
att(146,71).
att(146,70).
att(146,69).
att(146,68).
att(146,65).
att(146,64).
att(146,63).
att(146,62).
att(146,60).
att(146,59).
att(146,58).
att(146,56).
att(146,55).
att(146,54).
att(146,53).
att(146,52).
att(146,51).
att(146,50).
att(146,49).
att(146,48).
att(146,46).
att(146,44).
att(146,43).
att(146,42).
att(146,41).
att(146,40).
att(146,39).
att(146,38).
att(146,37).
att(146,35).
att(146,33).
att(146,31).
att(146,30).
att(146,29).
att(146,28).
att(146,27).
att(146,26).
att(146,25).
att(146,23).
att(146,22).
att(146,20).
att(146,19).
att(146,15).
att(146,13).
att(146,12).
att(146,11).
att(146,10).
att(146,8).
att(146,4).
att(146,3).
att(146,2).
att(145,182).
att(145,181).
att(145,180).
att(145,179).
att(145,178).
att(145,177).
att(145,176).
att(145,175).
att(145,174).
att(145,173).
att(145,172).
att(145,171).
att(145,170).
att(145,169).
att(145,168).
att(145,167).
att(145,166).
att(145,165).
att(145,164).
att(145,163).
att(145,161).
att(145,160).
att(145,159).
att(145,158).
att(145,157).
att(145,155).
att(145,154).
att(145,153).
att(145,152).
att(145,151).
att(145,150).
att(145,149).
att(145,148).
att(145,147).
att(145,146).
att(145,145).
att(145,144).
att(145,143).
att(145,141).
att(145,139).
att(145,138).
att(145,137).
att(145,136).
att(145,134).
att(145,133).
att(145,132).
att(145,131).
att(145,130).
att(145,129).
att(145,128).
att(145,127).
att(145,124).
att(145,123).
att(145,122).
att(145,121).
att(145,120).
att(145,118).
att(145,117).
att(145,116).
att(145,115).
att(145,114).
att(145,113).
att(145,112).
att(145,111).
att(145,110).
att(145,109).
att(145,108).
att(145,107).
att(145,106).
att(145,105).
att(145,104).
att(145,103).
att(145,102).
att(145,101).
att(145,100).
att(145,99).
att(145,98).
att(145,97).
att(145,96).
att(145,95).
att(145,94).
att(145,93).
att(145,92).
att(145,91).
att(145,90).
att(145,89).
att(145,88).
att(145,87).
att(145,86).
att(145,85).
att(145,84).
att(145,82).
att(145,81).
att(145,80).
att(145,79).
att(145,78).
att(145,77).
att(145,76).
att(145,75).
att(145,73).
att(145,72).
att(145,71).
att(145,70).
att(145,69).
att(145,68).
att(145,66).
att(145,65).
att(145,64).
att(145,63).
att(145,62).
att(145,61).
att(145,60).
att(145,59).
att(145,58).
att(145,57).
att(145,56).
att(145,55).
att(145,54).
att(145,53).
att(145,52).
att(145,51).
att(145,50).
att(145,49).
att(145,48).
att(145,46).
att(145,45).
att(145,44).
att(145,43).
att(145,42).
att(145,41).
att(145,40).
att(145,39).
att(145,38).
att(145,37).
att(145,36).
att(145,35).
att(145,33).
att(145,32).
att(145,31).
att(145,30).
att(145,29).
att(145,28).
att(145,27).
att(145,26).
att(145,25).
att(145,24).
att(145,23).
att(145,22).
att(145,20).
att(145,19).
att(145,18).
att(145,15).
att(145,13).
att(145,12).
att(145,11).
att(145,10).
att(145,9).
att(145,8).
att(145,4).
att(145,3).
att(145,2).
att(144,182).
att(144,181).
att(144,180).
att(144,179).
att(144,178).
att(144,177).
att(144,176).
att(144,175).
att(144,174).
att(144,173).
att(144,170).
att(144,169).
att(144,168).
att(144,166).
att(144,165).
att(144,164).
att(144,163).
att(144,161).
att(144,160).
att(144,159).
att(144,158).
att(144,157).
att(144,155).
att(144,154).
att(144,153).
att(144,152).
att(144,151).
att(144,150).
att(144,149).
att(144,148).
att(144,147).
att(144,146).
att(144,145).
att(144,144).
att(144,143).
att(144,139).
att(144,138).
att(144,137).
att(144,136).
att(144,134).
att(144,133).
att(144,132).
att(144,131).
att(144,130).
att(144,129).
att(144,127).
att(144,124).
att(144,123).
att(144,122).
att(144,121).
att(144,120).
att(144,118).
att(144,117).
att(144,116).
att(144,115).
att(144,113).
att(144,112).
att(144,111).
att(144,110).
att(144,108).
att(144,107).
att(144,106).
att(144,105).
att(144,104).
att(144,103).
att(144,102).
att(144,101).
att(144,100).
att(144,99).
att(144,98).
att(144,97).
att(144,96).
att(144,95).
att(144,93).
att(144,92).
att(144,91).
att(144,89).
att(144,87).
att(144,86).
att(144,85).
att(144,84).
att(144,82).
att(144,81).
att(144,80).
att(144,79).
att(144,78).
att(144,77).
att(144,76).
att(144,75).
att(144,73).
att(144,72).
att(144,71).
att(144,70).
att(144,69).
att(144,68).
att(144,65).
att(144,64).
att(144,63).
att(144,62).
att(144,60).
att(144,59).
att(144,58).
att(144,56).
att(144,55).
att(144,54).
att(144,53).
att(144,52).
att(144,51).
att(144,50).
att(144,49).
att(144,48).
att(144,46).
att(144,44).
att(144,43).
att(144,42).
att(144,41).
att(144,40).
att(144,39).
att(144,38).
att(144,37).
att(144,35).
att(144,33).
att(144,31).
att(144,30).
att(144,29).
att(144,28).
att(144,27).
att(144,26).
att(144,25).
att(144,23).
att(144,22).
att(144,20).
att(144,19).
att(144,15).
att(144,13).
att(144,12).
att(144,11).
att(144,10).
att(144,8).
att(144,4).
att(144,3).
att(144,2).
att(143,182).
att(143,181).
att(143,180).
att(143,179).
att(143,178).
att(143,177).
att(143,176).
att(143,175).
att(143,174).
att(143,173).
att(143,170).
att(143,169).
att(143,168).
att(143,166).
att(143,165).
att(143,164).
att(143,163).
att(143,160).
att(143,159).
att(143,158).
att(143,157).
att(143,155).
att(143,154).
att(143,153).
att(143,152).
att(143,151).
att(143,150).
att(143,149).
att(143,148).
att(143,147).
att(143,146).
att(143,145).
att(143,144).
att(143,143).
att(143,140).
att(143,139).
att(143,138).
att(143,137).
att(143,136).
att(143,134).
att(143,133).
att(143,132).
att(143,131).
att(143,130).
att(143,129).
att(143,127).
att(143,124).
att(143,123).
att(143,122).
att(143,121).
att(143,120).
att(143,119).
att(143,118).
att(143,117).
att(143,116).
att(143,115).
att(143,114).
att(143,113).
att(143,112).
att(143,111).
att(143,110).
att(143,109).
att(143,108).
att(143,107).
att(143,106).
att(143,105).
att(143,104).
att(143,103).
att(143,102).
att(143,101).
att(143,100).
att(143,99).
att(143,98).
att(143,97).
att(143,96).
att(143,95).
att(143,93).
att(143,92).
att(143,91).
att(143,89).
att(143,87).
att(143,86).
att(143,85).
att(143,84).
att(143,82).
att(143,81).
att(143,80).
att(143,79).
att(143,78).
att(143,77).
att(143,76).
att(143,75).
att(143,73).
att(143,72).
att(143,71).
att(143,70).
att(143,69).
att(143,68).
att(143,66).
att(143,65).
att(143,64).
att(143,63).
att(143,62).
att(143,60).
att(143,59).
att(143,58).
att(143,56).
att(143,55).
att(143,54).
att(143,53).
att(143,52).
att(143,51).
att(143,50).
att(143,49).
att(143,48).
att(143,46).
att(143,44).
att(143,43).
att(143,42).
att(143,41).
att(143,40).
att(143,39).
att(143,38).
att(143,37).
att(143,35).
att(143,33).
att(143,31).
att(143,30).
att(143,29).
att(143,28).
att(143,27).
att(143,26).
att(143,25).
att(143,23).
att(143,22).
att(143,20).
att(143,19).
att(143,15).
att(143,14).
att(143,13).
att(143,12).
att(143,11).
att(143,10).
att(143,9).
att(143,8).
att(143,7).
att(143,4).
att(143,3).
att(143,2).
att(142,180).
att(142,177).
att(142,176).
att(142,174).
att(142,173).
att(142,170).
att(142,169).
att(142,168).
att(142,165).
att(142,164).
att(142,157).
att(142,155).
att(142,153).
att(142,152).
att(142,151).
att(142,148).
att(142,143).
att(142,138).
att(142,136).
att(142,132).
att(142,131).
att(142,130).
att(142,129).
att(142,127).
att(142,124).
att(142,123).
att(142,116).
att(142,115).
att(142,113).
att(142,111).
att(142,110).
att(142,108).
att(142,107).
att(142,106).
att(142,105).
att(142,103).
att(142,102).
att(142,101).
att(142,98).
att(142,97).
att(142,95).
att(142,94).
att(142,93).
att(142,92).
att(142,89).
att(142,88).
att(142,87).
att(142,86).
att(142,84).
att(142,81).
att(142,77).
att(142,76).
att(142,70).
att(142,69).
att(142,65).
att(142,62).
att(142,59).
att(142,58).
att(142,57).
att(142,55).
att(142,52).
att(142,50).
att(142,49).
att(142,48).
att(142,46).
att(142,44).
att(142,42).
att(142,38).
att(142,35).
att(142,32).
att(142,30).
att(142,29).
att(142,28).
att(142,20).
att(142,19).
att(142,15).
att(142,13).
att(142,12).
att(142,11).
att(142,10).
att(142,8).
att(142,4).
att(142,3).
att(141,182).
att(141,180).
att(141,179).
att(141,178).
att(141,177).
att(141,176).
att(141,175).
att(141,174).
att(141,173).
att(141,170).
att(141,169).
att(141,168).
att(141,165).
att(141,164).
att(141,163).
att(141,160).
att(141,158).
att(141,157).
att(141,155).
att(141,153).
att(141,152).
att(141,151).
att(141,150).
att(141,149).
att(141,148).
att(141,143).
att(141,138).
att(141,136).
att(141,132).
att(141,131).
att(141,130).
att(141,129).
att(141,127).
att(141,124).
att(141,123).
att(141,121).
att(141,120).
att(141,116).
att(141,115).
att(141,113).
att(141,111).
att(141,110).
att(141,108).
att(141,107).
att(141,106).
att(141,105).
att(141,104).
att(141,103).
att(141,102).
att(141,101).
att(141,98).
att(141,97).
att(141,95).
att(141,94).
att(141,93).
att(141,92).
att(141,89).
att(141,88).
att(141,87).
att(141,86).
att(141,84).
att(141,81).
att(141,77).
att(141,76).
att(141,73).
att(141,72).
att(141,71).
att(141,70).
att(141,69).
att(141,65).
att(141,62).
att(141,59).
att(141,58).
att(141,57).
att(141,55).
att(141,52).
att(141,51).
att(141,50).
att(141,49).
att(141,48).
att(141,46).
att(141,44).
att(141,42).
att(141,39).
att(141,38).
att(141,35).
att(141,32).
att(141,30).
att(141,29).
att(141,28).
att(141,22).
att(141,20).
att(141,19).
att(141,15).
att(141,13).
att(141,12).
att(141,11).
att(141,10).
att(141,8).
att(141,4).
att(141,3).
att(140,182).
att(140,180).
att(140,179).
att(140,178).
att(140,176).
att(140,175).
att(140,174).
att(140,173).
att(140,170).
att(140,169).
att(140,168).
att(140,165).
att(140,164).
att(140,163).
att(140,160).
att(140,158).
att(140,157).
att(140,155).
att(140,153).
att(140,152).
att(140,151).
att(140,150).
att(140,149).
att(140,148).
att(140,143).
att(140,138).
att(140,136).
att(140,132).
att(140,131).
att(140,130).
att(140,127).
att(140,124).
att(140,123).
att(140,121).
att(140,120).
att(140,116).
att(140,115).
att(140,113).
att(140,111).
att(140,110).
att(140,108).
att(140,107).
att(140,106).
att(140,105).
att(140,104).
att(140,103).
att(140,102).
att(140,101).
att(140,98).
att(140,97).
att(140,95).
att(140,93).
att(140,92).
att(140,89).
att(140,87).
att(140,84).
att(140,81).
att(140,77).
att(140,76).
att(140,73).
att(140,72).
att(140,71).
att(140,70).
att(140,69).
att(140,65).
att(140,62).
att(140,58).
att(140,51).
att(140,50).
att(140,49).
att(140,48).
att(140,46).
att(140,44).
att(140,42).
att(140,39).
att(140,35).
att(140,30).
att(140,22).
att(140,20).
att(140,19).
att(140,15).
att(140,13).
att(140,12).
att(140,11).
att(140,10).
att(140,8).
att(140,4).
att(140,3).
att(139,182).
att(139,181).
att(139,180).
att(139,179).
att(139,178).
att(139,177).
att(139,176).
att(139,175).
att(139,174).
att(139,173).
att(139,172).
att(139,171).
att(139,170).
att(139,169).
att(139,168).
att(139,167).
att(139,166).
att(139,165).
att(139,164).
att(139,163).
att(139,160).
att(139,159).
att(139,158).
att(139,157).
att(139,155).
att(139,154).
att(139,153).
att(139,152).
att(139,151).
att(139,150).
att(139,149).
att(139,148).
att(139,147).
att(139,146).
att(139,145).
att(139,144).
att(139,143).
att(139,141).
att(139,139).
att(139,138).
att(139,137).
att(139,136).
att(139,134).
att(139,133).
att(139,132).
att(139,131).
att(139,130).
att(139,129).
att(139,128).
att(139,127).
att(139,124).
att(139,123).
att(139,122).
att(139,121).
att(139,120).
att(139,118).
att(139,117).
att(139,116).
att(139,115).
att(139,114).
att(139,113).
att(139,112).
att(139,111).
att(139,110).
att(139,109).
att(139,108).
att(139,107).
att(139,106).
att(139,105).
att(139,104).
att(139,103).
att(139,102).
att(139,101).
att(139,100).
att(139,99).
att(139,98).
att(139,97).
att(139,96).
att(139,95).
att(139,94).
att(139,93).
att(139,92).
att(139,91).
att(139,90).
att(139,89).
att(139,88).
att(139,87).
att(139,86).
att(139,84).
att(139,82).
att(139,81).
att(139,80).
att(139,79).
att(139,78).
att(139,77).
att(139,76).
att(139,75).
att(139,73).
att(139,72).
att(139,71).
att(139,70).
att(139,69).
att(139,68).
att(139,66).
att(139,65).
att(139,64).
att(139,63).
att(139,62).
att(139,61).
att(139,60).
att(139,59).
att(139,58).
att(139,57).
att(139,56).
att(139,55).
att(139,54).
att(139,53).
att(139,52).
att(139,51).
att(139,50).
att(139,49).
att(139,48).
att(139,46).
att(139,45).
att(139,44).
att(139,43).
att(139,42).
att(139,41).
att(139,40).
att(139,39).
att(139,38).
att(139,36).
att(139,35).
att(139,33).
att(139,32).
att(139,31).
att(139,30).
att(139,29).
att(139,28).
att(139,27).
att(139,26).
att(139,25).
att(139,24).
att(139,23).
att(139,22).
att(139,20).
att(139,19).
att(139,18).
att(139,15).
att(139,13).
att(139,12).
att(139,11).
att(139,10).
att(139,9).
att(139,8).
att(139,4).
att(139,3).
att(139,2).
att(138,182).
att(138,181).
att(138,180).
att(138,179).
att(138,178).
att(138,177).
att(138,176).
att(138,175).
att(138,174).
att(138,173).
att(138,172).
att(138,171).
att(138,170).
att(138,169).
att(138,168).
att(138,167).
att(138,166).
att(138,165).
att(138,164).
att(138,163).
att(138,161).
att(138,160).
att(138,159).
att(138,158).
att(138,157).
att(138,155).
att(138,154).
att(138,153).
att(138,152).
att(138,151).
att(138,150).
att(138,149).
att(138,148).
att(138,147).
att(138,146).
att(138,145).
att(138,144).
att(138,143).
att(138,141).
att(138,139).
att(138,138).
att(138,137).
att(138,136).
att(138,134).
att(138,133).
att(138,132).
att(138,131).
att(138,130).
att(138,129).
att(138,128).
att(138,127).
att(138,124).
att(138,123).
att(138,122).
att(138,121).
att(138,120).
att(138,118).
att(138,117).
att(138,116).
att(138,115).
att(138,114).
att(138,113).
att(138,112).
att(138,111).
att(138,110).
att(138,109).
att(138,108).
att(138,107).
att(138,106).
att(138,105).
att(138,104).
att(138,103).
att(138,102).
att(138,101).
att(138,100).
att(138,99).
att(138,98).
att(138,97).
att(138,96).
att(138,95).
att(138,93).
att(138,92).
att(138,91).
att(138,90).
att(138,89).
att(138,88).
att(138,87).
att(138,86).
att(138,85).
att(138,84).
att(138,82).
att(138,81).
att(138,80).
att(138,79).
att(138,78).
att(138,77).
att(138,76).
att(138,75).
att(138,73).
att(138,72).
att(138,71).
att(138,70).
att(138,69).
att(138,68).
att(138,66).
att(138,65).
att(138,64).
att(138,63).
att(138,62).
att(138,61).
att(138,60).
att(138,59).
att(138,58).
att(138,57).
att(138,56).
att(138,55).
att(138,54).
att(138,53).
att(138,52).
att(138,51).
att(138,50).
att(138,49).
att(138,48).
att(138,47).
att(138,46).
att(138,45).
att(138,44).
att(138,43).
att(138,42).
att(138,41).
att(138,40).
att(138,39).
att(138,38).
att(138,37).
att(138,36).
att(138,35).
att(138,33).
att(138,32).
att(138,31).
att(138,30).
att(138,29).
att(138,28).
att(138,27).
att(138,26).
att(138,25).
att(138,24).
att(138,23).
att(138,22).
att(138,20).
att(138,19).
att(138,18).
att(138,15).
att(138,13).
att(138,12).
att(138,11).
att(138,10).
att(138,9).
att(138,8).
att(138,4).
att(138,3).
att(138,2).
att(137,182).
att(137,180).
att(137,179).
att(137,178).
att(137,177).
att(137,176).
att(137,175).
att(137,174).
att(137,173).
att(137,172).
att(137,171).
att(137,170).
att(137,169).
att(137,168).
att(137,167).
att(137,166).
att(137,165).
att(137,164).
att(137,163).
att(137,161).
att(137,160).
att(137,158).
att(137,157).
att(137,155).
att(137,153).
att(137,152).
att(137,151).
att(137,150).
att(137,149).
att(137,148).
att(137,145).
att(137,144).
att(137,143).
att(137,141).
att(137,138).
att(137,137).
att(137,136).
att(137,132).
att(137,131).
att(137,130).
att(137,129).
att(137,128).
att(137,127).
att(137,126).
att(137,124).
att(137,123).
att(137,122).
att(137,121).
att(137,120).
att(137,118).
att(137,116).
att(137,115).
att(137,114).
att(137,113).
att(137,112).
att(137,111).
att(137,110).
att(137,109).
att(137,108).
att(137,107).
att(137,106).
att(137,105).
att(137,104).
att(137,103).
att(137,102).
att(137,101).
att(137,100).
att(137,98).
att(137,97).
att(137,95).
att(137,93).
att(137,92).
att(137,91).
att(137,90).
att(137,89).
att(137,88).
att(137,87).
att(137,86).
att(137,84).
att(137,81).
att(137,80).
att(137,78).
att(137,77).
att(137,76).
att(137,73).
att(137,72).
att(137,71).
att(137,70).
att(137,69).
att(137,66).
att(137,65).
att(137,62).
att(137,61).
att(137,59).
att(137,58).
att(137,57).
att(137,56).
att(137,55).
att(137,53).
att(137,52).
att(137,51).
att(137,50).
att(137,49).
att(137,48).
att(137,46).
att(137,45).
att(137,44).
att(137,42).
att(137,40).
att(137,39).
att(137,38).
att(137,36).
att(137,35).
att(137,32).
att(137,30).
att(137,29).
att(137,28).
att(137,27).
att(137,26).
att(137,24).
att(137,23).
att(137,22).
att(137,20).
att(137,19).
att(137,18).
att(137,15).
att(137,13).
att(137,12).
att(137,11).
att(137,10).
att(137,9).
att(137,8).
att(137,4).
att(137,3).
att(137,2).
att(136,182).
att(136,181).
att(136,179).
att(136,178).
att(136,177).
att(136,176).
att(136,175).
att(136,174).
att(136,173).
att(136,172).
att(136,171).
att(136,170).
att(136,168).
att(136,167).
att(136,163).
att(136,162).
att(136,160).
att(136,159).
att(136,158).
att(136,157).
att(136,155).
att(136,151).
att(136,150).
att(136,149).
att(136,148).
att(136,147).
att(136,145).
att(136,141).
att(136,139).
att(136,138).
att(136,137).
att(136,136).
att(136,134).
att(136,132).
att(136,131).
att(136,130).
att(136,129).
att(136,128).
att(136,127).
att(136,126).
att(136,124).
att(136,123).
att(136,121).
att(136,120).
att(136,118).
att(136,116).
att(136,111).
att(136,107).
att(136,106).
att(136,105).
att(136,104).
att(136,103).
att(136,102).
att(136,101).
att(136,100).
att(136,99).
att(136,98).
att(136,95).
att(136,93).
att(136,91).
att(136,89).
att(136,87).
att(136,86).
att(136,84).
att(136,82).
att(136,81).
att(136,80).
att(136,79).
att(136,78).
att(136,73).
att(136,72).
att(136,71).
att(136,68).
att(136,65).
att(136,64).
att(136,61).
att(136,60).
att(136,59).
att(136,58).
att(136,56).
att(136,55).
att(136,52).
att(136,51).
att(136,50).
att(136,49).
att(136,48).
att(136,46).
att(136,44).
att(136,43).
att(136,42).
att(136,41).
att(136,40).
att(136,39).
att(136,38).
att(136,35).
att(136,33).
att(136,32).
att(136,31).
att(136,29).
att(136,28).
att(136,27).
att(136,26).
att(136,25).
att(136,22).
att(136,20).
att(136,19).
att(136,18).
att(136,15).
att(136,13).
att(136,12).
att(136,11).
att(136,10).
att(136,8).
att(136,6).
att(136,4).
att(136,2).
att(135,182).
att(135,181).
att(135,180).
att(135,179).
att(135,178).
att(135,177).
att(135,176).
att(135,175).
att(135,174).
att(135,173).
att(135,170).
att(135,169).
att(135,168).
att(135,166).
att(135,165).
att(135,164).
att(135,163).
att(135,161).
att(135,160).
att(135,159).
att(135,158).
att(135,157).
att(135,155).
att(135,154).
att(135,153).
att(135,152).
att(135,151).
att(135,150).
att(135,149).
att(135,148).
att(135,147).
att(135,146).
att(135,145).
att(135,144).
att(135,143).
att(135,139).
att(135,138).
att(135,137).
att(135,136).
att(135,134).
att(135,133).
att(135,132).
att(135,131).
att(135,130).
att(135,129).
att(135,127).
att(135,124).
att(135,123).
att(135,122).
att(135,121).
att(135,120).
att(135,118).
att(135,117).
att(135,116).
att(135,115).
att(135,113).
att(135,112).
att(135,111).
att(135,110).
att(135,108).
att(135,107).
att(135,106).
att(135,105).
att(135,104).
att(135,103).
att(135,102).
att(135,101).
att(135,100).
att(135,99).
att(135,98).
att(135,97).
att(135,96).
att(135,95).
att(135,94).
att(135,93).
att(135,92).
att(135,91).
att(135,89).
att(135,88).
att(135,87).
att(135,86).
att(135,85).
att(135,84).
att(135,82).
att(135,81).
att(135,80).
att(135,79).
att(135,78).
att(135,77).
att(135,76).
att(135,75).
att(135,73).
att(135,72).
att(135,71).
att(135,70).
att(135,69).
att(135,68).
att(135,65).
att(135,64).
att(135,63).
att(135,62).
att(135,60).
att(135,59).
att(135,58).
att(135,57).
att(135,56).
att(135,55).
att(135,54).
att(135,53).
att(135,52).
att(135,51).
att(135,50).
att(135,49).
att(135,48).
att(135,46).
att(135,44).
att(135,43).
att(135,42).
att(135,41).
att(135,40).
att(135,39).
att(135,38).
att(135,35).
att(135,33).
att(135,32).
att(135,31).
att(135,30).
att(135,29).
att(135,28).
att(135,27).
att(135,26).
att(135,25).
att(135,23).
att(135,22).
att(135,20).
att(135,19).
att(135,15).
att(135,13).
att(135,12).
att(135,11).
att(135,10).
att(135,8).
att(135,4).
att(135,3).
att(135,2).
att(134,182).
att(134,181).
att(134,180).
att(134,179).
att(134,178).
att(134,177).
att(134,176).
att(134,175).
att(134,174).
att(134,173).
att(134,172).
att(134,171).
att(134,170).
att(134,169).
att(134,168).
att(134,167).
att(134,166).
att(134,165).
att(134,164).
att(134,163).
att(134,161).
att(134,160).
att(134,159).
att(134,158).
att(134,157).
att(134,155).
att(134,154).
att(134,153).
att(134,152).
att(134,151).
att(134,150).
att(134,149).
att(134,148).
att(134,147).
att(134,146).
att(134,145).
att(134,144).
att(134,143).
att(134,141).
att(134,139).
att(134,138).
att(134,137).
att(134,136).
att(134,134).
att(134,133).
att(134,132).
att(134,131).
att(134,130).
att(134,129).
att(134,128).
att(134,127).
att(134,124).
att(134,123).
att(134,122).
att(134,121).
att(134,120).
att(134,118).
att(134,117).
att(134,116).
att(134,115).
att(134,114).
att(134,113).
att(134,112).
att(134,111).
att(134,110).
att(134,109).
att(134,108).
att(134,107).
att(134,106).
att(134,105).
att(134,104).
att(134,103).
att(134,102).
att(134,101).
att(134,100).
att(134,99).
att(134,98).
att(134,97).
att(134,96).
att(134,95).
att(134,94).
att(134,93).
att(134,92).
att(134,91).
att(134,90).
att(134,89).
att(134,88).
att(134,87).
att(134,86).
att(134,85).
att(134,84).
att(134,82).
att(134,81).
att(134,80).
att(134,79).
att(134,78).
att(134,77).
att(134,76).
att(134,75).
att(134,73).
att(134,72).
att(134,71).
att(134,70).
att(134,69).
att(134,68).
att(134,66).
att(134,65).
att(134,64).
att(134,63).
att(134,62).
att(134,61).
att(134,60).
att(134,59).
att(134,58).
att(134,57).
att(134,56).
att(134,55).
att(134,54).
att(134,53).
att(134,52).
att(134,51).
att(134,50).
att(134,49).
att(134,48).
att(134,46).
att(134,45).
att(134,44).
att(134,43).
att(134,42).
att(134,41).
att(134,40).
att(134,39).
att(134,38).
att(134,37).
att(134,36).
att(134,35).
att(134,33).
att(134,32).
att(134,31).
att(134,30).
att(134,29).
att(134,28).
att(134,27).
att(134,26).
att(134,25).
att(134,24).
att(134,23).
att(134,22).
att(134,20).
att(134,19).
att(134,18).
att(134,15).
att(134,13).
att(134,12).
att(134,11).
att(134,10).
att(134,9).
att(134,8).
att(134,4).
att(134,3).
att(134,2).
att(133,182).
att(133,181).
att(133,180).
att(133,179).
att(133,178).
att(133,177).
att(133,176).
att(133,175).
att(133,174).
att(133,173).
att(133,170).
att(133,169).
att(133,168).
att(133,166).
att(133,165).
att(133,164).
att(133,163).
att(133,160).
att(133,159).
att(133,158).
att(133,157).
att(133,155).
att(133,154).
att(133,153).
att(133,152).
att(133,151).
att(133,150).
att(133,149).
att(133,148).
att(133,147).
att(133,146).
att(133,145).
att(133,144).
att(133,143).
att(133,139).
att(133,138).
att(133,137).
att(133,136).
att(133,134).
att(133,133).
att(133,132).
att(133,131).
att(133,130).
att(133,129).
att(133,127).
att(133,124).
att(133,123).
att(133,122).
att(133,121).
att(133,120).
att(133,118).
att(133,117).
att(133,116).
att(133,115).
att(133,113).
att(133,112).
att(133,111).
att(133,110).
att(133,108).
att(133,107).
att(133,106).
att(133,105).
att(133,104).
att(133,103).
att(133,102).
att(133,101).
att(133,100).
att(133,99).
att(133,98).
att(133,97).
att(133,96).
att(133,95).
att(133,93).
att(133,92).
att(133,91).
att(133,89).
att(133,87).
att(133,86).
att(133,85).
att(133,84).
att(133,82).
att(133,81).
att(133,80).
att(133,79).
att(133,78).
att(133,77).
att(133,76).
att(133,75).
att(133,73).
att(133,72).
att(133,71).
att(133,70).
att(133,69).
att(133,68).
att(133,65).
att(133,64).
att(133,63).
att(133,62).
att(133,60).
att(133,59).
att(133,58).
att(133,56).
att(133,55).
att(133,54).
att(133,53).
att(133,52).
att(133,51).
att(133,50).
att(133,49).
att(133,48).
att(133,46).
att(133,44).
att(133,43).
att(133,42).
att(133,41).
att(133,40).
att(133,39).
att(133,38).
att(133,37).
att(133,35).
att(133,33).
att(133,31).
att(133,30).
att(133,29).
att(133,28).
att(133,27).
att(133,26).
att(133,25).
att(133,23).
att(133,22).
att(133,20).
att(133,19).
att(133,15).
att(133,13).
att(133,12).
att(133,11).
att(133,10).
att(133,8).
att(133,4).
att(133,3).
att(133,2).
att(132,182).
att(132,181).
att(132,180).
att(132,179).
att(132,178).
att(132,177).
att(132,176).
att(132,175).
att(132,174).
att(132,173).
att(132,172).
att(132,170).
att(132,169).
att(132,168).
att(132,167).
att(132,166).
att(132,165).
att(132,164).
att(132,163).
att(132,160).
att(132,159).
att(132,158).
att(132,157).
att(132,155).
att(132,154).
att(132,153).
att(132,152).
att(132,151).
att(132,150).
att(132,149).
att(132,148).
att(132,147).
att(132,146).
att(132,145).
att(132,144).
att(132,143).
att(132,141).
att(132,139).
att(132,138).
att(132,137).
att(132,136).
att(132,134).
att(132,133).
att(132,132).
att(132,131).
att(132,130).
att(132,129).
att(132,127).
att(132,126).
att(132,124).
att(132,123).
att(132,122).
att(132,121).
att(132,120).
att(132,118).
att(132,117).
att(132,116).
att(132,115).
att(132,114).
att(132,113).
att(132,112).
att(132,111).
att(132,110).
att(132,109).
att(132,108).
att(132,107).
att(132,106).
att(132,105).
att(132,104).
att(132,103).
att(132,102).
att(132,101).
att(132,100).
att(132,99).
att(132,98).
att(132,97).
att(132,96).
att(132,95).
att(132,93).
att(132,92).
att(132,91).
att(132,90).
att(132,89).
att(132,87).
att(132,86).
att(132,85).
att(132,84).
att(132,82).
att(132,81).
att(132,80).
att(132,79).
att(132,78).
att(132,77).
att(132,76).
att(132,75).
att(132,73).
att(132,72).
att(132,71).
att(132,70).
att(132,69).
att(132,68).
att(132,66).
att(132,65).
att(132,64).
att(132,63).
att(132,62).
att(132,60).
att(132,59).
att(132,58).
att(132,56).
att(132,55).
att(132,54).
att(132,53).
att(132,52).
att(132,51).
att(132,50).
att(132,49).
att(132,48).
att(132,46).
att(132,44).
att(132,43).
att(132,42).
att(132,41).
att(132,40).
att(132,39).
att(132,38).
att(132,36).
att(132,35).
att(132,33).
att(132,32).
att(132,31).
att(132,30).
att(132,29).
att(132,28).
att(132,27).
att(132,26).
att(132,25).
att(132,23).
att(132,22).
att(132,21).
att(132,20).
att(132,19).
att(132,18).
att(132,15).
att(132,13).
att(132,12).
att(132,11).
att(132,10).
att(132,9).
att(132,8).
att(132,6).
att(132,4).
att(132,3).
att(132,2).
att(131,182).
att(131,180).
att(131,179).
att(131,178).
att(131,177).
att(131,176).
att(131,175).
att(131,174).
att(131,173).
att(131,172).
att(131,171).
att(131,170).
att(131,169).
att(131,168).
att(131,167).
att(131,166).
att(131,165).
att(131,164).
att(131,163).
att(131,161).
att(131,160).
att(131,158).
att(131,157).
att(131,155).
att(131,153).
att(131,152).
att(131,151).
att(131,150).
att(131,149).
att(131,148).
att(131,147).
att(131,145).
att(131,144).
att(131,143).
att(131,141).
att(131,138).
att(131,137).
att(131,136).
att(131,132).
att(131,131).
att(131,130).
att(131,129).
att(131,128).
att(131,127).
att(131,124).
att(131,123).
att(131,122).
att(131,121).
att(131,120).
att(131,118).
att(131,116).
att(131,115).
att(131,114).
att(131,113).
att(131,112).
att(131,111).
att(131,110).
att(131,109).
att(131,108).
att(131,107).
att(131,106).
att(131,105).
att(131,104).
att(131,103).
att(131,102).
att(131,101).
att(131,100).
att(131,98).
att(131,97).
att(131,95).
att(131,93).
att(131,92).
att(131,91).
att(131,90).
att(131,89).
att(131,88).
att(131,87).
att(131,86).
att(131,84).
att(131,81).
att(131,80).
att(131,79).
att(131,78).
att(131,77).
att(131,76).
att(131,73).
att(131,72).
att(131,71).
att(131,70).
att(131,69).
att(131,66).
att(131,65).
att(131,62).
att(131,61).
att(131,59).
att(131,58).
att(131,57).
att(131,56).
att(131,55).
att(131,53).
att(131,52).
att(131,51).
att(131,50).
att(131,49).
att(131,48).
att(131,47).
att(131,46).
att(131,45).
att(131,44).
att(131,42).
att(131,40).
att(131,39).
att(131,38).
att(131,36).
att(131,35).
att(131,32).
att(131,31).
att(131,30).
att(131,29).
att(131,28).
att(131,27).
att(131,26).
att(131,24).
att(131,23).
att(131,22).
att(131,20).
att(131,19).
att(131,18).
att(131,15).
att(131,13).
att(131,12).
att(131,11).
att(131,10).
att(131,9).
att(131,8).
att(131,4).
att(131,3).
att(131,2).
att(130,182).
att(130,181).
att(130,180).
att(130,179).
att(130,178).
att(130,177).
att(130,176).
att(130,175).
att(130,174).
att(130,173).
att(130,172).
att(130,170).
att(130,169).
att(130,168).
att(130,167).
att(130,166).
att(130,165).
att(130,164).
att(130,163).
att(130,160).
att(130,159).
att(130,158).
att(130,157).
att(130,155).
att(130,154).
att(130,153).
att(130,152).
att(130,151).
att(130,150).
att(130,149).
att(130,148).
att(130,147).
att(130,146).
att(130,145).
att(130,144).
att(130,143).
att(130,141).
att(130,139).
att(130,138).
att(130,137).
att(130,136).
att(130,134).
att(130,133).
att(130,132).
att(130,131).
att(130,130).
att(130,129).
att(130,127).
att(130,126).
att(130,124).
att(130,123).
att(130,122).
att(130,121).
att(130,120).
att(130,118).
att(130,117).
att(130,116).
att(130,115).
att(130,114).
att(130,113).
att(130,112).
att(130,111).
att(130,110).
att(130,109).
att(130,108).
att(130,107).
att(130,106).
att(130,105).
att(130,104).
att(130,103).
att(130,102).
att(130,101).
att(130,100).
att(130,99).
att(130,98).
att(130,97).
att(130,96).
att(130,95).
att(130,93).
att(130,92).
att(130,91).
att(130,90).
att(130,89).
att(130,87).
att(130,86).
att(130,85).
att(130,84).
att(130,82).
att(130,81).
att(130,80).
att(130,79).
att(130,78).
att(130,77).
att(130,76).
att(130,75).
att(130,73).
att(130,72).
att(130,71).
att(130,70).
att(130,69).
att(130,68).
att(130,66).
att(130,65).
att(130,64).
att(130,63).
att(130,62).
att(130,60).
att(130,59).
att(130,58).
att(130,56).
att(130,55).
att(130,54).
att(130,53).
att(130,52).
att(130,51).
att(130,50).
att(130,49).
att(130,48).
att(130,46).
att(130,44).
att(130,43).
att(130,42).
att(130,41).
att(130,40).
att(130,39).
att(130,38).
att(130,36).
att(130,35).
att(130,33).
att(130,32).
att(130,31).
att(130,30).
att(130,29).
att(130,28).
att(130,27).
att(130,26).
att(130,25).
att(130,23).
att(130,22).
att(130,21).
att(130,20).
att(130,19).
att(130,18).
att(130,15).
att(130,13).
att(130,12).
att(130,11).
att(130,10).
att(130,9).
att(130,8).
att(130,6).
att(130,4).
att(130,3).
att(130,2).
att(129,182).
att(129,181).
att(129,180).
att(129,179).
att(129,178).
att(129,177).
att(129,176).
att(129,175).
att(129,174).
att(129,173).
att(129,172).
att(129,170).
att(129,169).
att(129,168).
att(129,167).
att(129,166).
att(129,165).
att(129,164).
att(129,163).
att(129,161).
att(129,160).
att(129,159).
att(129,158).
att(129,157).
att(129,155).
att(129,154).
att(129,153).
att(129,152).
att(129,151).
att(129,150).
att(129,149).
att(129,148).
att(129,147).
att(129,146).
att(129,145).
att(129,144).
att(129,143).
att(129,142).
att(129,141).
att(129,139).
att(129,138).
att(129,137).
att(129,136).
att(129,135).
att(129,134).
att(129,133).
att(129,132).
att(129,131).
att(129,130).
att(129,129).
att(129,128).
att(129,127).
att(129,124).
att(129,123).
att(129,122).
att(129,121).
att(129,120).
att(129,119).
att(129,118).
att(129,117).
att(129,116).
att(129,115).
att(129,114).
att(129,113).
att(129,112).
att(129,111).
att(129,110).
att(129,108).
att(129,107).
att(129,106).
att(129,105).
att(129,104).
att(129,103).
att(129,102).
att(129,101).
att(129,100).
att(129,99).
att(129,98).
att(129,97).
att(129,96).
att(129,95).
att(129,94).
att(129,93).
att(129,92).
att(129,91).
att(129,89).
att(129,88).
att(129,87).
att(129,86).
att(129,85).
att(129,84).
att(129,83).
att(129,82).
att(129,81).
att(129,80).
att(129,79).
att(129,78).
att(129,77).
att(129,76).
att(129,75).
att(129,73).
att(129,72).
att(129,71).
att(129,70).
att(129,69).
att(129,68).
att(129,66).
att(129,65).
att(129,64).
att(129,63).
att(129,62).
att(129,60).
att(129,59).
att(129,58).
att(129,57).
att(129,56).
att(129,55).
att(129,54).
att(129,53).
att(129,52).
att(129,51).
att(129,50).
att(129,49).
att(129,48).
att(129,47).
att(129,46).
att(129,44).
att(129,43).
att(129,42).
att(129,41).
att(129,40).
att(129,39).
att(129,38).
att(129,37).
att(129,35).
att(129,33).
att(129,32).
att(129,31).
att(129,30).
att(129,29).
att(129,28).
att(129,27).
att(129,26).
att(129,25).
att(129,23).
att(129,22).
att(129,20).
att(129,19).
att(129,18).
att(129,15).
att(129,14).
att(129,13).
att(129,12).
att(129,11).
att(129,10).
att(129,8).
att(129,6).
att(129,4).
att(129,3).
att(129,2).
att(128,182).
att(128,180).
att(128,179).
att(128,178).
att(128,177).
att(128,176).
att(128,175).
att(128,174).
att(128,173).
att(128,172).
att(128,171).
att(128,170).
att(128,169).
att(128,168).
att(128,167).
att(128,166).
att(128,165).
att(128,164).
att(128,163).
att(128,160).
att(128,158).
att(128,157).
att(128,155).
att(128,153).
att(128,152).
att(128,151).
att(128,150).
att(128,149).
att(128,148).
att(128,145).
att(128,144).
att(128,143).
att(128,141).
att(128,138).
att(128,137).
att(128,136).
att(128,132).
att(128,131).
att(128,130).
att(128,129).
att(128,128).
att(128,127).
att(128,124).
att(128,123).
att(128,122).
att(128,121).
att(128,120).
att(128,118).
att(128,116).
att(128,115).
att(128,114).
att(128,113).
att(128,112).
att(128,111).
att(128,110).
att(128,109).
att(128,108).
att(128,107).
att(128,106).
att(128,105).
att(128,104).
att(128,103).
att(128,102).
att(128,101).
att(128,100).
att(128,98).
att(128,97).
att(128,95).
att(128,94).
att(128,93).
att(128,92).
att(128,91).
att(128,90).
att(128,89).
att(128,88).
att(128,87).
att(128,86).
att(128,84).
att(128,81).
att(128,80).
att(128,78).
att(128,77).
att(128,76).
att(128,73).
att(128,72).
att(128,71).
att(128,70).
att(128,69).
att(128,66).
att(128,65).
att(128,62).
att(128,61).
att(128,59).
att(128,58).
att(128,57).
att(128,56).
att(128,55).
att(128,53).
att(128,52).
att(128,51).
att(128,50).
att(128,49).
att(128,48).
att(128,46).
att(128,45).
att(128,44).
att(128,42).
att(128,40).
att(128,39).
att(128,38).
att(128,36).
att(128,35).
att(128,32).
att(128,30).
att(128,29).
att(128,28).
att(128,27).
att(128,26).
att(128,24).
att(128,23).
att(128,22).
att(128,20).
att(128,19).
att(128,18).
att(128,15).
att(128,13).
att(128,12).
att(128,11).
att(128,10).
att(128,9).
att(128,8).
att(128,4).
att(128,3).
att(128,2).
att(127,182).
att(127,181).
att(127,180).
att(127,179).
att(127,178).
att(127,177).
att(127,176).
att(127,175).
att(127,174).
att(127,173).
att(127,172).
att(127,171).
att(127,170).
att(127,169).
att(127,168).
att(127,167).
att(127,166).
att(127,165).
att(127,164).
att(127,163).
att(127,161).
att(127,160).
att(127,159).
att(127,158).
att(127,157).
att(127,155).
att(127,154).
att(127,153).
att(127,152).
att(127,151).
att(127,150).
att(127,149).
att(127,148).
att(127,147).
att(127,146).
att(127,145).
att(127,144).
att(127,143).
att(127,141).
att(127,139).
att(127,138).
att(127,137).
att(127,136).
att(127,134).
att(127,133).
att(127,132).
att(127,131).
att(127,130).
att(127,129).
att(127,128).
att(127,127).
att(127,124).
att(127,123).
att(127,122).
att(127,121).
att(127,120).
att(127,118).
att(127,117).
att(127,116).
att(127,115).
att(127,114).
att(127,113).
att(127,112).
att(127,111).
att(127,110).
att(127,109).
att(127,108).
att(127,107).
att(127,106).
att(127,105).
att(127,104).
att(127,103).
att(127,102).
att(127,101).
att(127,100).
att(127,99).
att(127,98).
att(127,97).
att(127,96).
att(127,95).
att(127,93).
att(127,92).
att(127,91).
att(127,90).
att(127,89).
att(127,88).
att(127,87).
att(127,86).
att(127,85).
att(127,84).
att(127,82).
att(127,81).
att(127,80).
att(127,79).
att(127,78).
att(127,77).
att(127,76).
att(127,75).
att(127,73).
att(127,72).
att(127,71).
att(127,70).
att(127,69).
att(127,68).
att(127,66).
att(127,65).
att(127,64).
att(127,63).
att(127,62).
att(127,61).
att(127,60).
att(127,59).
att(127,58).
att(127,57).
att(127,56).
att(127,55).
att(127,54).
att(127,53).
att(127,52).
att(127,51).
att(127,50).
att(127,49).
att(127,48).
att(127,47).
att(127,46).
att(127,45).
att(127,44).
att(127,43).
att(127,42).
att(127,41).
att(127,40).
att(127,39).
att(127,38).
att(127,37).
att(127,36).
att(127,35).
att(127,33).
att(127,32).
att(127,31).
att(127,30).
att(127,29).
att(127,28).
att(127,27).
att(127,26).
att(127,25).
att(127,24).
att(127,23).
att(127,22).
att(127,20).
att(127,19).
att(127,18).
att(127,15).
att(127,13).
att(127,12).
att(127,11).
att(127,10).
att(127,9).
att(127,8).
att(127,4).
att(127,3).
att(127,2).
att(126,177).
att(126,173).
att(126,170).
att(126,145).
att(126,142).
att(126,141).
att(126,139).
att(126,135).
att(126,134).
att(126,129).
att(126,128).
att(126,121).
att(126,116).
att(126,114).
att(126,108).
att(126,95).
att(126,83).
att(126,82).
att(126,80).
att(126,78).
att(126,58).
att(126,55).
att(126,46).
att(126,41).
att(126,40).
att(126,38).
att(126,33).
att(126,29).
att(126,28).
att(126,26).
att(126,20).
att(126,14).
att(126,12).
att(126,8).
att(126,3).
att(125,179).
att(125,177).
att(125,170).
att(125,168).
att(125,163).
att(125,149).
att(125,129).
att(125,126).
att(125,116).
att(125,111).
att(125,106).
att(125,102).
att(125,95).
att(125,73).
att(125,58).
att(125,55).
att(125,48).
att(125,46).
att(125,42).
att(125,39).
att(125,38).
att(125,29).
att(125,28).
att(125,20).
att(125,11).
att(125,10).
att(125,4).
att(124,182).
att(124,181).
att(124,180).
att(124,179).
att(124,178).
att(124,177).
att(124,176).
att(124,175).
att(124,174).
att(124,173).
att(124,172).
att(124,171).
att(124,170).
att(124,169).
att(124,168).
att(124,167).
att(124,166).
att(124,165).
att(124,164).
att(124,163).
att(124,161).
att(124,160).
att(124,159).
att(124,158).
att(124,157).
att(124,155).
att(124,154).
att(124,153).
att(124,152).
att(124,151).
att(124,150).
att(124,149).
att(124,148).
att(124,147).
att(124,146).
att(124,145).
att(124,144).
att(124,143).
att(124,141).
att(124,139).
att(124,138).
att(124,137).
att(124,136).
att(124,134).
att(124,133).
att(124,132).
att(124,131).
att(124,130).
att(124,129).
att(124,128).
att(124,127).
att(124,125).
att(124,124).
att(124,123).
att(124,122).
att(124,121).
att(124,120).
att(124,118).
att(124,117).
att(124,116).
att(124,115).
att(124,114).
att(124,113).
att(124,112).
att(124,111).
att(124,110).
att(124,109).
att(124,108).
att(124,107).
att(124,106).
att(124,105).
att(124,104).
att(124,103).
att(124,102).
att(124,101).
att(124,100).
att(124,99).
att(124,98).
att(124,97).
att(124,96).
att(124,95).
att(124,93).
att(124,92).
att(124,91).
att(124,90).
att(124,89).
att(124,88).
att(124,87).
att(124,86).
att(124,85).
att(124,84).
att(124,82).
att(124,81).
att(124,80).
att(124,79).
att(124,78).
att(124,77).
att(124,76).
att(124,75).
att(124,73).
att(124,72).
att(124,71).
att(124,70).
att(124,69).
att(124,68).
att(124,66).
att(124,65).
att(124,64).
att(124,63).
att(124,62).
att(124,61).
att(124,60).
att(124,59).
att(124,58).
att(124,57).
att(124,56).
att(124,55).
att(124,54).
att(124,53).
att(124,52).
att(124,51).
att(124,50).
att(124,49).
att(124,48).
att(124,47).
att(124,46).
att(124,45).
att(124,44).
att(124,43).
att(124,42).
att(124,41).
att(124,40).
att(124,39).
att(124,38).
att(124,36).
att(124,35).
att(124,33).
att(124,32).
att(124,31).
att(124,30).
att(124,29).
att(124,28).
att(124,27).
att(124,26).
att(124,25).
att(124,24).
att(124,23).
att(124,22).
att(124,21).
att(124,20).
att(124,19).
att(124,18).
att(124,15).
att(124,13).
att(124,12).
att(124,11).
att(124,10).
att(124,9).
att(124,8).
att(124,4).
att(124,3).
att(124,2).
att(123,182).
att(123,181).
att(123,180).
att(123,179).
att(123,178).
att(123,177).
att(123,176).
att(123,175).
att(123,174).
att(123,173).
att(123,172).
att(123,171).
att(123,170).
att(123,169).
att(123,168).
att(123,167).
att(123,166).
att(123,165).
att(123,164).
att(123,163).
att(123,162).
att(123,160).
att(123,159).
att(123,158).
att(123,157).
att(123,155).
att(123,154).
att(123,153).
att(123,152).
att(123,151).
att(123,150).
att(123,149).
att(123,148).
att(123,147).
att(123,146).
att(123,145).
att(123,144).
att(123,143).
att(123,141).
att(123,139).
att(123,138).
att(123,137).
att(123,136).
att(123,134).
att(123,133).
att(123,132).
att(123,131).
att(123,130).
att(123,129).
att(123,128).
att(123,127).
att(123,126).
att(123,124).
att(123,123).
att(123,122).
att(123,121).
att(123,120).
att(123,118).
att(123,117).
att(123,116).
att(123,115).
att(123,114).
att(123,113).
att(123,112).
att(123,111).
att(123,110).
att(123,109).
att(123,108).
att(123,107).
att(123,106).
att(123,105).
att(123,104).
att(123,103).
att(123,102).
att(123,101).
att(123,100).
att(123,99).
att(123,98).
att(123,97).
att(123,96).
att(123,95).
att(123,93).
att(123,92).
att(123,91).
att(123,90).
att(123,89).
att(123,87).
att(123,86).
att(123,85).
att(123,84).
att(123,82).
att(123,81).
att(123,80).
att(123,79).
att(123,78).
att(123,77).
att(123,76).
att(123,75).
att(123,73).
att(123,72).
att(123,71).
att(123,70).
att(123,69).
att(123,68).
att(123,66).
att(123,65).
att(123,64).
att(123,63).
att(123,62).
att(123,61).
att(123,60).
att(123,59).
att(123,58).
att(123,56).
att(123,55).
att(123,54).
att(123,53).
att(123,52).
att(123,51).
att(123,50).
att(123,49).
att(123,48).
att(123,46).
att(123,44).
att(123,43).
att(123,42).
att(123,41).
att(123,40).
att(123,39).
att(123,38).
att(123,36).
att(123,35).
att(123,33).
att(123,32).
att(123,31).
att(123,30).
att(123,29).
att(123,28).
att(123,27).
att(123,26).
att(123,25).
att(123,23).
att(123,22).
att(123,21).
att(123,20).
att(123,19).
att(123,18).
att(123,15).
att(123,13).
att(123,12).
att(123,11).
att(123,10).
att(123,9).
att(123,8).
att(123,6).
att(123,4).
att(123,3).
att(123,2).
att(122,182).
att(122,181).
att(122,180).
att(122,179).
att(122,178).
att(122,177).
att(122,176).
att(122,175).
att(122,174).
att(122,173).
att(122,170).
att(122,169).
att(122,168).
att(122,166).
att(122,165).
att(122,164).
att(122,163).
att(122,160).
att(122,159).
att(122,158).
att(122,157).
att(122,155).
att(122,154).
att(122,153).
att(122,152).
att(122,151).
att(122,150).
att(122,149).
att(122,148).
att(122,147).
att(122,146).
att(122,145).
att(122,144).
att(122,143).
att(122,139).
att(122,138).
att(122,137).
att(122,136).
att(122,134).
att(122,133).
att(122,132).
att(122,131).
att(122,130).
att(122,129).
att(122,127).
att(122,124).
att(122,123).
att(122,122).
att(122,121).
att(122,120).
att(122,118).
att(122,117).
att(122,116).
att(122,115).
att(122,113).
att(122,112).
att(122,111).
att(122,110).
att(122,108).
att(122,107).
att(122,106).
att(122,105).
att(122,104).
att(122,103).
att(122,102).
att(122,101).
att(122,100).
att(122,99).
att(122,98).
att(122,97).
att(122,96).
att(122,95).
att(122,93).
att(122,92).
att(122,91).
att(122,89).
att(122,87).
att(122,86).
att(122,85).
att(122,84).
att(122,82).
att(122,81).
att(122,80).
att(122,79).
att(122,78).
att(122,77).
att(122,76).
att(122,75).
att(122,73).
att(122,72).
att(122,71).
att(122,70).
att(122,69).
att(122,68).
att(122,65).
att(122,64).
att(122,63).
att(122,62).
att(122,60).
att(122,59).
att(122,58).
att(122,56).
att(122,55).
att(122,54).
att(122,53).
att(122,52).
att(122,51).
att(122,50).
att(122,49).
att(122,48).
att(122,46).
att(122,44).
att(122,43).
att(122,42).
att(122,41).
att(122,40).
att(122,39).
att(122,38).
att(122,37).
att(122,35).
att(122,33).
att(122,31).
att(122,30).
att(122,29).
att(122,28).
att(122,27).
att(122,26).
att(122,25).
att(122,23).
att(122,22).
att(122,20).
att(122,19).
att(122,15).
att(122,13).
att(122,12).
att(122,11).
att(122,10).
att(122,8).
att(122,4).
att(122,3).
att(122,2).
att(121,182).
att(121,181).
att(121,180).
att(121,179).
att(121,178).
att(121,177).
att(121,176).
att(121,175).
att(121,174).
att(121,173).
att(121,172).
att(121,171).
att(121,170).
att(121,169).
att(121,168).
att(121,167).
att(121,166).
att(121,165).
att(121,164).
att(121,163).
att(121,160).
att(121,159).
att(121,158).
att(121,157).
att(121,155).
att(121,154).
att(121,153).
att(121,152).
att(121,151).
att(121,150).
att(121,149).
att(121,148).
att(121,147).
att(121,146).
att(121,145).
att(121,144).
att(121,143).
att(121,141).
att(121,139).
att(121,138).
att(121,137).
att(121,136).
att(121,134).
att(121,133).
att(121,132).
att(121,131).
att(121,130).
att(121,129).
att(121,128).
att(121,127).
att(121,125).
att(121,124).
att(121,123).
att(121,122).
att(121,121).
att(121,120).
att(121,118).
att(121,117).
att(121,116).
att(121,115).
att(121,114).
att(121,113).
att(121,112).
att(121,111).
att(121,110).
att(121,109).
att(121,108).
att(121,107).
att(121,106).
att(121,105).
att(121,104).
att(121,103).
att(121,102).
att(121,101).
att(121,100).
att(121,99).
att(121,98).
att(121,97).
att(121,96).
att(121,95).
att(121,94).
att(121,93).
att(121,92).
att(121,91).
att(121,90).
att(121,89).
att(121,88).
att(121,87).
att(121,86).
att(121,85).
att(121,84).
att(121,82).
att(121,81).
att(121,80).
att(121,79).
att(121,78).
att(121,77).
att(121,76).
att(121,75).
att(121,73).
att(121,72).
att(121,71).
att(121,70).
att(121,69).
att(121,68).
att(121,66).
att(121,65).
att(121,64).
att(121,63).
att(121,62).
att(121,61).
att(121,60).
att(121,59).
att(121,58).
att(121,57).
att(121,56).
att(121,55).
att(121,54).
att(121,53).
att(121,52).
att(121,51).
att(121,50).
att(121,49).
att(121,48).
att(121,46).
att(121,45).
att(121,44).
att(121,43).
att(121,42).
att(121,41).
att(121,40).
att(121,39).
att(121,38).
att(121,36).
att(121,35).
att(121,33).
att(121,32).
att(121,31).
att(121,30).
att(121,29).
att(121,28).
att(121,27).
att(121,26).
att(121,25).
att(121,24).
att(121,23).
att(121,22).
att(121,21).
att(121,20).
att(121,19).
att(121,18).
att(121,15).
att(121,13).
att(121,12).
att(121,11).
att(121,10).
att(121,9).
att(121,8).
att(121,4).
att(121,3).
att(121,2).
att(120,182).
att(120,180).
att(120,179).
att(120,178).
att(120,177).
att(120,176).
att(120,175).
att(120,174).
att(120,173).
att(120,170).
att(120,169).
att(120,168).
att(120,166).
att(120,165).
att(120,164).
att(120,163).
att(120,160).
att(120,158).
att(120,157).
att(120,155).
att(120,153).
att(120,152).
att(120,151).
att(120,150).
att(120,149).
att(120,148).
att(120,147).
att(120,145).
att(120,144).
att(120,143).
att(120,140).
att(120,138).
att(120,137).
att(120,136).
att(120,132).
att(120,131).
att(120,130).
att(120,129).
att(120,127).
att(120,126).
att(120,124).
att(120,123).
att(120,122).
att(120,121).
att(120,120).
att(120,119).
att(120,118).
att(120,116).
att(120,115).
att(120,114).
att(120,113).
att(120,112).
att(120,111).
att(120,110).
att(120,109).
att(120,108).
att(120,107).
att(120,106).
att(120,105).
att(120,104).
att(120,103).
att(120,102).
att(120,101).
att(120,100).
att(120,98).
att(120,97).
att(120,95).
att(120,93).
att(120,92).
att(120,91).
att(120,90).
att(120,89).
att(120,87).
att(120,86).
att(120,84).
att(120,81).
att(120,79).
att(120,78).
att(120,77).
att(120,76).
att(120,73).
att(120,72).
att(120,71).
att(120,70).
att(120,69).
att(120,66).
att(120,65).
att(120,62).
att(120,59).
att(120,58).
att(120,56).
att(120,55).
att(120,53).
att(120,52).
att(120,51).
att(120,50).
att(120,49).
att(120,48).
att(120,46).
att(120,44).
att(120,42).
att(120,39).
att(120,38).
att(120,36).
att(120,35).
att(120,32).
att(120,31).
att(120,30).
att(120,29).
att(120,28).
att(120,27).
att(120,26).
att(120,23).
att(120,22).
att(120,21).
att(120,20).
att(120,19).
att(120,18).
att(120,15).
att(120,14).
att(120,13).
att(120,12).
att(120,11).
att(120,10).
att(120,9).
att(120,8).
att(120,7).
att(120,4).
att(120,3).
att(120,2).
att(118,182).
att(118,181).
att(118,180).
att(118,179).
att(118,178).
att(118,177).
att(118,176).
att(118,175).
att(118,174).
att(118,173).
att(118,172).
att(118,171).
att(118,170).
att(118,169).
att(118,168).
att(118,167).
att(118,166).
att(118,165).
att(118,164).
att(118,163).
att(118,160).
att(118,159).
att(118,158).
att(118,157).
att(118,155).
att(118,154).
att(118,153).
att(118,152).
att(118,151).
att(118,150).
att(118,149).
att(118,148).
att(118,147).
att(118,146).
att(118,145).
att(118,144).
att(118,143).
att(118,141).
att(118,139).
att(118,138).
att(118,137).
att(118,136).
att(118,134).
att(118,133).
att(118,132).
att(118,131).
att(118,130).
att(118,129).
att(118,128).
att(118,127).
att(118,124).
att(118,123).
att(118,122).
att(118,121).
att(118,120).
att(118,118).
att(118,117).
att(118,116).
att(118,115).
att(118,114).
att(118,113).
att(118,112).
att(118,111).
att(118,110).
att(118,109).
att(118,108).
att(118,107).
att(118,106).
att(118,105).
att(118,104).
att(118,103).
att(118,102).
att(118,101).
att(118,100).
att(118,99).
att(118,98).
att(118,97).
att(118,96).
att(118,95).
att(118,93).
att(118,92).
att(118,91).
att(118,90).
att(118,89).
att(118,88).
att(118,87).
att(118,86).
att(118,85).
att(118,84).
att(118,82).
att(118,81).
att(118,80).
att(118,79).
att(118,78).
att(118,77).
att(118,76).
att(118,75).
att(118,73).
att(118,72).
att(118,71).
att(118,70).
att(118,69).
att(118,68).
att(118,66).
att(118,65).
att(118,64).
att(118,63).
att(118,62).
att(118,61).
att(118,60).
att(118,59).
att(118,58).
att(118,57).
att(118,56).
att(118,55).
att(118,54).
att(118,53).
att(118,52).
att(118,51).
att(118,50).
att(118,49).
att(118,48).
att(118,46).
att(118,45).
att(118,44).
att(118,43).
att(118,42).
att(118,41).
att(118,40).
att(118,39).
att(118,38).
att(118,37).
att(118,36).
att(118,35).
att(118,33).
att(118,32).
att(118,31).
att(118,30).
att(118,29).
att(118,28).
att(118,27).
att(118,26).
att(118,25).
att(118,24).
att(118,23).
att(118,22).
att(118,20).
att(118,19).
att(118,18).
att(118,15).
att(118,13).
att(118,12).
att(118,11).
att(118,10).
att(118,9).
att(118,8).
att(118,4).
att(118,3).
att(118,2).
att(117,182).
att(117,181).
att(117,180).
att(117,179).
att(117,178).
att(117,177).
att(117,176).
att(117,175).
att(117,174).
att(117,173).
att(117,170).
att(117,169).
att(117,168).
att(117,166).
att(117,165).
att(117,164).
att(117,163).
att(117,161).
att(117,160).
att(117,159).
att(117,158).
att(117,157).
att(117,155).
att(117,154).
att(117,153).
att(117,152).
att(117,151).
att(117,150).
att(117,149).
att(117,148).
att(117,147).
att(117,146).
att(117,145).
att(117,144).
att(117,143).
att(117,139).
att(117,138).
att(117,137).
att(117,136).
att(117,134).
att(117,133).
att(117,132).
att(117,131).
att(117,130).
att(117,129).
att(117,127).
att(117,124).
att(117,123).
att(117,122).
att(117,121).
att(117,120).
att(117,118).
att(117,116).
att(117,115).
att(117,113).
att(117,112).
att(117,111).
att(117,110).
att(117,108).
att(117,107).
att(117,106).
att(117,105).
att(117,104).
att(117,103).
att(117,102).
att(117,101).
att(117,100).
att(117,99).
att(117,98).
att(117,97).
att(117,95).
att(117,93).
att(117,92).
att(117,91).
att(117,89).
att(117,87).
att(117,86).
att(117,85).
att(117,84).
att(117,82).
att(117,81).
att(117,80).
att(117,79).
att(117,78).
att(117,77).
att(117,76).
att(117,75).
att(117,73).
att(117,72).
att(117,71).
att(117,70).
att(117,69).
att(117,68).
att(117,65).
att(117,64).
att(117,63).
att(117,62).
att(117,60).
att(117,59).
att(117,58).
att(117,56).
att(117,55).
att(117,54).
att(117,53).
att(117,52).
att(117,51).
att(117,50).
att(117,49).
att(117,48).
att(117,46).
att(117,44).
att(117,43).
att(117,42).
att(117,41).
att(117,40).
att(117,39).
att(117,38).
att(117,35).
att(117,33).
att(117,31).
att(117,30).
att(117,29).
att(117,28).
att(117,27).
att(117,26).
att(117,25).
att(117,23).
att(117,22).
att(117,20).
att(117,19).
att(117,15).
att(117,13).
att(117,12).
att(117,11).
att(117,10).
att(117,8).
att(117,4).
att(117,3).
att(117,2).
att(116,182).
att(116,181).
att(116,180).
att(116,179).
att(116,178).
att(116,177).
att(116,176).
att(116,175).
att(116,174).
att(116,173).
att(116,172).
att(116,170).
att(116,169).
att(116,168).
att(116,167).
att(116,166).
att(116,165).
att(116,164).
att(116,163).
att(116,161).
att(116,160).
att(116,159).
att(116,158).
att(116,157).
att(116,155).
att(116,154).
att(116,153).
att(116,152).
att(116,151).
att(116,150).
att(116,149).
att(116,148).
att(116,147).
att(116,146).
att(116,145).
att(116,144).
att(116,143).
att(116,142).
att(116,141).
att(116,139).
att(116,138).
att(116,137).
att(116,136).
att(116,135).
att(116,134).
att(116,133).
att(116,132).
att(116,131).
att(116,130).
att(116,129).
att(116,128).
att(116,127).
att(116,126).
att(116,124).
att(116,123).
att(116,122).
att(116,121).
att(116,120).
att(116,119).
att(116,118).
att(116,117).
att(116,116).
att(116,115).
att(116,114).
att(116,113).
att(116,112).
att(116,111).
att(116,110).
att(116,109).
att(116,108).
att(116,107).
att(116,106).
att(116,105).
att(116,104).
att(116,103).
att(116,102).
att(116,101).
att(116,100).
att(116,99).
att(116,98).
att(116,97).
att(116,96).
att(116,95).
att(116,94).
att(116,93).
att(116,92).
att(116,91).
att(116,90).
att(116,89).
att(116,88).
att(116,87).
att(116,86).
att(116,85).
att(116,84).
att(116,83).
att(116,82).
att(116,81).
att(116,80).
att(116,79).
att(116,78).
att(116,77).
att(116,76).
att(116,75).
att(116,73).
att(116,72).
att(116,71).
att(116,70).
att(116,69).
att(116,68).
att(116,66).
att(116,65).
att(116,64).
att(116,63).
att(116,62).
att(116,60).
att(116,59).
att(116,58).
att(116,57).
att(116,56).
att(116,55).
att(116,54).
att(116,53).
att(116,52).
att(116,51).
att(116,50).
att(116,49).
att(116,48).
att(116,47).
att(116,46).
att(116,44).
att(116,43).
att(116,42).
att(116,41).
att(116,40).
att(116,39).
att(116,38).
att(116,37).
att(116,36).
att(116,35).
att(116,33).
att(116,32).
att(116,31).
att(116,30).
att(116,29).
att(116,28).
att(116,27).
att(116,26).
att(116,25).
att(116,23).
att(116,22).
att(116,21).
att(116,20).
att(116,19).
att(116,18).
att(116,15).
att(116,14).
att(116,13).
att(116,12).
att(116,11).
att(116,10).
att(116,9).
att(116,8).
att(116,6).
att(116,4).
att(116,3).
att(116,2).
att(115,182).
att(115,181).
att(115,180).
att(115,179).
att(115,178).
att(115,177).
att(115,176).
att(115,175).
att(115,174).
att(115,173).
att(115,170).
att(115,169).
att(115,168).
att(115,166).
att(115,165).
att(115,164).
att(115,163).
att(115,160).
att(115,159).
att(115,158).
att(115,157).
att(115,155).
att(115,154).
att(115,153).
att(115,152).
att(115,151).
att(115,150).
att(115,149).
att(115,148).
att(115,147).
att(115,146).
att(115,145).
att(115,144).
att(115,143).
att(115,139).
att(115,138).
att(115,137).
att(115,136).
att(115,134).
att(115,133).
att(115,132).
att(115,131).
att(115,130).
att(115,129).
att(115,127).
att(115,124).
att(115,123).
att(115,122).
att(115,121).
att(115,120).
att(115,118).
att(115,117).
att(115,116).
att(115,115).
att(115,113).
att(115,112).
att(115,111).
att(115,110).
att(115,108).
att(115,107).
att(115,106).
att(115,105).
att(115,104).
att(115,103).
att(115,102).
att(115,101).
att(115,100).
att(115,99).
att(115,98).
att(115,97).
att(115,96).
att(115,95).
att(115,93).
att(115,92).
att(115,91).
att(115,89).
att(115,87).
att(115,86).
att(115,85).
att(115,84).
att(115,82).
att(115,81).
att(115,80).
att(115,79).
att(115,78).
att(115,77).
att(115,76).
att(115,75).
att(115,73).
att(115,72).
att(115,71).
att(115,70).
att(115,69).
att(115,68).
att(115,65).
att(115,64).
att(115,63).
att(115,62).
att(115,60).
att(115,59).
att(115,58).
att(115,56).
att(115,55).
att(115,54).
att(115,53).
att(115,52).
att(115,51).
att(115,50).
att(115,49).
att(115,48).
att(115,46).
att(115,44).
att(115,43).
att(115,42).
att(115,41).
att(115,40).
att(115,39).
att(115,38).
att(115,37).
att(115,35).
att(115,33).
att(115,31).
att(115,30).
att(115,29).
att(115,28).
att(115,27).
att(115,26).
att(115,25).
att(115,23).
att(115,22).
att(115,20).
att(115,19).
att(115,15).
att(115,13).
att(115,12).
att(115,11).
att(115,10).
att(115,8).
att(115,4).
att(115,3).
att(115,2).
att(114,182).
att(114,180).
att(114,179).
att(114,178).
att(114,177).
att(114,176).
att(114,175).
att(114,174).
att(114,173).
att(114,170).
att(114,169).
att(114,168).
att(114,165).
att(114,164).
att(114,163).
att(114,160).
att(114,158).
att(114,157).
att(114,155).
att(114,153).
att(114,152).
att(114,151).
att(114,150).
att(114,149).
att(114,148).
att(114,143).
att(114,138).
att(114,136).
att(114,132).
att(114,131).
att(114,130).
att(114,129).
att(114,127).
att(114,124).
att(114,123).
att(114,121).
att(114,120).
att(114,116).
att(114,115).
att(114,113).
att(114,111).
att(114,110).
att(114,108).
att(114,107).
att(114,106).
att(114,105).
att(114,104).
att(114,103).
att(114,102).
att(114,101).
att(114,98).
att(114,97).
att(114,95).
att(114,94).
att(114,93).
att(114,92).
att(114,89).
att(114,88).
att(114,87).
att(114,86).
att(114,84).
att(114,81).
att(114,77).
att(114,76).
att(114,73).
att(114,72).
att(114,71).
att(114,70).
att(114,69).
att(114,65).
att(114,62).
att(114,59).
att(114,58).
att(114,57).
att(114,55).
att(114,52).
att(114,51).
att(114,50).
att(114,49).
att(114,48).
att(114,46).
att(114,44).
att(114,42).
att(114,39).
att(114,38).
att(114,35).
att(114,32).
att(114,30).
att(114,29).
att(114,28).
att(114,22).
att(114,20).
att(114,19).
att(114,15).
att(114,13).
att(114,12).
att(114,11).
att(114,10).
att(114,8).
att(114,4).
att(114,3).
att(113,182).
att(113,181).
att(113,180).
att(113,179).
att(113,178).
att(113,177).
att(113,176).
att(113,175).
att(113,174).
att(113,173).
att(113,170).
att(113,169).
att(113,168).
att(113,166).
att(113,165).
att(113,164).
att(113,163).
att(113,161).
att(113,160).
att(113,159).
att(113,158).
att(113,157).
att(113,155).
att(113,154).
att(113,153).
att(113,152).
att(113,151).
att(113,150).
att(113,149).
att(113,148).
att(113,147).
att(113,146).
att(113,145).
att(113,144).
att(113,143).
att(113,139).
att(113,138).
att(113,137).
att(113,136).
att(113,134).
att(113,133).
att(113,132).
att(113,131).
att(113,130).
att(113,129).
att(113,127).
att(113,126).
att(113,124).
att(113,123).
att(113,122).
att(113,121).
att(113,120).
att(113,118).
att(113,117).
att(113,116).
att(113,115).
att(113,114).
att(113,113).
att(113,112).
att(113,111).
att(113,110).
att(113,109).
att(113,108).
att(113,107).
att(113,106).
att(113,105).
att(113,104).
att(113,103).
att(113,102).
att(113,101).
att(113,100).
att(113,99).
att(113,98).
att(113,97).
att(113,96).
att(113,95).
att(113,93).
att(113,92).
att(113,91).
att(113,89).
att(113,87).
att(113,86).
att(113,85).
att(113,84).
att(113,82).
att(113,81).
att(113,80).
att(113,79).
att(113,78).
att(113,77).
att(113,76).
att(113,75).
att(113,73).
att(113,72).
att(113,71).
att(113,70).
att(113,69).
att(113,68).
att(113,65).
att(113,64).
att(113,63).
att(113,62).
att(113,60).
att(113,59).
att(113,58).
att(113,56).
att(113,55).
att(113,54).
att(113,53).
att(113,52).
att(113,51).
att(113,50).
att(113,49).
att(113,48).
att(113,46).
att(113,44).
att(113,43).
att(113,42).
att(113,41).
att(113,40).
att(113,39).
att(113,38).
att(113,35).
att(113,33).
att(113,31).
att(113,30).
att(113,29).
att(113,28).
att(113,27).
att(113,26).
att(113,25).
att(113,23).
att(113,22).
att(113,20).
att(113,19).
att(113,15).
att(113,13).
att(113,12).
att(113,11).
att(113,10).
att(113,9).
att(113,8).
att(113,4).
att(113,3).
att(113,2).
att(113,1).
att(112,182).
att(112,181).
att(112,180).
att(112,179).
att(112,178).
att(112,177).
att(112,176).
att(112,175).
att(112,174).
att(112,173).
att(112,170).
att(112,169).
att(112,168).
att(112,166).
att(112,165).
att(112,164).
att(112,163).
att(112,160).
att(112,159).
att(112,158).
att(112,157).
att(112,155).
att(112,154).
att(112,153).
att(112,152).
att(112,151).
att(112,150).
att(112,149).
att(112,148).
att(112,147).
att(112,146).
att(112,145).
att(112,144).
att(112,143).
att(112,139).
att(112,138).
att(112,137).
att(112,136).
att(112,134).
att(112,133).
att(112,132).
att(112,131).
att(112,130).
att(112,129).
att(112,127).
att(112,124).
att(112,123).
att(112,122).
att(112,121).
att(112,120).
att(112,118).
att(112,117).
att(112,116).
att(112,115).
att(112,113).
att(112,112).
att(112,111).
att(112,110).
att(112,108).
att(112,107).
att(112,106).
att(112,105).
att(112,104).
att(112,103).
att(112,102).
att(112,101).
att(112,100).
att(112,99).
att(112,98).
att(112,97).
att(112,96).
att(112,95).
att(112,93).
att(112,92).
att(112,91).
att(112,89).
att(112,87).
att(112,86).
att(112,85).
att(112,84).
att(112,82).
att(112,81).
att(112,80).
att(112,79).
att(112,78).
att(112,77).
att(112,76).
att(112,75).
att(112,73).
att(112,72).
att(112,71).
att(112,70).
att(112,69).
att(112,68).
att(112,65).
att(112,64).
att(112,63).
att(112,62).
att(112,60).
att(112,59).
att(112,58).
att(112,56).
att(112,55).
att(112,54).
att(112,53).
att(112,52).
att(112,51).
att(112,50).
att(112,49).
att(112,48).
att(112,46).
att(112,44).
att(112,43).
att(112,42).
att(112,41).
att(112,40).
att(112,39).
att(112,38).
att(112,37).
att(112,35).
att(112,33).
att(112,31).
att(112,30).
att(112,29).
att(112,28).
att(112,27).
att(112,26).
att(112,25).
att(112,23).
att(112,22).
att(112,20).
att(112,19).
att(112,15).
att(112,13).
att(112,12).
att(112,11).
att(112,10).
att(112,8).
att(112,4).
att(112,3).
att(112,2).
att(111,182).
att(111,181).
att(111,180).
att(111,179).
att(111,178).
att(111,177).
att(111,176).
att(111,175).
att(111,174).
att(111,173).
att(111,170).
att(111,169).
att(111,168).
att(111,166).
att(111,165).
att(111,164).
att(111,163).
att(111,160).
att(111,159).
att(111,158).
att(111,157).
att(111,155).
att(111,154).
att(111,153).
att(111,152).
att(111,151).
att(111,150).
att(111,149).
att(111,148).
att(111,147).
att(111,146).
att(111,145).
att(111,144).
att(111,143).
att(111,142).
att(111,141).
att(111,139).
att(111,138).
att(111,137).
att(111,136).
att(111,135).
att(111,134).
att(111,133).
att(111,132).
att(111,131).
att(111,130).
att(111,129).
att(111,128).
att(111,127).
att(111,124).
att(111,123).
att(111,122).
att(111,121).
att(111,120).
att(111,118).
att(111,117).
att(111,116).
att(111,115).
att(111,114).
att(111,113).
att(111,112).
att(111,111).
att(111,110).
att(111,109).
att(111,108).
att(111,107).
att(111,106).
att(111,105).
att(111,104).
att(111,103).
att(111,102).
att(111,101).
att(111,100).
att(111,99).
att(111,98).
att(111,97).
att(111,96).
att(111,95).
att(111,93).
att(111,92).
att(111,91).
att(111,90).
att(111,89).
att(111,87).
att(111,86).
att(111,85).
att(111,84).
att(111,83).
att(111,82).
att(111,81).
att(111,80).
att(111,79).
att(111,78).
att(111,77).
att(111,76).
att(111,75).
att(111,73).
att(111,72).
att(111,71).
att(111,70).
att(111,69).
att(111,68).
att(111,66).
att(111,65).
att(111,64).
att(111,63).
att(111,62).
att(111,60).
att(111,59).
att(111,58).
att(111,56).
att(111,55).
att(111,54).
att(111,53).
att(111,52).
att(111,51).
att(111,50).
att(111,49).
att(111,48).
att(111,46).
att(111,44).
att(111,43).
att(111,42).
att(111,41).
att(111,40).
att(111,39).
att(111,38).
att(111,36).
att(111,35).
att(111,33).
att(111,32).
att(111,31).
att(111,30).
att(111,29).
att(111,28).
att(111,27).
att(111,26).
att(111,25).
att(111,23).
att(111,22).
att(111,21).
att(111,20).
att(111,19).
att(111,18).
att(111,15).
att(111,14).
att(111,13).
att(111,12).
att(111,11).
att(111,10).
att(111,9).
att(111,8).
att(111,4).
att(111,3).
att(111,2).
att(110,182).
att(110,181).
att(110,180).
att(110,179).
att(110,178).
att(110,177).
att(110,176).
att(110,175).
att(110,174).
att(110,173).
att(110,170).
att(110,169).
att(110,168).
att(110,166).
att(110,165).
att(110,164).
att(110,163).
att(110,160).
att(110,159).
att(110,158).
att(110,157).
att(110,155).
att(110,154).
att(110,153).
att(110,152).
att(110,151).
att(110,150).
att(110,149).
att(110,148).
att(110,147).
att(110,146).
att(110,145).
att(110,144).
att(110,143).
att(110,140).
att(110,139).
att(110,138).
att(110,137).
att(110,136).
att(110,134).
att(110,133).
att(110,132).
att(110,131).
att(110,130).
att(110,129).
att(110,127).
att(110,124).
att(110,123).
att(110,122).
att(110,121).
att(110,120).
att(110,119).
att(110,118).
att(110,117).
att(110,116).
att(110,115).
att(110,114).
att(110,113).
att(110,112).
att(110,111).
att(110,110).
att(110,109).
att(110,108).
att(110,107).
att(110,106).
att(110,105).
att(110,104).
att(110,103).
att(110,102).
att(110,101).
att(110,100).
att(110,99).
att(110,98).
att(110,97).
att(110,96).
att(110,95).
att(110,93).
att(110,92).
att(110,91).
att(110,89).
att(110,87).
att(110,86).
att(110,85).
att(110,84).
att(110,82).
att(110,81).
att(110,80).
att(110,79).
att(110,78).
att(110,77).
att(110,76).
att(110,75).
att(110,73).
att(110,72).
att(110,71).
att(110,70).
att(110,69).
att(110,68).
att(110,66).
att(110,65).
att(110,64).
att(110,63).
att(110,62).
att(110,60).
att(110,59).
att(110,58).
att(110,56).
att(110,55).
att(110,54).
att(110,53).
att(110,52).
att(110,51).
att(110,50).
att(110,49).
att(110,48).
att(110,46).
att(110,44).
att(110,43).
att(110,42).
att(110,41).
att(110,40).
att(110,39).
att(110,38).
att(110,37).
att(110,35).
att(110,33).
att(110,31).
att(110,30).
att(110,29).
att(110,28).
att(110,27).
att(110,26).
att(110,25).
att(110,23).
att(110,22).
att(110,20).
att(110,19).
att(110,15).
att(110,14).
att(110,13).
att(110,12).
att(110,11).
att(110,10).
att(110,9).
att(110,8).
att(110,7).
att(110,4).
att(110,3).
att(110,2).
att(109,182).
att(109,180).
att(109,179).
att(109,178).
att(109,176).
att(109,175).
att(109,174).
att(109,173).
att(109,170).
att(109,169).
att(109,168).
att(109,165).
att(109,164).
att(109,163).
att(109,160).
att(109,158).
att(109,157).
att(109,155).
att(109,153).
att(109,152).
att(109,151).
att(109,150).
att(109,149).
att(109,148).
att(109,143).
att(109,138).
att(109,136).
att(109,132).
att(109,131).
att(109,130).
att(109,127).
att(109,124).
att(109,123).
att(109,121).
att(109,120).
att(109,116).
att(109,115).
att(109,113).
att(109,111).
att(109,110).
att(109,108).
att(109,107).
att(109,106).
att(109,105).
att(109,104).
att(109,103).
att(109,102).
att(109,101).
att(109,98).
att(109,97).
att(109,95).
att(109,93).
att(109,92).
att(109,89).
att(109,87).
att(109,84).
att(109,81).
att(109,77).
att(109,76).
att(109,73).
att(109,72).
att(109,71).
att(109,70).
att(109,69).
att(109,65).
att(109,62).
att(109,58).
att(109,51).
att(109,50).
att(109,49).
att(109,48).
att(109,46).
att(109,44).
att(109,42).
att(109,39).
att(109,35).
att(109,30).
att(109,22).
att(109,20).
att(109,19).
att(109,15).
att(109,13).
att(109,12).
att(109,11).
att(109,10).
att(109,8).
att(109,4).
att(109,3).
att(108,182).
att(108,180).
att(108,179).
att(108,178).
att(108,177).
att(108,176).
att(108,175).
att(108,174).
att(108,173).
att(108,170).
att(108,169).
att(108,168).
att(108,165).
att(108,164).
att(108,163).
att(108,160).
att(108,158).
att(108,157).
att(108,155).
att(108,153).
att(108,152).
att(108,151).
att(108,150).
att(108,149).
att(108,148).
att(108,143).
att(108,138).
att(108,136).
att(108,132).
att(108,131).
att(108,130).
att(108,129).
att(108,127).
att(108,124).
att(108,123).
att(108,121).
att(108,120).
att(108,116).
att(108,115).
att(108,113).
att(108,111).
att(108,110).
att(108,108).
att(108,107).
att(108,106).
att(108,105).
att(108,104).
att(108,103).
att(108,102).
att(108,101).
att(108,98).
att(108,97).
att(108,95).
att(108,94).
att(108,93).
att(108,92).
att(108,89).
att(108,88).
att(108,87).
att(108,86).
att(108,84).
att(108,81).
att(108,77).
att(108,76).
att(108,73).
att(108,72).
att(108,71).
att(108,70).
att(108,69).
att(108,65).
att(108,62).
att(108,59).
att(108,58).
att(108,57).
att(108,55).
att(108,52).
att(108,51).
att(108,50).
att(108,49).
att(108,48).
att(108,46).
att(108,44).
att(108,42).
att(108,39).
att(108,38).
att(108,35).
att(108,32).
att(108,30).
att(108,29).
att(108,28).
att(108,22).
att(108,20).
att(108,19).
att(108,15).
att(108,13).
att(108,12).
att(108,11).
att(108,10).
att(108,8).
att(108,4).
att(108,3).
att(107,182).
att(107,181).
att(107,180).
att(107,179).
att(107,178).
att(107,177).
att(107,176).
att(107,175).
att(107,174).
att(107,173).
att(107,172).
att(107,170).
att(107,169).
att(107,168).
att(107,167).
att(107,166).
att(107,165).
att(107,164).
att(107,163).
att(107,161).
att(107,160).
att(107,159).
att(107,158).
att(107,157).
att(107,155).
att(107,154).
att(107,153).
att(107,152).
att(107,151).
att(107,150).
att(107,149).
att(107,148).
att(107,147).
att(107,146).
att(107,145).
att(107,144).
att(107,143).
att(107,141).
att(107,139).
att(107,138).
att(107,137).
att(107,136).
att(107,134).
att(107,133).
att(107,132).
att(107,131).
att(107,130).
att(107,129).
att(107,127).
att(107,126).
att(107,124).
att(107,123).
att(107,122).
att(107,121).
att(107,120).
att(107,118).
att(107,117).
att(107,116).
att(107,115).
att(107,114).
att(107,113).
att(107,112).
att(107,111).
att(107,110).
att(107,109).
att(107,108).
att(107,107).
att(107,106).
att(107,105).
att(107,104).
att(107,103).
att(107,102).
att(107,101).
att(107,100).
att(107,99).
att(107,98).
att(107,97).
att(107,96).
att(107,95).
att(107,93).
att(107,92).
att(107,91).
att(107,90).
att(107,89).
att(107,87).
att(107,86).
att(107,85).
att(107,84).
att(107,82).
att(107,81).
att(107,80).
att(107,79).
att(107,78).
att(107,77).
att(107,76).
att(107,75).
att(107,73).
att(107,72).
att(107,71).
att(107,70).
att(107,69).
att(107,68).
att(107,66).
att(107,65).
att(107,64).
att(107,63).
att(107,62).
att(107,60).
att(107,59).
att(107,58).
att(107,56).
att(107,55).
att(107,54).
att(107,53).
att(107,52).
att(107,51).
att(107,50).
att(107,49).
att(107,48).
att(107,46).
att(107,44).
att(107,43).
att(107,42).
att(107,41).
att(107,40).
att(107,39).
att(107,38).
att(107,36).
att(107,35).
att(107,33).
att(107,32).
att(107,31).
att(107,30).
att(107,29).
att(107,28).
att(107,27).
att(107,26).
att(107,25).
att(107,23).
att(107,22).
att(107,21).
att(107,20).
att(107,19).
att(107,18).
att(107,15).
att(107,13).
att(107,12).
att(107,11).
att(107,10).
att(107,9).
att(107,8).
att(107,6).
att(107,4).
att(107,3).
att(107,2).
att(106,182).
att(106,181).
att(106,180).
att(106,179).
att(106,178).
att(106,177).
att(106,176).
att(106,175).
att(106,174).
att(106,173).
att(106,170).
att(106,169).
att(106,168).
att(106,166).
att(106,165).
att(106,164).
att(106,163).
att(106,160).
att(106,159).
att(106,158).
att(106,157).
att(106,155).
att(106,154).
att(106,153).
att(106,152).
att(106,151).
att(106,150).
att(106,149).
att(106,148).
att(106,147).
att(106,146).
att(106,145).
att(106,144).
att(106,143).
att(106,142).
att(106,141).
att(106,139).
att(106,138).
att(106,137).
att(106,136).
att(106,135).
att(106,134).
att(106,133).
att(106,132).
att(106,131).
att(106,130).
att(106,129).
att(106,128).
att(106,127).
att(106,125).
att(106,124).
att(106,123).
att(106,122).
att(106,121).
att(106,120).
att(106,118).
att(106,117).
att(106,116).
att(106,115).
att(106,114).
att(106,113).
att(106,112).
att(106,111).
att(106,110).
att(106,109).
att(106,108).
att(106,107).
att(106,106).
att(106,105).
att(106,104).
att(106,103).
att(106,102).
att(106,101).
att(106,100).
att(106,99).
att(106,98).
att(106,97).
att(106,96).
att(106,95).
att(106,93).
att(106,92).
att(106,91).
att(106,90).
att(106,89).
att(106,87).
att(106,86).
att(106,85).
att(106,84).
att(106,83).
att(106,82).
att(106,81).
att(106,80).
att(106,79).
att(106,78).
att(106,77).
att(106,76).
att(106,75).
att(106,73).
att(106,72).
att(106,71).
att(106,70).
att(106,69).
att(106,68).
att(106,66).
att(106,65).
att(106,64).
att(106,63).
att(106,62).
att(106,60).
att(106,59).
att(106,58).
att(106,56).
att(106,55).
att(106,54).
att(106,53).
att(106,52).
att(106,51).
att(106,50).
att(106,49).
att(106,48).
att(106,46).
att(106,44).
att(106,43).
att(106,42).
att(106,41).
att(106,40).
att(106,39).
att(106,38).
att(106,36).
att(106,35).
att(106,33).
att(106,32).
att(106,31).
att(106,30).
att(106,29).
att(106,28).
att(106,27).
att(106,26).
att(106,25).
att(106,23).
att(106,22).
att(106,21).
att(106,20).
att(106,19).
att(106,18).
att(106,15).
att(106,14).
att(106,13).
att(106,12).
att(106,11).
att(106,10).
att(106,9).
att(106,8).
att(106,4).
att(106,3).
att(106,2).
att(106,1).
att(105,182).
att(105,181).
att(105,179).
att(105,178).
att(105,177).
att(105,176).
att(105,175).
att(105,174).
att(105,173).
att(105,172).
att(105,171).
att(105,170).
att(105,168).
att(105,167).
att(105,163).
att(105,162).
att(105,160).
att(105,159).
att(105,158).
att(105,157).
att(105,155).
att(105,151).
att(105,150).
att(105,149).
att(105,148).
att(105,147).
att(105,145).
att(105,141).
att(105,139).
att(105,138).
att(105,137).
att(105,136).
att(105,134).
att(105,132).
att(105,131).
att(105,130).
att(105,129).
att(105,128).
att(105,127).
att(105,126).
att(105,124).
att(105,123).
att(105,121).
att(105,120).
att(105,118).
att(105,116).
att(105,111).
att(105,107).
att(105,106).
att(105,105).
att(105,104).
att(105,103).
att(105,102).
att(105,101).
att(105,100).
att(105,99).
att(105,98).
att(105,95).
att(105,93).
att(105,91).
att(105,89).
att(105,87).
att(105,86).
att(105,84).
att(105,82).
att(105,81).
att(105,80).
att(105,79).
att(105,78).
att(105,73).
att(105,72).
att(105,71).
att(105,68).
att(105,65).
att(105,64).
att(105,61).
att(105,60).
att(105,59).
att(105,58).
att(105,56).
att(105,55).
att(105,52).
att(105,51).
att(105,50).
att(105,49).
att(105,48).
att(105,46).
att(105,44).
att(105,43).
att(105,42).
att(105,41).
att(105,40).
att(105,39).
att(105,38).
att(105,35).
att(105,33).
att(105,32).
att(105,31).
att(105,29).
att(105,28).
att(105,27).
att(105,26).
att(105,25).
att(105,22).
att(105,20).
att(105,19).
att(105,18).
att(105,15).
att(105,13).
att(105,12).
att(105,11).
att(105,10).
att(105,8).
att(105,6).
att(105,4).
att(105,2).
att(104,182).
att(104,177).
att(104,176).
att(104,175).
att(104,174).
att(104,173).
att(104,170).
att(104,168).
att(104,166).
att(104,164).
att(104,161).
att(104,160).
att(104,157).
att(104,155).
att(104,153).
att(104,151).
att(104,150).
att(104,148).
att(104,147).
att(104,145).
att(104,144).
att(104,138).
att(104,137).
att(104,136).
att(104,132).
att(104,131).
att(104,130).
att(104,129).
att(104,127).
att(104,124).
att(104,123).
att(104,122).
att(104,121).
att(104,120).
att(104,118).
att(104,116).
att(104,114).
att(104,113).
att(104,112).
att(104,110).
att(104,109).
att(104,107).
att(104,106).
att(104,105).
att(104,102).
att(104,101).
att(104,100).
att(104,98).
att(104,95).
att(104,93).
att(104,92).
att(104,91).
att(104,90).
att(104,89).
att(104,87).
att(104,86).
att(104,85).
att(104,84).
att(104,81).
att(104,79).
att(104,78).
att(104,77).
att(104,72).
att(104,66).
att(104,65).
att(104,59).
att(104,58).
att(104,56).
att(104,55).
att(104,53).
att(104,52).
att(104,51).
att(104,50).
att(104,49).
att(104,48).
att(104,46).
att(104,44).
att(104,42).
att(104,39).
att(104,38).
att(104,36).
att(104,35).
att(104,32).
att(104,31).
att(104,29).
att(104,28).
att(104,27).
att(104,26).
att(104,23).
att(104,22).
att(104,21).
att(104,20).
att(104,19).
att(104,18).
att(104,15).
att(104,13).
att(104,12).
att(104,11).
att(104,10).
att(104,9).
att(104,8).
att(104,4).
att(104,3).
att(104,2).
att(103,182).
att(103,181).
att(103,180).
att(103,179).
att(103,178).
att(103,177).
att(103,176).
att(103,175).
att(103,174).
att(103,173).
att(103,172).
att(103,171).
att(103,170).
att(103,169).
att(103,168).
att(103,167).
att(103,166).
att(103,165).
att(103,164).
att(103,163).
att(103,160).
att(103,159).
att(103,158).
att(103,157).
att(103,155).
att(103,154).
att(103,153).
att(103,152).
att(103,151).
att(103,150).
att(103,149).
att(103,148).
att(103,147).
att(103,146).
att(103,145).
att(103,144).
att(103,143).
att(103,141).
att(103,140).
att(103,139).
att(103,138).
att(103,137).
att(103,136).
att(103,134).
att(103,133).
att(103,132).
att(103,131).
att(103,130).
att(103,129).
att(103,128).
att(103,127).
att(103,126).
att(103,124).
att(103,123).
att(103,122).
att(103,121).
att(103,120).
att(103,119).
att(103,118).
att(103,117).
att(103,116).
att(103,115).
att(103,114).
att(103,113).
att(103,112).
att(103,111).
att(103,110).
att(103,109).
att(103,108).
att(103,107).
att(103,106).
att(103,105).
att(103,104).
att(103,103).
att(103,102).
att(103,101).
att(103,100).
att(103,99).
att(103,98).
att(103,97).
att(103,96).
att(103,95).
att(103,93).
att(103,92).
att(103,91).
att(103,90).
att(103,89).
att(103,88).
att(103,87).
att(103,86).
att(103,85).
att(103,84).
att(103,82).
att(103,81).
att(103,80).
att(103,79).
att(103,78).
att(103,77).
att(103,76).
att(103,75).
att(103,73).
att(103,72).
att(103,71).
att(103,70).
att(103,69).
att(103,68).
att(103,66).
att(103,65).
att(103,64).
att(103,63).
att(103,62).
att(103,61).
att(103,60).
att(103,59).
att(103,58).
att(103,57).
att(103,56).
att(103,55).
att(103,54).
att(103,53).
att(103,52).
att(103,51).
att(103,50).
att(103,49).
att(103,48).
att(103,46).
att(103,45).
att(103,44).
att(103,43).
att(103,42).
att(103,41).
att(103,40).
att(103,39).
att(103,38).
att(103,36).
att(103,35).
att(103,33).
att(103,32).
att(103,31).
att(103,30).
att(103,29).
att(103,28).
att(103,27).
att(103,26).
att(103,25).
att(103,24).
att(103,23).
att(103,22).
att(103,21).
att(103,20).
att(103,19).
att(103,18).
att(103,15).
att(103,14).
att(103,13).
att(103,12).
att(103,11).
att(103,10).
att(103,9).
att(103,8).
att(103,7).
att(103,6).
att(103,4).
att(103,3).
att(103,2).
att(102,182).
att(102,181).
att(102,180).
att(102,179).
att(102,178).
att(102,177).
att(102,176).
att(102,175).
att(102,174).
att(102,173).
att(102,172).
att(102,171).
att(102,170).
att(102,169).
att(102,168).
att(102,167).
att(102,166).
att(102,165).
att(102,164).
att(102,163).
att(102,162).
att(102,161).
att(102,160).
att(102,159).
att(102,158).
att(102,157).
att(102,155).
att(102,154).
att(102,153).
att(102,152).
att(102,151).
att(102,150).
att(102,149).
att(102,148).
att(102,147).
att(102,146).
att(102,145).
att(102,144).
att(102,143).
att(102,142).
att(102,141).
att(102,139).
att(102,138).
att(102,137).
att(102,136).
att(102,135).
att(102,134).
att(102,133).
att(102,132).
att(102,131).
att(102,130).
att(102,129).
att(102,128).
att(102,127).
att(102,124).
att(102,123).
att(102,122).
att(102,121).
att(102,120).
att(102,118).
att(102,117).
att(102,116).
att(102,115).
att(102,114).
att(102,113).
att(102,112).
att(102,111).
att(102,110).
att(102,109).
att(102,108).
att(102,107).
att(102,106).
att(102,105).
att(102,104).
att(102,103).
att(102,102).
att(102,101).
att(102,100).
att(102,99).
att(102,98).
att(102,97).
att(102,96).
att(102,95).
att(102,93).
att(102,92).
att(102,91).
att(102,90).
att(102,89).
att(102,88).
att(102,87).
att(102,86).
att(102,84).
att(102,83).
att(102,82).
att(102,81).
att(102,80).
att(102,79).
att(102,78).
att(102,77).
att(102,76).
att(102,75).
att(102,73).
att(102,72).
att(102,71).
att(102,70).
att(102,69).
att(102,68).
att(102,66).
att(102,65).
att(102,64).
att(102,63).
att(102,62).
att(102,61).
att(102,60).
att(102,59).
att(102,58).
att(102,57).
att(102,56).
att(102,55).
att(102,54).
att(102,53).
att(102,52).
att(102,51).
att(102,50).
att(102,49).
att(102,48).
att(102,47).
att(102,46).
att(102,45).
att(102,44).
att(102,43).
att(102,42).
att(102,41).
att(102,40).
att(102,39).
att(102,38).
att(102,36).
att(102,35).
att(102,33).
att(102,32).
att(102,31).
att(102,30).
att(102,29).
att(102,28).
att(102,27).
att(102,26).
att(102,25).
att(102,24).
att(102,23).
att(102,22).
att(102,20).
att(102,19).
att(102,18).
att(102,17).
att(102,15).
att(102,14).
att(102,13).
att(102,12).
att(102,11).
att(102,10).
att(102,9).
att(102,8).
att(102,7).
att(102,6).
att(102,4).
att(102,3).
att(102,2).
att(101,182).
att(101,181).
att(101,179).
att(101,178).
att(101,177).
att(101,176).
att(101,175).
att(101,174).
att(101,173).
att(101,172).
att(101,171).
att(101,170).
att(101,168).
att(101,167).
att(101,163).
att(101,162).
att(101,161).
att(101,160).
att(101,159).
att(101,158).
att(101,157).
att(101,155).
att(101,153).
att(101,151).
att(101,150).
att(101,149).
att(101,148).
att(101,147).
att(101,145).
att(101,141).
att(101,139).
att(101,138).
att(101,137).
att(101,136).
att(101,134).
att(101,132).
att(101,131).
att(101,130).
att(101,129).
att(101,128).
att(101,127).
att(101,126).
att(101,124).
att(101,123).
att(101,121).
att(101,120).
att(101,118).
att(101,116).
att(101,113).
att(101,111).
att(101,107).
att(101,106).
att(101,105).
att(101,104).
att(101,103).
att(101,102).
att(101,101).
att(101,100).
att(101,99).
att(101,98).
att(101,95).
att(101,93).
att(101,91).
att(101,89).
att(101,87).
att(101,86).
att(101,85).
att(101,84).
att(101,82).
att(101,81).
att(101,80).
att(101,79).
att(101,78).
att(101,73).
att(101,72).
att(101,71).
att(101,68).
att(101,65).
att(101,64).
att(101,61).
att(101,60).
att(101,59).
att(101,58).
att(101,56).
att(101,55).
att(101,52).
att(101,51).
att(101,50).
att(101,49).
att(101,48).
att(101,46).
att(101,44).
att(101,43).
att(101,42).
att(101,41).
att(101,40).
att(101,39).
att(101,38).
att(101,37).
att(101,35).
att(101,33).
att(101,32).
att(101,31).
att(101,29).
att(101,28).
att(101,27).
att(101,26).
att(101,25).
att(101,22).
att(101,20).
att(101,19).
att(101,18).
att(101,15).
att(101,13).
att(101,12).
att(101,11).
att(101,10).
att(101,8).
att(101,6).
att(101,4).
att(101,3).
att(101,2).
att(100,182).
att(100,181).
att(100,180).
att(100,179).
att(100,178).
att(100,177).
att(100,176).
att(100,175).
att(100,174).
att(100,173).
att(100,172).
att(100,171).
att(100,170).
att(100,169).
att(100,168).
att(100,167).
att(100,166).
att(100,165).
att(100,164).
att(100,163).
att(100,161).
att(100,160).
att(100,159).
att(100,158).
att(100,157).
att(100,155).
att(100,154).
att(100,153).
att(100,152).
att(100,151).
att(100,150).
att(100,149).
att(100,148).
att(100,147).
att(100,146).
att(100,145).
att(100,144).
att(100,143).
att(100,141).
att(100,139).
att(100,138).
att(100,137).
att(100,136).
att(100,134).
att(100,133).
att(100,132).
att(100,131).
att(100,130).
att(100,129).
att(100,128).
att(100,127).
att(100,124).
att(100,123).
att(100,122).
att(100,121).
att(100,120).
att(100,118).
att(100,117).
att(100,116).
att(100,115).
att(100,114).
att(100,113).
att(100,112).
att(100,111).
att(100,110).
att(100,109).
att(100,108).
att(100,107).
att(100,106).
att(100,105).
att(100,104).
att(100,103).
att(100,102).
att(100,101).
att(100,100).
att(100,99).
att(100,98).
att(100,97).
att(100,96).
att(100,95).
att(100,93).
att(100,92).
att(100,91).
att(100,90).
att(100,89).
att(100,88).
att(100,87).
att(100,86).
att(100,85).
att(100,84).
att(100,82).
att(100,81).
att(100,80).
att(100,79).
att(100,78).
att(100,77).
att(100,76).
att(100,75).
att(100,73).
att(100,72).
att(100,71).
att(100,70).
att(100,69).
att(100,68).
att(100,66).
att(100,65).
att(100,64).
att(100,63).
att(100,62).
att(100,61).
att(100,60).
att(100,59).
att(100,58).
att(100,57).
att(100,56).
att(100,55).
att(100,54).
att(100,53).
att(100,52).
att(100,51).
att(100,50).
att(100,49).
att(100,48).
att(100,46).
att(100,45).
att(100,44).
att(100,43).
att(100,42).
att(100,41).
att(100,40).
att(100,39).
att(100,38).
att(100,37).
att(100,36).
att(100,35).
att(100,33).
att(100,32).
att(100,31).
att(100,30).
att(100,29).
att(100,28).
att(100,27).
att(100,26).
att(100,25).
att(100,24).
att(100,23).
att(100,22).
att(100,20).
att(100,19).
att(100,18).
att(100,15).
att(100,13).
att(100,12).
att(100,11).
att(100,10).
att(100,9).
att(100,8).
att(100,4).
att(100,3).
att(100,2).
att(99,182).
att(99,181).
att(99,180).
att(99,179).
att(99,178).
att(99,177).
att(99,176).
att(99,175).
att(99,174).
att(99,173).
att(99,172).
att(99,171).
att(99,170).
att(99,169).
att(99,168).
att(99,167).
att(99,166).
att(99,165).
att(99,164).
att(99,163).
att(99,160).
att(99,159).
att(99,158).
att(99,157).
att(99,155).
att(99,154).
att(99,153).
att(99,152).
att(99,151).
att(99,150).
att(99,149).
att(99,148).
att(99,147).
att(99,146).
att(99,145).
att(99,144).
att(99,143).
att(99,141).
att(99,139).
att(99,138).
att(99,137).
att(99,136).
att(99,134).
att(99,133).
att(99,132).
att(99,131).
att(99,130).
att(99,129).
att(99,128).
att(99,127).
att(99,124).
att(99,123).
att(99,122).
att(99,121).
att(99,120).
att(99,118).
att(99,117).
att(99,116).
att(99,115).
att(99,114).
att(99,113).
att(99,112).
att(99,111).
att(99,110).
att(99,109).
att(99,108).
att(99,107).
att(99,106).
att(99,105).
att(99,104).
att(99,103).
att(99,102).
att(99,101).
att(99,100).
att(99,99).
att(99,98).
att(99,97).
att(99,96).
att(99,95).
att(99,93).
att(99,92).
att(99,91).
att(99,90).
att(99,89).
att(99,88).
att(99,87).
att(99,86).
att(99,85).
att(99,84).
att(99,82).
att(99,81).
att(99,80).
att(99,79).
att(99,78).
att(99,77).
att(99,76).
att(99,75).
att(99,73).
att(99,72).
att(99,71).
att(99,70).
att(99,69).
att(99,68).
att(99,66).
att(99,65).
att(99,64).
att(99,63).
att(99,62).
att(99,61).
att(99,60).
att(99,59).
att(99,58).
att(99,57).
att(99,56).
att(99,55).
att(99,54).
att(99,53).
att(99,52).
att(99,51).
att(99,50).
att(99,49).
att(99,48).
att(99,46).
att(99,45).
att(99,44).
att(99,43).
att(99,42).
att(99,41).
att(99,40).
att(99,39).
att(99,38).
att(99,37).
att(99,36).
att(99,35).
att(99,33).
att(99,32).
att(99,31).
att(99,30).
att(99,29).
att(99,28).
att(99,27).
att(99,26).
att(99,25).
att(99,24).
att(99,23).
att(99,22).
att(99,20).
att(99,19).
att(99,18).
att(99,15).
att(99,13).
att(99,12).
att(99,11).
att(99,10).
att(99,9).
att(99,8).
att(99,4).
att(99,3).
att(99,2).
att(98,182).
att(98,180).
att(98,179).
att(98,178).
att(98,177).
att(98,176).
att(98,175).
att(98,174).
att(98,173).
att(98,172).
att(98,171).
att(98,170).
att(98,169).
att(98,168).
att(98,167).
att(98,166).
att(98,165).
att(98,164).
att(98,163).
att(98,161).
att(98,160).
att(98,158).
att(98,157).
att(98,155).
att(98,153).
att(98,152).
att(98,151).
att(98,150).
att(98,149).
att(98,148).
att(98,145).
att(98,144).
att(98,143).
att(98,141).
att(98,138).
att(98,137).
att(98,136).
att(98,132).
att(98,131).
att(98,130).
att(98,129).
att(98,128).
att(98,127).
att(98,126).
att(98,124).
att(98,123).
att(98,122).
att(98,121).
att(98,120).
att(98,118).
att(98,116).
att(98,115).
att(98,114).
att(98,113).
att(98,112).
att(98,111).
att(98,110).
att(98,109).
att(98,108).
att(98,107).
att(98,106).
att(98,105).
att(98,104).
att(98,103).
att(98,102).
att(98,101).
att(98,100).
att(98,98).
att(98,97).
att(98,95).
att(98,93).
att(98,92).
att(98,91).
att(98,90).
att(98,89).
att(98,88).
att(98,87).
att(98,86).
att(98,84).
att(98,81).
att(98,80).
att(98,78).
att(98,77).
att(98,76).
att(98,73).
att(98,72).
att(98,71).
att(98,70).
att(98,69).
att(98,66).
att(98,65).
att(98,62).
att(98,61).
att(98,59).
att(98,58).
att(98,57).
att(98,56).
att(98,55).
att(98,53).
att(98,52).
att(98,51).
att(98,50).
att(98,49).
att(98,48).
att(98,46).
att(98,45).
att(98,44).
att(98,42).
att(98,40).
att(98,39).
att(98,38).
att(98,36).
att(98,35).
att(98,32).
att(98,30).
att(98,29).
att(98,28).
att(98,27).
att(98,26).
att(98,24).
att(98,23).
att(98,22).
att(98,20).
att(98,19).
att(98,18).
att(98,15).
att(98,13).
att(98,12).
att(98,11).
att(98,10).
att(98,9).
att(98,8).
att(98,4).
att(98,3).
att(98,2).
att(97,182).
att(97,180).
att(97,179).
att(97,178).
att(97,176).
att(97,175).
att(97,174).
att(97,173).
att(97,170).
att(97,169).
att(97,168).
att(97,165).
att(97,164).
att(97,163).
att(97,160).
att(97,158).
att(97,157).
att(97,155).
att(97,153).
att(97,152).
att(97,151).
att(97,150).
att(97,149).
att(97,148).
att(97,143).
att(97,138).
att(97,136).
att(97,132).
att(97,131).
att(97,130).
att(97,127).
att(97,124).
att(97,123).
att(97,121).
att(97,120).
att(97,116).
att(97,115).
att(97,113).
att(97,111).
att(97,110).
att(97,108).
att(97,107).
att(97,106).
att(97,105).
att(97,104).
att(97,103).
att(97,102).
att(97,101).
att(97,98).
att(97,97).
att(97,95).
att(97,93).
att(97,92).
att(97,89).
att(97,87).
att(97,84).
att(97,81).
att(97,77).
att(97,76).
att(97,73).
att(97,72).
att(97,71).
att(97,70).
att(97,69).
att(97,65).
att(97,62).
att(97,58).
att(97,51).
att(97,50).
att(97,49).
att(97,48).
att(97,46).
att(97,44).
att(97,42).
att(97,39).
att(97,35).
att(97,30).
att(97,22).
att(97,20).
att(97,19).
att(97,15).
att(97,13).
att(97,12).
att(97,11).
att(97,10).
att(97,8).
att(97,4).
att(97,3).
att(95,182).
att(95,181).
att(95,180).
att(95,179).
att(95,178).
att(95,177).
att(95,176).
att(95,175).
att(95,174).
att(95,173).
att(95,172).
att(95,170).
att(95,169).
att(95,168).
att(95,167).
att(95,166).
att(95,165).
att(95,164).
att(95,163).
att(95,161).
att(95,160).
att(95,159).
att(95,158).
att(95,157).
att(95,155).
att(95,154).
att(95,153).
att(95,152).
att(95,151).
att(95,150).
att(95,149).
att(95,148).
att(95,147).
att(95,146).
att(95,145).
att(95,144).
att(95,143).
att(95,142).
att(95,141).
att(95,139).
att(95,138).
att(95,137).
att(95,136).
att(95,135).
att(95,134).
att(95,133).
att(95,132).
att(95,131).
att(95,130).
att(95,129).
att(95,128).
att(95,127).
att(95,125).
att(95,124).
att(95,123).
att(95,122).
att(95,121).
att(95,120).
att(95,119).
att(95,118).
att(95,117).
att(95,116).
att(95,115).
att(95,114).
att(95,113).
att(95,112).
att(95,111).
att(95,110).
att(95,109).
att(95,108).
att(95,107).
att(95,106).
att(95,105).
att(95,104).
att(95,103).
att(95,102).
att(95,101).
att(95,100).
att(95,99).
att(95,98).
att(95,97).
att(95,96).
att(95,95).
att(95,94).
att(95,93).
att(95,92).
att(95,91).
att(95,90).
att(95,89).
att(95,88).
att(95,87).
att(95,86).
att(95,85).
att(95,84).
att(95,83).
att(95,82).
att(95,81).
att(95,80).
att(95,79).
att(95,78).
att(95,77).
att(95,76).
att(95,75).
att(95,73).
att(95,72).
att(95,71).
att(95,70).
att(95,69).
att(95,68).
att(95,66).
att(95,65).
att(95,64).
att(95,63).
att(95,62).
att(95,60).
att(95,59).
att(95,58).
att(95,57).
att(95,56).
att(95,55).
att(95,54).
att(95,53).
att(95,52).
att(95,51).
att(95,50).
att(95,49).
att(95,48).
att(95,47).
att(95,46).
att(95,44).
att(95,43).
att(95,42).
att(95,41).
att(95,40).
att(95,39).
att(95,38).
att(95,37).
att(95,36).
att(95,35).
att(95,33).
att(95,32).
att(95,31).
att(95,30).
att(95,29).
att(95,28).
att(95,27).
att(95,26).
att(95,25).
att(95,23).
att(95,22).
att(95,21).
att(95,20).
att(95,19).
att(95,18).
att(95,15).
att(95,14).
att(95,13).
att(95,12).
att(95,11).
att(95,10).
att(95,9).
att(95,8).
att(95,6).
att(95,4).
att(95,3).
att(95,2).
att(94,182).
att(94,181).
att(94,179).
att(94,175).
att(94,174).
att(94,172).
att(94,168).
att(94,167).
att(94,163).
att(94,160).
att(94,157).
att(94,151).
att(94,148).
att(94,141).
att(94,136).
att(94,132).
att(94,124).
att(94,121).
att(94,111).
att(94,106).
att(94,101).
att(94,95).
att(94,91).
att(94,87).
att(94,86).
att(94,73).
att(94,72).
att(94,68).
att(94,65).
att(94,59).
att(94,56).
att(94,52).
att(94,51).
att(94,48).
att(94,46).
att(94,44).
att(94,43).
att(94,42).
att(94,39).
att(94,32).
att(94,25).
att(94,22).
att(94,20).
att(94,18).
att(94,11).
att(94,6).
att(94,4).
att(94,2).
att(93,182).
att(93,180).
att(93,179).
att(93,178).
att(93,177).
att(93,176).
att(93,175).
att(93,174).
att(93,173).
att(93,172).
att(93,171).
att(93,170).
att(93,169).
att(93,168).
att(93,167).
att(93,166).
att(93,165).
att(93,164).
att(93,163).
att(93,161).
att(93,160).
att(93,158).
att(93,157).
att(93,155).
att(93,153).
att(93,152).
att(93,151).
att(93,150).
att(93,149).
att(93,148).
att(93,147).
att(93,145).
att(93,144).
att(93,143).
att(93,141).
att(93,138).
att(93,137).
att(93,136).
att(93,132).
att(93,131).
att(93,130).
att(93,129).
att(93,128).
att(93,127).
att(93,126).
att(93,124).
att(93,123).
att(93,122).
att(93,121).
att(93,120).
att(93,118).
att(93,116).
att(93,115).
att(93,114).
att(93,113).
att(93,112).
att(93,111).
att(93,110).
att(93,109).
att(93,108).
att(93,107).
att(93,106).
att(93,105).
att(93,104).
att(93,103).
att(93,102).
att(93,101).
att(93,100).
att(93,98).
att(93,97).
att(93,95).
att(93,93).
att(93,92).
att(93,91).
att(93,90).
att(93,89).
att(93,88).
att(93,87).
att(93,86).
att(93,84).
att(93,81).
att(93,80).
att(93,79).
att(93,78).
att(93,77).
att(93,76).
att(93,73).
att(93,72).
att(93,71).
att(93,70).
att(93,69).
att(93,66).
att(93,65).
att(93,62).
att(93,61).
att(93,59).
att(93,58).
att(93,57).
att(93,56).
att(93,55).
att(93,53).
att(93,52).
att(93,51).
att(93,50).
att(93,49).
att(93,48).
att(93,47).
att(93,46).
att(93,45).
att(93,44).
att(93,42).
att(93,40).
att(93,39).
att(93,38).
att(93,36).
att(93,35).
att(93,32).
att(93,31).
att(93,30).
att(93,29).
att(93,28).
att(93,27).
att(93,26).
att(93,24).
att(93,23).
att(93,22).
att(93,20).
att(93,19).
att(93,18).
att(93,15).
att(93,13).
att(93,12).
att(93,11).
att(93,10).
att(93,9).
att(93,8).
att(93,4).
att(93,3).
att(93,2).
att(92,182).
att(92,181).
att(92,180).
att(92,179).
att(92,178).
att(92,177).
att(92,176).
att(92,175).
att(92,174).
att(92,173).
att(92,170).
att(92,169).
att(92,168).
att(92,166).
att(92,165).
att(92,164).
att(92,163).
att(92,161).
att(92,160).
att(92,159).
att(92,158).
att(92,157).
att(92,155).
att(92,154).
att(92,153).
att(92,152).
att(92,151).
att(92,150).
att(92,149).
att(92,148).
att(92,147).
att(92,146).
att(92,145).
att(92,144).
att(92,143).
att(92,139).
att(92,138).
att(92,137).
att(92,136).
att(92,134).
att(92,133).
att(92,132).
att(92,131).
att(92,130).
att(92,129).
att(92,127).
att(92,124).
att(92,123).
att(92,122).
att(92,121).
att(92,120).
att(92,118).
att(92,117).
att(92,116).
att(92,115).
att(92,113).
att(92,112).
att(92,111).
att(92,110).
att(92,108).
att(92,107).
att(92,106).
att(92,105).
att(92,104).
att(92,103).
att(92,102).
att(92,101).
att(92,100).
att(92,99).
att(92,98).
att(92,97).
att(92,96).
att(92,95).
att(92,93).
att(92,92).
att(92,91).
att(92,89).
att(92,87).
att(92,86).
att(92,85).
att(92,84).
att(92,82).
att(92,81).
att(92,80).
att(92,79).
att(92,78).
att(92,77).
att(92,76).
att(92,75).
att(92,73).
att(92,72).
att(92,71).
att(92,70).
att(92,69).
att(92,68).
att(92,65).
att(92,64).
att(92,63).
att(92,62).
att(92,60).
att(92,59).
att(92,58).
att(92,56).
att(92,55).
att(92,54).
att(92,53).
att(92,52).
att(92,51).
att(92,50).
att(92,49).
att(92,48).
att(92,46).
att(92,44).
att(92,43).
att(92,42).
att(92,41).
att(92,40).
att(92,39).
att(92,38).
att(92,37).
att(92,35).
att(92,33).
att(92,31).
att(92,30).
att(92,29).
att(92,28).
att(92,27).
att(92,26).
att(92,25).
att(92,23).
att(92,22).
att(92,20).
att(92,19).
att(92,15).
att(92,13).
att(92,12).
att(92,11).
att(92,10).
att(92,8).
att(92,4).
att(92,3).
att(92,2).
att(91,182).
att(91,181).
att(91,180).
att(91,179).
att(91,178).
att(91,177).
att(91,176).
att(91,175).
att(91,174).
att(91,173).
att(91,170).
att(91,169).
att(91,168).
att(91,166).
att(91,165).
att(91,164).
att(91,163).
att(91,160).
att(91,159).
att(91,158).
att(91,157).
att(91,155).
att(91,154).
att(91,153).
att(91,152).
att(91,151).
att(91,150).
att(91,149).
att(91,148).
att(91,147).
att(91,146).
att(91,145).
att(91,144).
att(91,143).
att(91,139).
att(91,138).
att(91,137).
att(91,136).
att(91,134).
att(91,133).
att(91,132).
att(91,131).
att(91,130).
att(91,129).
att(91,127).
att(91,124).
att(91,123).
att(91,122).
att(91,121).
att(91,120).
att(91,118).
att(91,117).
att(91,116).
att(91,115).
att(91,113).
att(91,112).
att(91,111).
att(91,110).
att(91,108).
att(91,107).
att(91,106).
att(91,105).
att(91,104).
att(91,103).
att(91,102).
att(91,101).
att(91,100).
att(91,99).
att(91,98).
att(91,97).
att(91,96).
att(91,95).
att(91,93).
att(91,92).
att(91,91).
att(91,89).
att(91,87).
att(91,86).
att(91,85).
att(91,84).
att(91,82).
att(91,81).
att(91,80).
att(91,79).
att(91,78).
att(91,77).
att(91,76).
att(91,75).
att(91,73).
att(91,72).
att(91,71).
att(91,70).
att(91,69).
att(91,68).
att(91,65).
att(91,64).
att(91,63).
att(91,62).
att(91,60).
att(91,59).
att(91,58).
att(91,56).
att(91,55).
att(91,54).
att(91,53).
att(91,52).
att(91,51).
att(91,50).
att(91,49).
att(91,48).
att(91,46).
att(91,44).
att(91,43).
att(91,42).
att(91,41).
att(91,40).
att(91,39).
att(91,38).
att(91,37).
att(91,35).
att(91,33).
att(91,31).
att(91,30).
att(91,29).
att(91,28).
att(91,27).
att(91,26).
att(91,25).
att(91,23).
att(91,22).
att(91,20).
att(91,19).
att(91,15).
att(91,13).
att(91,12).
att(91,11).
att(91,10).
att(91,8).
att(91,4).
att(91,3).
att(91,2).
att(90,182).
att(90,181).
att(90,180).
att(90,179).
att(90,178).
att(90,177).
att(90,176).
att(90,175).
att(90,174).
att(90,173).
att(90,170).
att(90,169).
att(90,168).
att(90,166).
att(90,165).
att(90,164).
att(90,163).
att(90,160).
att(90,159).
att(90,158).
att(90,157).
att(90,155).
att(90,154).
att(90,153).
att(90,152).
att(90,151).
att(90,150).
att(90,149).
att(90,148).
att(90,147).
att(90,146).
att(90,145).
att(90,144).
att(90,143).
att(90,139).
att(90,138).
att(90,137).
att(90,136).
att(90,134).
att(90,133).
att(90,132).
att(90,131).
att(90,130).
att(90,129).
att(90,127).
att(90,124).
att(90,123).
att(90,122).
att(90,121).
att(90,120).
att(90,118).
att(90,117).
att(90,116).
att(90,115).
att(90,113).
att(90,112).
att(90,111).
att(90,110).
att(90,108).
att(90,107).
att(90,106).
att(90,105).
att(90,104).
att(90,103).
att(90,102).
att(90,101).
att(90,100).
att(90,99).
att(90,98).
att(90,97).
att(90,96).
att(90,95).
att(90,93).
att(90,92).
att(90,91).
att(90,89).
att(90,87).
att(90,86).
att(90,85).
att(90,84).
att(90,82).
att(90,81).
att(90,80).
att(90,79).
att(90,78).
att(90,77).
att(90,76).
att(90,75).
att(90,73).
att(90,72).
att(90,71).
att(90,70).
att(90,69).
att(90,68).
att(90,65).
att(90,64).
att(90,63).
att(90,62).
att(90,60).
att(90,59).
att(90,58).
att(90,56).
att(90,55).
att(90,54).
att(90,53).
att(90,52).
att(90,51).
att(90,50).
att(90,49).
att(90,48).
att(90,46).
att(90,44).
att(90,43).
att(90,42).
att(90,41).
att(90,40).
att(90,39).
att(90,38).
att(90,35).
att(90,33).
att(90,31).
att(90,30).
att(90,29).
att(90,28).
att(90,27).
att(90,26).
att(90,25).
att(90,23).
att(90,22).
att(90,20).
att(90,19).
att(90,15).
att(90,13).
att(90,12).
att(90,11).
att(90,10).
att(90,8).
att(90,4).
att(90,3).
att(90,2).
att(89,182).
att(89,181).
att(89,180).
att(89,179).
att(89,178).
att(89,177).
att(89,176).
att(89,175).
att(89,174).
att(89,173).
att(89,172).
att(89,170).
att(89,169).
att(89,168).
att(89,167).
att(89,166).
att(89,165).
att(89,164).
att(89,163).
att(89,161).
att(89,160).
att(89,159).
att(89,158).
att(89,157).
att(89,155).
att(89,154).
att(89,153).
att(89,152).
att(89,151).
att(89,150).
att(89,149).
att(89,148).
att(89,147).
att(89,146).
att(89,145).
att(89,144).
att(89,143).
att(89,141).
att(89,139).
att(89,138).
att(89,137).
att(89,136).
att(89,134).
att(89,133).
att(89,132).
att(89,131).
att(89,130).
att(89,129).
att(89,127).
att(89,126).
att(89,124).
att(89,123).
att(89,122).
att(89,121).
att(89,120).
att(89,118).
att(89,117).
att(89,116).
att(89,115).
att(89,114).
att(89,113).
att(89,112).
att(89,111).
att(89,110).
att(89,109).
att(89,108).
att(89,107).
att(89,106).
att(89,105).
att(89,104).
att(89,103).
att(89,102).
att(89,101).
att(89,100).
att(89,99).
att(89,98).
att(89,97).
att(89,96).
att(89,95).
att(89,93).
att(89,92).
att(89,91).
att(89,90).
att(89,89).
att(89,87).
att(89,86).
att(89,85).
att(89,84).
att(89,82).
att(89,81).
att(89,80).
att(89,79).
att(89,78).
att(89,77).
att(89,76).
att(89,75).
att(89,73).
att(89,72).
att(89,71).
att(89,70).
att(89,69).
att(89,68).
att(89,66).
att(89,65).
att(89,64).
att(89,63).
att(89,62).
att(89,60).
att(89,59).
att(89,58).
att(89,56).
att(89,55).
att(89,54).
att(89,53).
att(89,52).
att(89,51).
att(89,50).
att(89,49).
att(89,48).
att(89,46).
att(89,44).
att(89,43).
att(89,42).
att(89,41).
att(89,40).
att(89,39).
att(89,38).
att(89,36).
att(89,35).
att(89,33).
att(89,32).
att(89,31).
att(89,30).
att(89,29).
att(89,28).
att(89,27).
att(89,26).
att(89,25).
att(89,23).
att(89,22).
att(89,21).
att(89,20).
att(89,19).
att(89,18).
att(89,15).
att(89,13).
att(89,12).
att(89,11).
att(89,10).
att(89,9).
att(89,8).
att(89,6).
att(89,4).
att(89,3).
att(89,2).
att(88,182).
att(88,181).
att(88,180).
att(88,179).
att(88,178).
att(88,177).
att(88,176).
att(88,175).
att(88,174).
att(88,173).
att(88,172).
att(88,170).
att(88,169).
att(88,168).
att(88,167).
att(88,166).
att(88,165).
att(88,164).
att(88,163).
att(88,160).
att(88,159).
att(88,158).
att(88,157).
att(88,155).
att(88,154).
att(88,153).
att(88,152).
att(88,151).
att(88,150).
att(88,149).
att(88,148).
att(88,147).
att(88,146).
att(88,145).
att(88,144).
att(88,143).
att(88,141).
att(88,139).
att(88,138).
att(88,137).
att(88,136).
att(88,134).
att(88,133).
att(88,132).
att(88,131).
att(88,130).
att(88,129).
att(88,127).
att(88,124).
att(88,123).
att(88,122).
att(88,121).
att(88,120).
att(88,118).
att(88,117).
att(88,116).
att(88,115).
att(88,113).
att(88,112).
att(88,111).
att(88,110).
att(88,108).
att(88,107).
att(88,106).
att(88,105).
att(88,104).
att(88,103).
att(88,102).
att(88,101).
att(88,100).
att(88,99).
att(88,98).
att(88,97).
att(88,96).
att(88,95).
att(88,93).
att(88,92).
att(88,91).
att(88,89).
att(88,87).
att(88,86).
att(88,85).
att(88,84).
att(88,82).
att(88,81).
att(88,80).
att(88,79).
att(88,78).
att(88,77).
att(88,76).
att(88,75).
att(88,73).
att(88,72).
att(88,71).
att(88,70).
att(88,69).
att(88,68).
att(88,65).
att(88,64).
att(88,63).
att(88,62).
att(88,60).
att(88,59).
att(88,58).
att(88,56).
att(88,55).
att(88,54).
att(88,53).
att(88,52).
att(88,51).
att(88,50).
att(88,49).
att(88,48).
att(88,46).
att(88,44).
att(88,43).
att(88,42).
att(88,41).
att(88,40).
att(88,39).
att(88,38).
att(88,35).
att(88,33).
att(88,32).
att(88,31).
att(88,30).
att(88,29).
att(88,28).
att(88,27).
att(88,26).
att(88,25).
att(88,23).
att(88,22).
att(88,20).
att(88,19).
att(88,18).
att(88,15).
att(88,13).
att(88,12).
att(88,11).
att(88,10).
att(88,8).
att(88,6).
att(88,4).
att(88,3).
att(88,2).
att(87,182).
att(87,181).
att(87,180).
att(87,179).
att(87,178).
att(87,177).
att(87,176).
att(87,175).
att(87,174).
att(87,173).
att(87,172).
att(87,170).
att(87,169).
att(87,168).
att(87,167).
att(87,166).
att(87,165).
att(87,164).
att(87,163).
att(87,161).
att(87,160).
att(87,159).
att(87,158).
att(87,157).
att(87,155).
att(87,154).
att(87,153).
att(87,152).
att(87,151).
att(87,150).
att(87,149).
att(87,148).
att(87,147).
att(87,146).
att(87,145).
att(87,144).
att(87,143).
att(87,141).
att(87,139).
att(87,138).
att(87,137).
att(87,136).
att(87,134).
att(87,133).
att(87,132).
att(87,131).
att(87,130).
att(87,129).
att(87,127).
att(87,126).
att(87,124).
att(87,123).
att(87,122).
att(87,121).
att(87,120).
att(87,118).
att(87,117).
att(87,116).
att(87,115).
att(87,114).
att(87,113).
att(87,112).
att(87,111).
att(87,110).
att(87,109).
att(87,108).
att(87,107).
att(87,106).
att(87,105).
att(87,104).
att(87,103).
att(87,102).
att(87,101).
att(87,100).
att(87,99).
att(87,98).
att(87,97).
att(87,96).
att(87,95).
att(87,93).
att(87,92).
att(87,91).
att(87,90).
att(87,89).
att(87,87).
att(87,86).
att(87,85).
att(87,84).
att(87,82).
att(87,81).
att(87,80).
att(87,79).
att(87,78).
att(87,77).
att(87,76).
att(87,75).
att(87,73).
att(87,72).
att(87,71).
att(87,70).
att(87,69).
att(87,68).
att(87,66).
att(87,65).
att(87,64).
att(87,63).
att(87,62).
att(87,60).
att(87,59).
att(87,58).
att(87,56).
att(87,55).
att(87,54).
att(87,53).
att(87,52).
att(87,51).
att(87,50).
att(87,49).
att(87,48).
att(87,46).
att(87,44).
att(87,43).
att(87,42).
att(87,41).
att(87,40).
att(87,39).
att(87,38).
att(87,36).
att(87,35).
att(87,33).
att(87,32).
att(87,31).
att(87,30).
att(87,29).
att(87,28).
att(87,27).
att(87,26).
att(87,25).
att(87,23).
att(87,22).
att(87,21).
att(87,20).
att(87,19).
att(87,18).
att(87,15).
att(87,13).
att(87,12).
att(87,11).
att(87,10).
att(87,9).
att(87,8).
att(87,6).
att(87,4).
att(87,3).
att(87,2).
att(86,182).
att(86,181).
att(86,180).
att(86,179).
att(86,178).
att(86,177).
att(86,176).
att(86,175).
att(86,174).
att(86,173).
att(86,172).
att(86,170).
att(86,169).
att(86,168).
att(86,167).
att(86,166).
att(86,165).
att(86,164).
att(86,163).
att(86,161).
att(86,160).
att(86,159).
att(86,158).
att(86,157).
att(86,155).
att(86,154).
att(86,153).
att(86,152).
att(86,151).
att(86,150).
att(86,149).
att(86,148).
att(86,147).
att(86,146).
att(86,145).
att(86,144).
att(86,143).
att(86,141).
att(86,139).
att(86,138).
att(86,137).
att(86,136).
att(86,134).
att(86,133).
att(86,132).
att(86,131).
att(86,130).
att(86,129).
att(86,127).
att(86,126).
att(86,124).
att(86,123).
att(86,122).
att(86,121).
att(86,120).
att(86,118).
att(86,117).
att(86,116).
att(86,115).
att(86,113).
att(86,112).
att(86,111).
att(86,110).
att(86,108).
att(86,107).
att(86,106).
att(86,105).
att(86,104).
att(86,103).
att(86,102).
att(86,101).
att(86,100).
att(86,99).
att(86,98).
att(86,97).
att(86,96).
att(86,95).
att(86,93).
att(86,92).
att(86,91).
att(86,89).
att(86,87).
att(86,86).
att(86,85).
att(86,84).
att(86,82).
att(86,81).
att(86,80).
att(86,79).
att(86,78).
att(86,77).
att(86,76).
att(86,75).
att(86,73).
att(86,72).
att(86,71).
att(86,70).
att(86,69).
att(86,68).
att(86,65).
att(86,64).
att(86,63).
att(86,62).
att(86,60).
att(86,59).
att(86,58).
att(86,56).
att(86,55).
att(86,54).
att(86,53).
att(86,52).
att(86,51).
att(86,50).
att(86,49).
att(86,48).
att(86,46).
att(86,44).
att(86,43).
att(86,42).
att(86,41).
att(86,40).
att(86,39).
att(86,38).
att(86,37).
att(86,35).
att(86,33).
att(86,32).
att(86,31).
att(86,30).
att(86,29).
att(86,28).
att(86,27).
att(86,26).
att(86,25).
att(86,23).
att(86,22).
att(86,20).
att(86,19).
att(86,18).
att(86,15).
att(86,13).
att(86,12).
att(86,11).
att(86,10).
att(86,8).
att(86,6).
att(86,4).
att(86,3).
att(86,2).
att(84,182).
att(84,181).
att(84,180).
att(84,179).
att(84,178).
att(84,177).
att(84,176).
att(84,175).
att(84,174).
att(84,173).
att(84,172).
att(84,171).
att(84,170).
att(84,169).
att(84,168).
att(84,167).
att(84,166).
att(84,165).
att(84,164).
att(84,163).
att(84,161).
att(84,160).
att(84,159).
att(84,158).
att(84,157).
att(84,155).
att(84,154).
att(84,153).
att(84,152).
att(84,151).
att(84,150).
att(84,149).
att(84,148).
att(84,147).
att(84,146).
att(84,145).
att(84,144).
att(84,143).
att(84,141).
att(84,139).
att(84,138).
att(84,137).
att(84,136).
att(84,134).
att(84,133).
att(84,132).
att(84,131).
att(84,130).
att(84,129).
att(84,128).
att(84,127).
att(84,124).
att(84,123).
att(84,122).
att(84,121).
att(84,120).
att(84,118).
att(84,117).
att(84,116).
att(84,115).
att(84,114).
att(84,113).
att(84,112).
att(84,111).
att(84,110).
att(84,109).
att(84,108).
att(84,107).
att(84,106).
att(84,105).
att(84,104).
att(84,103).
att(84,102).
att(84,101).
att(84,100).
att(84,99).
att(84,98).
att(84,97).
att(84,96).
att(84,95).
att(84,93).
att(84,92).
att(84,91).
att(84,90).
att(84,89).
att(84,88).
att(84,87).
att(84,86).
att(84,85).
att(84,84).
att(84,82).
att(84,81).
att(84,80).
att(84,79).
att(84,78).
att(84,77).
att(84,76).
att(84,75).
att(84,73).
att(84,72).
att(84,71).
att(84,70).
att(84,69).
att(84,68).
att(84,66).
att(84,65).
att(84,64).
att(84,63).
att(84,62).
att(84,61).
att(84,60).
att(84,59).
att(84,58).
att(84,57).
att(84,56).
att(84,55).
att(84,54).
att(84,53).
att(84,52).
att(84,51).
att(84,50).
att(84,49).
att(84,48).
att(84,47).
att(84,46).
att(84,45).
att(84,44).
att(84,43).
att(84,42).
att(84,41).
att(84,40).
att(84,39).
att(84,38).
att(84,37).
att(84,36).
att(84,35).
att(84,33).
att(84,32).
att(84,31).
att(84,30).
att(84,29).
att(84,28).
att(84,27).
att(84,26).
att(84,25).
att(84,24).
att(84,23).
att(84,22).
att(84,20).
att(84,19).
att(84,18).
att(84,15).
att(84,13).
att(84,12).
att(84,11).
att(84,10).
att(84,9).
att(84,8).
att(84,4).
att(84,3).
att(84,2).
att(83,182).
att(83,180).
att(83,179).
att(83,178).
att(83,177).
att(83,176).
att(83,175).
att(83,174).
att(83,173).
att(83,170).
att(83,169).
att(83,168).
att(83,165).
att(83,164).
att(83,163).
att(83,160).
att(83,158).
att(83,157).
att(83,155).
att(83,153).
att(83,152).
att(83,151).
att(83,150).
att(83,149).
att(83,148).
att(83,147).
att(83,144).
att(83,143).
att(83,140).
att(83,138).
att(83,137).
att(83,136).
att(83,132).
att(83,131).
att(83,130).
att(83,129).
att(83,127).
att(83,124).
att(83,123).
att(83,122).
att(83,121).
att(83,120).
att(83,119).
att(83,116).
att(83,115).
att(83,114).
att(83,113).
att(83,112).
att(83,111).
att(83,110).
att(83,109).
att(83,108).
att(83,107).
att(83,106).
att(83,105).
att(83,104).
att(83,103).
att(83,102).
att(83,101).
att(83,98).
att(83,97).
att(83,95).
att(83,94).
att(83,93).
att(83,92).
att(83,89).
att(83,88).
att(83,87).
att(83,86).
att(83,84).
att(83,81).
att(83,79).
att(83,77).
att(83,76).
att(83,73).
att(83,72).
att(83,71).
att(83,70).
att(83,69).
att(83,66).
att(83,65).
att(83,62).
att(83,59).
att(83,58).
att(83,57).
att(83,56).
att(83,55).
att(83,52).
att(83,51).
att(83,50).
att(83,49).
att(83,48).
att(83,46).
att(83,44).
att(83,42).
att(83,39).
att(83,38).
att(83,35).
att(83,32).
att(83,31).
att(83,30).
att(83,29).
att(83,28).
att(83,27).
att(83,26).
att(83,23).
att(83,22).
att(83,20).
att(83,19).
att(83,15).
att(83,14).
att(83,13).
att(83,12).
att(83,11).
att(83,10).
att(83,9).
att(83,8).
att(83,7).
att(83,4).
att(83,3).
att(82,182).
att(82,181).
att(82,180).
att(82,179).
att(82,178).
att(82,177).
att(82,176).
att(82,175).
att(82,174).
att(82,173).
att(82,172).
att(82,171).
att(82,170).
att(82,169).
att(82,168).
att(82,167).
att(82,166).
att(82,165).
att(82,164).
att(82,163).
att(82,160).
att(82,159).
att(82,158).
att(82,157).
att(82,155).
att(82,154).
att(82,153).
att(82,152).
att(82,151).
att(82,150).
att(82,149).
att(82,148).
att(82,147).
att(82,146).
att(82,145).
att(82,144).
att(82,143).
att(82,141).
att(82,139).
att(82,138).
att(82,137).
att(82,136).
att(82,134).
att(82,133).
att(82,132).
att(82,131).
att(82,130).
att(82,129).
att(82,128).
att(82,127).
att(82,124).
att(82,123).
att(82,122).
att(82,121).
att(82,120).
att(82,118).
att(82,117).
att(82,116).
att(82,115).
att(82,114).
att(82,113).
att(82,112).
att(82,111).
att(82,110).
att(82,109).
att(82,108).
att(82,107).
att(82,106).
att(82,105).
att(82,104).
att(82,103).
att(82,102).
att(82,101).
att(82,100).
att(82,99).
att(82,98).
att(82,97).
att(82,96).
att(82,95).
att(82,94).
att(82,93).
att(82,92).
att(82,91).
att(82,90).
att(82,89).
att(82,88).
att(82,87).
att(82,86).
att(82,85).
att(82,84).
att(82,82).
att(82,81).
att(82,80).
att(82,79).
att(82,78).
att(82,77).
att(82,76).
att(82,75).
att(82,73).
att(82,72).
att(82,71).
att(82,70).
att(82,69).
att(82,68).
att(82,66).
att(82,65).
att(82,64).
att(82,63).
att(82,62).
att(82,61).
att(82,60).
att(82,59).
att(82,58).
att(82,57).
att(82,56).
att(82,55).
att(82,54).
att(82,53).
att(82,52).
att(82,51).
att(82,50).
att(82,49).
att(82,48).
att(82,46).
att(82,45).
att(82,44).
att(82,43).
att(82,42).
att(82,41).
att(82,40).
att(82,39).
att(82,38).
att(82,37).
att(82,36).
att(82,35).
att(82,33).
att(82,32).
att(82,31).
att(82,30).
att(82,29).
att(82,28).
att(82,27).
att(82,26).
att(82,25).
att(82,24).
att(82,23).
att(82,22).
att(82,20).
att(82,19).
att(82,18).
att(82,15).
att(82,13).
att(82,12).
att(82,11).
att(82,10).
att(82,9).
att(82,8).
att(82,4).
att(82,3).
att(82,2).
att(81,182).
att(81,181).
att(81,180).
att(81,179).
att(81,178).
att(81,177).
att(81,176).
att(81,175).
att(81,174).
att(81,173).
att(81,172).
att(81,170).
att(81,169).
att(81,168).
att(81,167).
att(81,166).
att(81,165).
att(81,164).
att(81,163).
att(81,161).
att(81,160).
att(81,159).
att(81,158).
att(81,157).
att(81,155).
att(81,154).
att(81,153).
att(81,152).
att(81,151).
att(81,150).
att(81,149).
att(81,148).
att(81,147).
att(81,146).
att(81,145).
att(81,144).
att(81,143).
att(81,141).
att(81,139).
att(81,138).
att(81,137).
att(81,136).
att(81,134).
att(81,133).
att(81,132).
att(81,131).
att(81,130).
att(81,129).
att(81,127).
att(81,126).
att(81,124).
att(81,123).
att(81,122).
att(81,121).
att(81,120).
att(81,118).
att(81,117).
att(81,116).
att(81,115).
att(81,114).
att(81,113).
att(81,112).
att(81,111).
att(81,110).
att(81,109).
att(81,108).
att(81,107).
att(81,106).
att(81,105).
att(81,104).
att(81,103).
att(81,102).
att(81,101).
att(81,100).
att(81,99).
att(81,98).
att(81,97).
att(81,96).
att(81,95).
att(81,93).
att(81,92).
att(81,91).
att(81,90).
att(81,89).
att(81,87).
att(81,86).
att(81,85).
att(81,84).
att(81,82).
att(81,81).
att(81,80).
att(81,79).
att(81,78).
att(81,77).
att(81,76).
att(81,75).
att(81,73).
att(81,72).
att(81,71).
att(81,70).
att(81,69).
att(81,68).
att(81,66).
att(81,65).
att(81,64).
att(81,63).
att(81,62).
att(81,60).
att(81,59).
att(81,58).
att(81,56).
att(81,55).
att(81,54).
att(81,53).
att(81,52).
att(81,51).
att(81,50).
att(81,49).
att(81,48).
att(81,46).
att(81,44).
att(81,43).
att(81,42).
att(81,41).
att(81,40).
att(81,39).
att(81,38).
att(81,36).
att(81,35).
att(81,33).
att(81,32).
att(81,31).
att(81,30).
att(81,29).
att(81,28).
att(81,27).
att(81,26).
att(81,25).
att(81,23).
att(81,22).
att(81,21).
att(81,20).
att(81,19).
att(81,18).
att(81,15).
att(81,13).
att(81,12).
att(81,11).
att(81,10).
att(81,9).
att(81,8).
att(81,6).
att(81,4).
att(81,3).
att(81,2).
att(80,182).
att(80,179).
att(80,178).
att(80,177).
att(80,176).
att(80,175).
att(80,174).
att(80,173).
att(80,172).
att(80,171).
att(80,170).
att(80,168).
att(80,167).
att(80,166).
att(80,164).
att(80,163).
att(80,160).
att(80,158).
att(80,157).
att(80,155).
att(80,153).
att(80,151).
att(80,150).
att(80,149).
att(80,148).
att(80,147).
att(80,145).
att(80,144).
att(80,141).
att(80,138).
att(80,137).
att(80,136).
att(80,132).
att(80,131).
att(80,130).
att(80,129).
att(80,128).
att(80,127).
att(80,124).
att(80,123).
att(80,122).
att(80,121).
att(80,120).
att(80,118).
att(80,117).
att(80,116).
att(80,114).
att(80,112).
att(80,111).
att(80,110).
att(80,109).
att(80,108).
att(80,107).
att(80,106).
att(80,105).
att(80,104).
att(80,103).
att(80,102).
att(80,101).
att(80,100).
att(80,98).
att(80,97).
att(80,96).
att(80,95).
att(80,94).
att(80,93).
att(80,92).
att(80,91).
att(80,90).
att(80,89).
att(80,88).
att(80,87).
att(80,86).
att(80,84).
att(80,81).
att(80,80).
att(80,79).
att(80,78).
att(80,77).
att(80,73).
att(80,72).
att(80,71).
att(80,69).
att(80,66).
att(80,65).
att(80,61).
att(80,59).
att(80,58).
att(80,57).
att(80,56).
att(80,55).
att(80,53).
att(80,52).
att(80,51).
att(80,50).
att(80,49).
att(80,48).
att(80,46).
att(80,45).
att(80,44).
att(80,42).
att(80,40).
att(80,39).
att(80,38).
att(80,36).
att(80,35).
att(80,32).
att(80,31).
att(80,29).
att(80,28).
att(80,27).
att(80,26).
att(80,24).
att(80,23).
att(80,22).
att(80,20).
att(80,19).
att(80,18).
att(80,15).
att(80,13).
att(80,12).
att(80,11).
att(80,10).
att(80,9).
att(80,8).
att(80,4).
att(80,2).
att(79,182).
att(79,180).
att(79,179).
att(79,178).
att(79,177).
att(79,176).
att(79,175).
att(79,174).
att(79,173).
att(79,172).
att(79,171).
att(79,170).
att(79,169).
att(79,168).
att(79,167).
att(79,166).
att(79,165).
att(79,164).
att(79,163).
att(79,161).
att(79,160).
att(79,158).
att(79,157).
att(79,155).
att(79,153).
att(79,152).
att(79,151).
att(79,150).
att(79,149).
att(79,148).
att(79,147).
att(79,145).
att(79,144).
att(79,143).
att(79,141).
att(79,140).
att(79,138).
att(79,137).
att(79,136).
att(79,132).
att(79,131).
att(79,130).
att(79,129).
att(79,128).
att(79,127).
att(79,126).
att(79,124).
att(79,123).
att(79,122).
att(79,121).
att(79,120).
att(79,119).
att(79,118).
att(79,116).
att(79,115).
att(79,114).
att(79,113).
att(79,112).
att(79,111).
att(79,110).
att(79,109).
att(79,108).
att(79,107).
att(79,106).
att(79,105).
att(79,104).
att(79,103).
att(79,102).
att(79,101).
att(79,100).
att(79,98).
att(79,97).
att(79,95).
att(79,93).
att(79,92).
att(79,91).
att(79,90).
att(79,89).
att(79,88).
att(79,87).
att(79,86).
att(79,84).
att(79,81).
att(79,80).
att(79,79).
att(79,78).
att(79,77).
att(79,76).
att(79,73).
att(79,72).
att(79,71).
att(79,70).
att(79,69).
att(79,66).
att(79,65).
att(79,62).
att(79,61).
att(79,59).
att(79,58).
att(79,57).
att(79,56).
att(79,55).
att(79,53).
att(79,52).
att(79,51).
att(79,50).
att(79,49).
att(79,48).
att(79,46).
att(79,45).
att(79,44).
att(79,42).
att(79,40).
att(79,39).
att(79,38).
att(79,36).
att(79,35).
att(79,32).
att(79,31).
att(79,30).
att(79,29).
att(79,28).
att(79,27).
att(79,26).
att(79,24).
att(79,23).
att(79,22).
att(79,20).
att(79,19).
att(79,18).
att(79,15).
att(79,14).
att(79,13).
att(79,12).
att(79,11).
att(79,10).
att(79,9).
att(79,8).
att(79,7).
att(79,4).
att(79,3).
att(79,2).
att(78,182).
att(78,181).
att(78,180).
att(78,179).
att(78,178).
att(78,177).
att(78,176).
att(78,175).
att(78,174).
att(78,173).
att(78,172).
att(78,171).
att(78,170).
att(78,169).
att(78,168).
att(78,167).
att(78,166).
att(78,165).
att(78,164).
att(78,163).
att(78,160).
att(78,159).
att(78,158).
att(78,157).
att(78,155).
att(78,154).
att(78,153).
att(78,152).
att(78,151).
att(78,150).
att(78,149).
att(78,148).
att(78,147).
att(78,146).
att(78,145).
att(78,144).
att(78,143).
att(78,141).
att(78,139).
att(78,138).
att(78,137).
att(78,136).
att(78,134).
att(78,133).
att(78,132).
att(78,131).
att(78,130).
att(78,129).
att(78,128).
att(78,127).
att(78,124).
att(78,123).
att(78,122).
att(78,121).
att(78,120).
att(78,118).
att(78,117).
att(78,116).
att(78,115).
att(78,114).
att(78,113).
att(78,112).
att(78,111).
att(78,110).
att(78,109).
att(78,108).
att(78,107).
att(78,106).
att(78,105).
att(78,104).
att(78,103).
att(78,102).
att(78,101).
att(78,100).
att(78,99).
att(78,98).
att(78,97).
att(78,96).
att(78,95).
att(78,94).
att(78,93).
att(78,92).
att(78,91).
att(78,90).
att(78,89).
att(78,88).
att(78,87).
att(78,86).
att(78,85).
att(78,84).
att(78,82).
att(78,81).
att(78,80).
att(78,79).
att(78,78).
att(78,77).
att(78,76).
att(78,75).
att(78,73).
att(78,72).
att(78,71).
att(78,70).
att(78,69).
att(78,68).
att(78,66).
att(78,65).
att(78,64).
att(78,63).
att(78,62).
att(78,61).
att(78,60).
att(78,59).
att(78,58).
att(78,57).
att(78,56).
att(78,55).
att(78,54).
att(78,53).
att(78,52).
att(78,51).
att(78,50).
att(78,49).
att(78,48).
att(78,46).
att(78,45).
att(78,44).
att(78,43).
att(78,42).
att(78,41).
att(78,40).
att(78,39).
att(78,38).
att(78,37).
att(78,36).
att(78,35).
att(78,33).
att(78,32).
att(78,31).
att(78,30).
att(78,29).
att(78,28).
att(78,27).
att(78,26).
att(78,25).
att(78,24).
att(78,23).
att(78,22).
att(78,20).
att(78,19).
att(78,18).
att(78,15).
att(78,13).
att(78,12).
att(78,11).
att(78,10).
att(78,9).
att(78,8).
att(78,4).
att(78,3).
att(78,2).
att(77,182).
att(77,181).
att(77,180).
att(77,179).
att(77,178).
att(77,177).
att(77,176).
att(77,175).
att(77,174).
att(77,173).
att(77,170).
att(77,169).
att(77,168).
att(77,166).
att(77,165).
att(77,164).
att(77,163).
att(77,161).
att(77,160).
att(77,159).
att(77,158).
att(77,157).
att(77,155).
att(77,154).
att(77,153).
att(77,152).
att(77,151).
att(77,150).
att(77,149).
att(77,148).
att(77,147).
att(77,146).
att(77,145).
att(77,144).
att(77,143).
att(77,140).
att(77,139).
att(77,138).
att(77,137).
att(77,136).
att(77,134).
att(77,133).
att(77,132).
att(77,131).
att(77,130).
att(77,129).
att(77,127).
att(77,124).
att(77,123).
att(77,122).
att(77,121).
att(77,120).
att(77,119).
att(77,118).
att(77,117).
att(77,116).
att(77,115).
att(77,114).
att(77,113).
att(77,112).
att(77,111).
att(77,110).
att(77,109).
att(77,108).
att(77,107).
att(77,106).
att(77,105).
att(77,104).
att(77,103).
att(77,102).
att(77,101).
att(77,100).
att(77,99).
att(77,98).
att(77,97).
att(77,96).
att(77,95).
att(77,93).
att(77,92).
att(77,91).
att(77,89).
att(77,87).
att(77,86).
att(77,85).
att(77,84).
att(77,82).
att(77,81).
att(77,80).
att(77,79).
att(77,78).
att(77,77).
att(77,76).
att(77,75).
att(77,73).
att(77,72).
att(77,71).
att(77,70).
att(77,69).
att(77,68).
att(77,66).
att(77,65).
att(77,64).
att(77,63).
att(77,62).
att(77,60).
att(77,59).
att(77,58).
att(77,56).
att(77,55).
att(77,54).
att(77,53).
att(77,52).
att(77,51).
att(77,50).
att(77,49).
att(77,48).
att(77,46).
att(77,44).
att(77,43).
att(77,42).
att(77,41).
att(77,40).
att(77,39).
att(77,38).
att(77,37).
att(77,35).
att(77,33).
att(77,31).
att(77,30).
att(77,29).
att(77,28).
att(77,27).
att(77,26).
att(77,25).
att(77,23).
att(77,22).
att(77,20).
att(77,19).
att(77,15).
att(77,14).
att(77,13).
att(77,12).
att(77,11).
att(77,10).
att(77,9).
att(77,8).
att(77,7).
att(77,4).
att(77,3).
att(77,2).
att(76,182).
att(76,180).
att(76,179).
att(76,178).
att(76,176).
att(76,175).
att(76,174).
att(76,173).
att(76,170).
att(76,169).
att(76,168).
att(76,165).
att(76,164).
att(76,163).
att(76,160).
att(76,158).
att(76,157).
att(76,155).
att(76,153).
att(76,152).
att(76,151).
att(76,150).
att(76,149).
att(76,148).
att(76,147).
att(76,144).
att(76,143).
att(76,140).
att(76,138).
att(76,137).
att(76,136).
att(76,132).
att(76,131).
att(76,130).
att(76,127).
att(76,124).
att(76,123).
att(76,122).
att(76,121).
att(76,120).
att(76,119).
att(76,116).
att(76,115).
att(76,114).
att(76,113).
att(76,112).
att(76,111).
att(76,110).
att(76,109).
att(76,108).
att(76,107).
att(76,106).
att(76,105).
att(76,104).
att(76,103).
att(76,102).
att(76,101).
att(76,98).
att(76,97).
att(76,95).
att(76,93).
att(76,92).
att(76,89).
att(76,87).
att(76,84).
att(76,81).
att(76,79).
att(76,77).
att(76,76).
att(76,73).
att(76,72).
att(76,71).
att(76,70).
att(76,69).
att(76,66).
att(76,65).
att(76,62).
att(76,58).
att(76,56).
att(76,51).
att(76,50).
att(76,49).
att(76,48).
att(76,46).
att(76,44).
att(76,42).
att(76,39).
att(76,35).
att(76,31).
att(76,30).
att(76,29).
att(76,27).
att(76,26).
att(76,23).
att(76,22).
att(76,20).
att(76,19).
att(76,15).
att(76,14).
att(76,13).
att(76,12).
att(76,11).
att(76,10).
att(76,9).
att(76,8).
att(76,7).
att(76,4).
att(76,3).
att(74,182).
att(74,181).
att(74,180).
att(74,179).
att(74,178).
att(74,177).
att(74,176).
att(74,175).
att(74,174).
att(74,173).
att(74,170).
att(74,169).
att(74,168).
att(74,166).
att(74,165).
att(74,164).
att(74,163).
att(74,161).
att(74,160).
att(74,159).
att(74,158).
att(74,157).
att(74,155).
att(74,154).
att(74,153).
att(74,152).
att(74,151).
att(74,150).
att(74,149).
att(74,148).
att(74,147).
att(74,146).
att(74,145).
att(74,144).
att(74,143).
att(74,139).
att(74,138).
att(74,137).
att(74,136).
att(74,134).
att(74,133).
att(74,132).
att(74,131).
att(74,130).
att(74,129).
att(74,127).
att(74,124).
att(74,123).
att(74,122).
att(74,121).
att(74,120).
att(74,118).
att(74,117).
att(74,116).
att(74,115).
att(74,113).
att(74,112).
att(74,111).
att(74,110).
att(74,108).
att(74,107).
att(74,106).
att(74,105).
att(74,104).
att(74,103).
att(74,102).
att(74,101).
att(74,100).
att(74,99).
att(74,98).
att(74,97).
att(74,96).
att(74,95).
att(74,93).
att(74,92).
att(74,91).
att(74,89).
att(74,87).
att(74,86).
att(74,85).
att(74,84).
att(74,82).
att(74,81).
att(74,80).
att(74,79).
att(74,78).
att(74,77).
att(74,76).
att(74,75).
att(74,73).
att(74,72).
att(74,71).
att(74,70).
att(74,69).
att(74,68).
att(74,65).
att(74,64).
att(74,63).
att(74,62).
att(74,60).
att(74,59).
att(74,58).
att(74,56).
att(74,55).
att(74,54).
att(74,53).
att(74,52).
att(74,51).
att(74,50).
att(74,49).
att(74,48).
att(74,46).
att(74,44).
att(74,43).
att(74,42).
att(74,41).
att(74,40).
att(74,39).
att(74,38).
att(74,35).
att(74,33).
att(74,31).
att(74,30).
att(74,29).
att(74,28).
att(74,27).
att(74,26).
att(74,25).
att(74,23).
att(74,22).
att(74,20).
att(74,19).
att(74,15).
att(74,13).
att(74,12).
att(74,11).
att(74,10).
att(74,8).
att(74,4).
att(74,3).
att(74,2).
att(73,182).
att(73,181).
att(73,180).
att(73,179).
att(73,178).
att(73,177).
att(73,176).
att(73,175).
att(73,174).
att(73,173).
att(73,171).
att(73,170).
att(73,169).
att(73,168).
att(73,166).
att(73,165).
att(73,164).
att(73,163).
att(73,162).
att(73,161).
att(73,160).
att(73,159).
att(73,158).
att(73,157).
att(73,155).
att(73,154).
att(73,153).
att(73,152).
att(73,151).
att(73,150).
att(73,149).
att(73,148).
att(73,147).
att(73,146).
att(73,145).
att(73,144).
att(73,143).
att(73,142).
att(73,141).
att(73,139).
att(73,138).
att(73,137).
att(73,136).
att(73,135).
att(73,134).
att(73,133).
att(73,132).
att(73,131).
att(73,130).
att(73,129).
att(73,128).
att(73,127).
att(73,124).
att(73,123).
att(73,122).
att(73,121).
att(73,120).
att(73,118).
att(73,117).
att(73,116).
att(73,115).
att(73,114).
att(73,113).
att(73,112).
att(73,111).
att(73,110).
att(73,108).
att(73,107).
att(73,106).
att(73,105).
att(73,104).
att(73,103).
att(73,102).
att(73,101).
att(73,100).
att(73,99).
att(73,98).
att(73,97).
att(73,96).
att(73,95).
att(73,93).
att(73,92).
att(73,91).
att(73,89).
att(73,87).
att(73,86).
att(73,85).
att(73,84).
att(73,83).
att(73,82).
att(73,81).
att(73,80).
att(73,79).
att(73,78).
att(73,77).
att(73,76).
att(73,75).
att(73,73).
att(73,72).
att(73,71).
att(73,70).
att(73,69).
att(73,68).
att(73,65).
att(73,64).
att(73,63).
att(73,62).
att(73,61).
att(73,60).
att(73,59).
att(73,58).
att(73,56).
att(73,55).
att(73,54).
att(73,53).
att(73,52).
att(73,51).
att(73,50).
att(73,49).
att(73,48).
att(73,46).
att(73,44).
att(73,43).
att(73,42).
att(73,41).
att(73,40).
att(73,39).
att(73,38).
att(73,37).
att(73,35).
att(73,33).
att(73,31).
att(73,30).
att(73,29).
att(73,28).
att(73,27).
att(73,26).
att(73,25).
att(73,23).
att(73,22).
att(73,20).
att(73,19).
att(73,18).
att(73,15).
att(73,14).
att(73,13).
att(73,12).
att(73,11).
att(73,10).
att(73,8).
att(73,4).
att(73,3).
att(73,2).
att(72,182).
att(72,181).
att(72,180).
att(72,179).
att(72,178).
att(72,177).
att(72,176).
att(72,175).
att(72,174).
att(72,173).
att(72,172).
att(72,171).
att(72,170).
att(72,169).
att(72,168).
att(72,167).
att(72,166).
att(72,165).
att(72,164).
att(72,163).
att(72,160).
att(72,159).
att(72,158).
att(72,157).
att(72,155).
att(72,154).
att(72,153).
att(72,152).
att(72,151).
att(72,150).
att(72,149).
att(72,148).
att(72,147).
att(72,146).
att(72,145).
att(72,144).
att(72,143).
att(72,141).
att(72,139).
att(72,138).
att(72,137).
att(72,136).
att(72,134).
att(72,133).
att(72,132).
att(72,131).
att(72,130).
att(72,129).
att(72,128).
att(72,127).
att(72,125).
att(72,124).
att(72,123).
att(72,122).
att(72,121).
att(72,120).
att(72,118).
att(72,117).
att(72,116).
att(72,115).
att(72,114).
att(72,113).
att(72,112).
att(72,111).
att(72,110).
att(72,109).
att(72,108).
att(72,107).
att(72,106).
att(72,105).
att(72,104).
att(72,103).
att(72,102).
att(72,101).
att(72,100).
att(72,99).
att(72,98).
att(72,97).
att(72,96).
att(72,95).
att(72,93).
att(72,92).
att(72,91).
att(72,90).
att(72,89).
att(72,88).
att(72,87).
att(72,86).
att(72,85).
att(72,84).
att(72,82).
att(72,81).
att(72,80).
att(72,79).
att(72,78).
att(72,77).
att(72,76).
att(72,75).
att(72,73).
att(72,72).
att(72,71).
att(72,70).
att(72,69).
att(72,68).
att(72,66).
att(72,65).
att(72,64).
att(72,63).
att(72,62).
att(72,61).
att(72,60).
att(72,59).
att(72,58).
att(72,57).
att(72,56).
att(72,55).
att(72,54).
att(72,53).
att(72,52).
att(72,51).
att(72,50).
att(72,49).
att(72,48).
att(72,46).
att(72,45).
att(72,44).
att(72,43).
att(72,42).
att(72,41).
att(72,40).
att(72,39).
att(72,38).
att(72,36).
att(72,35).
att(72,33).
att(72,32).
att(72,31).
att(72,30).
att(72,29).
att(72,28).
att(72,27).
att(72,26).
att(72,25).
att(72,24).
att(72,23).
att(72,22).
att(72,21).
att(72,20).
att(72,19).
att(72,18).
att(72,15).
att(72,13).
att(72,12).
att(72,11).
att(72,10).
att(72,9).
att(72,8).
att(72,4).
att(72,3).
att(72,2).
att(71,182).
att(71,179).
att(71,178).
att(71,176).
att(71,175).
att(71,174).
att(71,173).
att(71,171).
att(71,170).
att(71,168).
att(71,163).
att(71,162).
att(71,160).
att(71,159).
att(71,158).
att(71,157).
att(71,155).
att(71,151).
att(71,150).
att(71,149).
att(71,148).
att(71,147).
att(71,145).
att(71,139).
att(71,138).
att(71,137).
att(71,136).
att(71,134).
att(71,132).
att(71,131).
att(71,130).
att(71,128).
att(71,127).
att(71,124).
att(71,123).
att(71,121).
att(71,120).
att(71,118).
att(71,116).
att(71,111).
att(71,107).
att(71,106).
att(71,105).
att(71,104).
att(71,103).
att(71,102).
att(71,101).
att(71,100).
att(71,99).
att(71,98).
att(71,95).
att(71,93).
att(71,89).
att(71,87).
att(71,84).
att(71,82).
att(71,81).
att(71,80).
att(71,79).
att(71,78).
att(71,73).
att(71,72).
att(71,71).
att(71,65).
att(71,64).
att(71,61).
att(71,60).
att(71,58).
att(71,56).
att(71,51).
att(71,50).
att(71,49).
att(71,48).
att(71,46).
att(71,44).
att(71,42).
att(71,41).
att(71,40).
att(71,39).
att(71,35).
att(71,33).
att(71,31).
att(71,29).
att(71,27).
att(71,26).
att(71,22).
att(71,20).
att(71,19).
att(71,18).
att(71,15).
att(71,13).
att(71,12).
att(71,11).
att(71,10).
att(71,8).
att(71,4).
att(70,182).
att(70,181).
att(70,180).
att(70,179).
att(70,178).
att(70,177).
att(70,176).
att(70,175).
att(70,174).
att(70,173).
att(70,170).
att(70,169).
att(70,168).
att(70,166).
att(70,165).
att(70,164).
att(70,163).
att(70,161).
att(70,160).
att(70,159).
att(70,158).
att(70,157).
att(70,155).
att(70,154).
att(70,153).
att(70,152).
att(70,151).
att(70,150).
att(70,149).
att(70,148).
att(70,147).
att(70,146).
att(70,145).
att(70,144).
att(70,143).
att(70,139).
att(70,138).
att(70,137).
att(70,136).
att(70,134).
att(70,133).
att(70,132).
att(70,131).
att(70,130).
att(70,129).
att(70,127).
att(70,124).
att(70,123).
att(70,122).
att(70,121).
att(70,120).
att(70,118).
att(70,117).
att(70,116).
att(70,115).
att(70,113).
att(70,112).
att(70,111).
att(70,110).
att(70,108).
att(70,107).
att(70,106).
att(70,105).
att(70,104).
att(70,103).
att(70,102).
att(70,101).
att(70,100).
att(70,99).
att(70,98).
att(70,97).
att(70,96).
att(70,95).
att(70,93).
att(70,92).
att(70,91).
att(70,89).
att(70,87).
att(70,86).
att(70,85).
att(70,84).
att(70,82).
att(70,81).
att(70,80).
att(70,79).
att(70,78).
att(70,77).
att(70,76).
att(70,75).
att(70,73).
att(70,72).
att(70,71).
att(70,70).
att(70,69).
att(70,68).
att(70,65).
att(70,64).
att(70,63).
att(70,62).
att(70,60).
att(70,59).
att(70,58).
att(70,56).
att(70,55).
att(70,54).
att(70,53).
att(70,52).
att(70,51).
att(70,50).
att(70,49).
att(70,48).
att(70,46).
att(70,44).
att(70,43).
att(70,42).
att(70,41).
att(70,40).
att(70,39).
att(70,38).
att(70,37).
att(70,35).
att(70,33).
att(70,31).
att(70,30).
att(70,29).
att(70,28).
att(70,27).
att(70,26).
att(70,25).
att(70,23).
att(70,22).
att(70,20).
att(70,19).
att(70,15).
att(70,13).
att(70,12).
att(70,11).
att(70,10).
att(70,8).
att(70,4).
att(70,3).
att(70,2).
att(69,182).
att(69,179).
att(69,178).
att(69,176).
att(69,175).
att(69,174).
att(69,173).
att(69,170).
att(69,168).
att(69,163).
att(69,160).
att(69,158).
att(69,157).
att(69,155).
att(69,151).
att(69,150).
att(69,149).
att(69,148).
att(69,147).
att(69,137).
att(69,136).
att(69,132).
att(69,130).
att(69,124).
att(69,123).
att(69,121).
att(69,120).
att(69,117).
att(69,116).
att(69,111).
att(69,107).
att(69,106).
att(69,105).
att(69,104).
att(69,103).
att(69,102).
att(69,101).
att(69,98).
att(69,96).
att(69,95).
att(69,93).
att(69,89).
att(69,87).
att(69,81).
att(69,79).
att(69,73).
att(69,72).
att(69,71).
att(69,65).
att(69,58).
att(69,56).
att(69,51).
att(69,50).
att(69,48).
att(69,46).
att(69,44).
att(69,42).
att(69,39).
att(69,35).
att(69,31).
att(69,29).
att(69,27).
att(69,26).
att(69,22).
att(69,20).
att(69,19).
att(69,15).
att(69,13).
att(69,12).
att(69,11).
att(69,10).
att(69,4).
att(68,182).
att(68,181).
att(68,180).
att(68,179).
att(68,178).
att(68,177).
att(68,176).
att(68,175).
att(68,174).
att(68,173).
att(68,170).
att(68,169).
att(68,168).
att(68,166).
att(68,165).
att(68,164).
att(68,163).
att(68,160).
att(68,159).
att(68,158).
att(68,157).
att(68,155).
att(68,154).
att(68,153).
att(68,152).
att(68,151).
att(68,150).
att(68,149).
att(68,148).
att(68,147).
att(68,146).
att(68,145).
att(68,144).
att(68,143).
att(68,139).
att(68,138).
att(68,137).
att(68,136).
att(68,134).
att(68,133).
att(68,132).
att(68,131).
att(68,130).
att(68,129).
att(68,127).
att(68,124).
att(68,123).
att(68,122).
att(68,121).
att(68,120).
att(68,118).
att(68,117).
att(68,116).
att(68,115).
att(68,113).
att(68,112).
att(68,111).
att(68,110).
att(68,108).
att(68,107).
att(68,106).
att(68,105).
att(68,104).
att(68,103).
att(68,102).
att(68,101).
att(68,100).
att(68,99).
att(68,98).
att(68,97).
att(68,96).
att(68,95).
att(68,93).
att(68,92).
att(68,91).
att(68,89).
att(68,87).
att(68,86).
att(68,85).
att(68,84).
att(68,82).
att(68,81).
att(68,80).
att(68,79).
att(68,78).
att(68,77).
att(68,76).
att(68,75).
att(68,73).
att(68,72).
att(68,71).
att(68,70).
att(68,69).
att(68,68).
att(68,65).
att(68,64).
att(68,63).
att(68,62).
att(68,60).
att(68,59).
att(68,58).
att(68,56).
att(68,55).
att(68,54).
att(68,53).
att(68,52).
att(68,51).
att(68,50).
att(68,49).
att(68,48).
att(68,46).
att(68,44).
att(68,43).
att(68,42).
att(68,41).
att(68,40).
att(68,39).
att(68,38).
att(68,37).
att(68,35).
att(68,33).
att(68,31).
att(68,30).
att(68,29).
att(68,28).
att(68,27).
att(68,26).
att(68,25).
att(68,23).
att(68,22).
att(68,20).
att(68,19).
att(68,15).
att(68,13).
att(68,12).
att(68,11).
att(68,10).
att(68,8).
att(68,4).
att(68,3).
att(68,2).
att(67,182).
att(67,181).
att(67,180).
att(67,179).
att(67,178).
att(67,177).
att(67,176).
att(67,175).
att(67,174).
att(67,173).
att(67,170).
att(67,169).
att(67,168).
att(67,166).
att(67,165).
att(67,164).
att(67,163).
att(67,160).
att(67,159).
att(67,158).
att(67,157).
att(67,155).
att(67,154).
att(67,153).
att(67,152).
att(67,151).
att(67,150).
att(67,149).
att(67,148).
att(67,147).
att(67,146).
att(67,145).
att(67,144).
att(67,143).
att(67,139).
att(67,138).
att(67,137).
att(67,136).
att(67,134).
att(67,133).
att(67,132).
att(67,131).
att(67,130).
att(67,129).
att(67,127).
att(67,124).
att(67,123).
att(67,122).
att(67,121).
att(67,120).
att(67,118).
att(67,117).
att(67,116).
att(67,115).
att(67,114).
att(67,113).
att(67,112).
att(67,111).
att(67,110).
att(67,109).
att(67,108).
att(67,107).
att(67,106).
att(67,105).
att(67,104).
att(67,103).
att(67,102).
att(67,101).
att(67,100).
att(67,99).
att(67,98).
att(67,97).
att(67,96).
att(67,95).
att(67,93).
att(67,92).
att(67,91).
att(67,89).
att(67,87).
att(67,86).
att(67,85).
att(67,84).
att(67,82).
att(67,81).
att(67,80).
att(67,79).
att(67,78).
att(67,77).
att(67,76).
att(67,75).
att(67,73).
att(67,72).
att(67,71).
att(67,70).
att(67,69).
att(67,68).
att(67,65).
att(67,64).
att(67,63).
att(67,62).
att(67,60).
att(67,59).
att(67,58).
att(67,56).
att(67,55).
att(67,54).
att(67,53).
att(67,52).
att(67,51).
att(67,50).
att(67,49).
att(67,48).
att(67,46).
att(67,44).
att(67,43).
att(67,42).
att(67,41).
att(67,40).
att(67,39).
att(67,38).
att(67,35).
att(67,33).
att(67,31).
att(67,30).
att(67,29).
att(67,28).
att(67,27).
att(67,26).
att(67,25).
att(67,23).
att(67,22).
att(67,20).
att(67,19).
att(67,15).
att(67,13).
att(67,12).
att(67,11).
att(67,10).
att(67,9).
att(67,8).
att(67,4).
att(67,3).
att(67,2).
att(67,1).
att(65,182).
att(65,181).
att(65,180).
att(65,179).
att(65,178).
att(65,177).
att(65,176).
att(65,175).
att(65,174).
att(65,173).
att(65,172).
att(65,171).
att(65,170).
att(65,169).
att(65,168).
att(65,167).
att(65,166).
att(65,165).
att(65,164).
att(65,163).
att(65,162).
att(65,161).
att(65,160).
att(65,159).
att(65,158).
att(65,157).
att(65,155).
att(65,154).
att(65,153).
att(65,152).
att(65,151).
att(65,150).
att(65,149).
att(65,148).
att(65,147).
att(65,146).
att(65,145).
att(65,144).
att(65,143).
att(65,141).
att(65,139).
att(65,138).
att(65,137).
att(65,136).
att(65,134).
att(65,133).
att(65,132).
att(65,131).
att(65,130).
att(65,129).
att(65,128).
att(65,127).
att(65,126).
att(65,124).
att(65,123).
att(65,122).
att(65,121).
att(65,120).
att(65,118).
att(65,117).
att(65,116).
att(65,115).
att(65,113).
att(65,112).
att(65,111).
att(65,110).
att(65,108).
att(65,107).
att(65,106).
att(65,105).
att(65,104).
att(65,103).
att(65,102).
att(65,101).
att(65,100).
att(65,99).
att(65,98).
att(65,97).
att(65,96).
att(65,95).
att(65,93).
att(65,92).
att(65,91).
att(65,89).
att(65,87).
att(65,86).
att(65,85).
att(65,84).
att(65,82).
att(65,81).
att(65,80).
att(65,79).
att(65,78).
att(65,77).
att(65,76).
att(65,75).
att(65,73).
att(65,72).
att(65,71).
att(65,70).
att(65,69).
att(65,68).
att(65,65).
att(65,64).
att(65,63).
att(65,62).
att(65,61).
att(65,60).
att(65,59).
att(65,58).
att(65,56).
att(65,55).
att(65,54).
att(65,53).
att(65,52).
att(65,51).
att(65,50).
att(65,49).
att(65,48).
att(65,46).
att(65,44).
att(65,43).
att(65,42).
att(65,41).
att(65,40).
att(65,39).
att(65,38).
att(65,37).
att(65,35).
att(65,33).
att(65,32).
att(65,31).
att(65,30).
att(65,29).
att(65,28).
att(65,27).
att(65,26).
att(65,25).
att(65,23).
att(65,22).
att(65,20).
att(65,19).
att(65,18).
att(65,15).
att(65,13).
att(65,12).
att(65,11).
att(65,10).
att(65,8).
att(65,6).
att(65,4).
att(65,3).
att(65,2).
att(64,182).
att(64,181).
att(64,180).
att(64,179).
att(64,178).
att(64,177).
att(64,176).
att(64,175).
att(64,174).
att(64,173).
att(64,172).
att(64,171).
att(64,170).
att(64,169).
att(64,168).
att(64,167).
att(64,166).
att(64,165).
att(64,164).
att(64,163).
att(64,160).
att(64,159).
att(64,158).
att(64,157).
att(64,155).
att(64,154).
att(64,153).
att(64,152).
att(64,151).
att(64,150).
att(64,149).
att(64,148).
att(64,147).
att(64,146).
att(64,145).
att(64,144).
att(64,143).
att(64,141).
att(64,139).
att(64,138).
att(64,137).
att(64,136).
att(64,134).
att(64,133).
att(64,132).
att(64,131).
att(64,130).
att(64,129).
att(64,128).
att(64,127).
att(64,124).
att(64,123).
att(64,122).
att(64,121).
att(64,120).
att(64,118).
att(64,117).
att(64,116).
att(64,115).
att(64,114).
att(64,113).
att(64,112).
att(64,111).
att(64,110).
att(64,109).
att(64,108).
att(64,107).
att(64,106).
att(64,105).
att(64,104).
att(64,103).
att(64,102).
att(64,101).
att(64,100).
att(64,99).
att(64,98).
att(64,97).
att(64,96).
att(64,95).
att(64,93).
att(64,92).
att(64,91).
att(64,90).
att(64,89).
att(64,88).
att(64,87).
att(64,86).
att(64,85).
att(64,84).
att(64,82).
att(64,81).
att(64,80).
att(64,79).
att(64,78).
att(64,77).
att(64,76).
att(64,75).
att(64,73).
att(64,72).
att(64,71).
att(64,70).
att(64,69).
att(64,68).
att(64,66).
att(64,65).
att(64,64).
att(64,63).
att(64,62).
att(64,61).
att(64,60).
att(64,59).
att(64,58).
att(64,57).
att(64,56).
att(64,55).
att(64,54).
att(64,53).
att(64,52).
att(64,51).
att(64,50).
att(64,49).
att(64,48).
att(64,46).
att(64,45).
att(64,44).
att(64,43).
att(64,42).
att(64,41).
att(64,40).
att(64,39).
att(64,38).
att(64,37).
att(64,36).
att(64,35).
att(64,33).
att(64,32).
att(64,31).
att(64,30).
att(64,29).
att(64,28).
att(64,27).
att(64,26).
att(64,25).
att(64,24).
att(64,23).
att(64,22).
att(64,20).
att(64,19).
att(64,18).
att(64,15).
att(64,13).
att(64,12).
att(64,11).
att(64,10).
att(64,9).
att(64,8).
att(64,4).
att(64,3).
att(64,2).
att(62,182).
att(62,181).
att(62,180).
att(62,179).
att(62,178).
att(62,177).
att(62,176).
att(62,175).
att(62,174).
att(62,173).
att(62,170).
att(62,169).
att(62,168).
att(62,166).
att(62,165).
att(62,164).
att(62,163).
att(62,160).
att(62,159).
att(62,158).
att(62,157).
att(62,155).
att(62,154).
att(62,153).
att(62,152).
att(62,151).
att(62,150).
att(62,149).
att(62,148).
att(62,147).
att(62,146).
att(62,145).
att(62,144).
att(62,143).
att(62,139).
att(62,138).
att(62,137).
att(62,136).
att(62,134).
att(62,133).
att(62,132).
att(62,131).
att(62,130).
att(62,129).
att(62,127).
att(62,124).
att(62,123).
att(62,122).
att(62,121).
att(62,120).
att(62,118).
att(62,117).
att(62,116).
att(62,115).
att(62,113).
att(62,112).
att(62,111).
att(62,110).
att(62,108).
att(62,107).
att(62,106).
att(62,105).
att(62,104).
att(62,103).
att(62,102).
att(62,101).
att(62,100).
att(62,99).
att(62,98).
att(62,97).
att(62,96).
att(62,95).
att(62,93).
att(62,92).
att(62,91).
att(62,89).
att(62,87).
att(62,86).
att(62,85).
att(62,84).
att(62,82).
att(62,81).
att(62,80).
att(62,79).
att(62,78).
att(62,77).
att(62,76).
att(62,75).
att(62,73).
att(62,72).
att(62,71).
att(62,70).
att(62,69).
att(62,68).
att(62,65).
att(62,64).
att(62,63).
att(62,62).
att(62,60).
att(62,59).
att(62,58).
att(62,56).
att(62,55).
att(62,54).
att(62,53).
att(62,52).
att(62,51).
att(62,50).
att(62,49).
att(62,48).
att(62,46).
att(62,44).
att(62,43).
att(62,42).
att(62,41).
att(62,40).
att(62,39).
att(62,38).
att(62,37).
att(62,35).
att(62,33).
att(62,31).
att(62,30).
att(62,29).
att(62,28).
att(62,27).
att(62,26).
att(62,25).
att(62,23).
att(62,22).
att(62,20).
att(62,19).
att(62,15).
att(62,13).
att(62,12).
att(62,11).
att(62,10).
att(62,8).
att(62,4).
att(62,3).
att(62,2).
att(61,182).
att(61,179).
att(61,178).
att(61,177).
att(61,176).
att(61,175).
att(61,174).
att(61,173).
att(61,172).
att(61,171).
att(61,170).
att(61,168).
att(61,167).
att(61,166).
att(61,164).
att(61,163).
att(61,160).
att(61,158).
att(61,157).
att(61,155).
att(61,153).
att(61,151).
att(61,150).
att(61,149).
att(61,148).
att(61,147).
att(61,145).
att(61,144).
att(61,141).
att(61,138).
att(61,137).
att(61,136).
att(61,132).
att(61,131).
att(61,130).
att(61,129).
att(61,128).
att(61,127).
att(61,124).
att(61,123).
att(61,122).
att(61,121).
att(61,120).
att(61,118).
att(61,117).
att(61,116).
att(61,114).
att(61,112).
att(61,111).
att(61,110).
att(61,109).
att(61,108).
att(61,107).
att(61,106).
att(61,105).
att(61,104).
att(61,103).
att(61,102).
att(61,101).
att(61,100).
att(61,98).
att(61,97).
att(61,96).
att(61,95).
att(61,93).
att(61,92).
att(61,91).
att(61,90).
att(61,89).
att(61,88).
att(61,87).
att(61,86).
att(61,84).
att(61,81).
att(61,80).
att(61,79).
att(61,78).
att(61,77).
att(61,73).
att(61,72).
att(61,71).
att(61,69).
att(61,66).
att(61,65).
att(61,61).
att(61,59).
att(61,58).
att(61,57).
att(61,56).
att(61,55).
att(61,53).
att(61,52).
att(61,51).
att(61,50).
att(61,49).
att(61,48).
att(61,46).
att(61,45).
att(61,44).
att(61,42).
att(61,40).
att(61,39).
att(61,38).
att(61,36).
att(61,35).
att(61,32).
att(61,31).
att(61,29).
att(61,27).
att(61,26).
att(61,24).
att(61,23).
att(61,22).
att(61,20).
att(61,19).
att(61,18).
att(61,15).
att(61,13).
att(61,12).
att(61,11).
att(61,10).
att(61,9).
att(61,8).
att(61,4).
att(61,2).
att(60,182).
att(60,181).
att(60,180).
att(60,179).
att(60,178).
att(60,177).
att(60,176).
att(60,175).
att(60,174).
att(60,173).
att(60,172).
att(60,171).
att(60,170).
att(60,169).
att(60,168).
att(60,167).
att(60,166).
att(60,165).
att(60,164).
att(60,163).
att(60,161).
att(60,160).
att(60,159).
att(60,158).
att(60,157).
att(60,155).
att(60,154).
att(60,153).
att(60,152).
att(60,151).
att(60,150).
att(60,149).
att(60,148).
att(60,147).
att(60,146).
att(60,145).
att(60,144).
att(60,143).
att(60,141).
att(60,139).
att(60,138).
att(60,137).
att(60,136).
att(60,134).
att(60,133).
att(60,132).
att(60,131).
att(60,130).
att(60,129).
att(60,128).
att(60,127).
att(60,124).
att(60,123).
att(60,122).
att(60,121).
att(60,120).
att(60,118).
att(60,117).
att(60,116).
att(60,115).
att(60,114).
att(60,113).
att(60,112).
att(60,111).
att(60,110).
att(60,109).
att(60,108).
att(60,107).
att(60,106).
att(60,105).
att(60,104).
att(60,103).
att(60,102).
att(60,101).
att(60,100).
att(60,99).
att(60,98).
att(60,97).
att(60,96).
att(60,95).
att(60,93).
att(60,92).
att(60,91).
att(60,90).
att(60,89).
att(60,88).
att(60,87).
att(60,86).
att(60,85).
att(60,84).
att(60,82).
att(60,81).
att(60,80).
att(60,79).
att(60,78).
att(60,77).
att(60,76).
att(60,75).
att(60,73).
att(60,72).
att(60,71).
att(60,70).
att(60,69).
att(60,68).
att(60,66).
att(60,65).
att(60,64).
att(60,63).
att(60,62).
att(60,61).
att(60,60).
att(60,59).
att(60,58).
att(60,57).
att(60,56).
att(60,55).
att(60,54).
att(60,53).
att(60,52).
att(60,51).
att(60,50).
att(60,49).
att(60,48).
att(60,46).
att(60,45).
att(60,44).
att(60,43).
att(60,42).
att(60,41).
att(60,40).
att(60,39).
att(60,38).
att(60,37).
att(60,36).
att(60,35).
att(60,33).
att(60,32).
att(60,31).
att(60,30).
att(60,29).
att(60,28).
att(60,27).
att(60,26).
att(60,25).
att(60,24).
att(60,23).
att(60,22).
att(60,20).
att(60,19).
att(60,18).
att(60,15).
att(60,13).
att(60,12).
att(60,11).
att(60,10).
att(60,9).
att(60,8).
att(60,4).
att(60,3).
att(60,2).
att(59,182).
att(59,181).
att(59,180).
att(59,179).
att(59,178).
att(59,177).
att(59,176).
att(59,175).
att(59,174).
att(59,173).
att(59,172).
att(59,170).
att(59,169).
att(59,168).
att(59,167).
att(59,166).
att(59,165).
att(59,164).
att(59,163).
att(59,161).
att(59,160).
att(59,159).
att(59,158).
att(59,157).
att(59,155).
att(59,154).
att(59,153).
att(59,152).
att(59,151).
att(59,150).
att(59,149).
att(59,148).
att(59,147).
att(59,146).
att(59,145).
att(59,144).
att(59,143).
att(59,141).
att(59,139).
att(59,138).
att(59,137).
att(59,136).
att(59,134).
att(59,133).
att(59,132).
att(59,131).
att(59,130).
att(59,129).
att(59,127).
att(59,126).
att(59,124).
att(59,123).
att(59,122).
att(59,121).
att(59,120).
att(59,118).
att(59,117).
att(59,116).
att(59,115).
att(59,113).
att(59,112).
att(59,111).
att(59,110).
att(59,108).
att(59,107).
att(59,106).
att(59,105).
att(59,104).
att(59,103).
att(59,102).
att(59,101).
att(59,100).
att(59,99).
att(59,98).
att(59,97).
att(59,96).
att(59,95).
att(59,93).
att(59,92).
att(59,91).
att(59,89).
att(59,87).
att(59,86).
att(59,85).
att(59,84).
att(59,82).
att(59,81).
att(59,80).
att(59,79).
att(59,78).
att(59,77).
att(59,76).
att(59,75).
att(59,73).
att(59,72).
att(59,71).
att(59,70).
att(59,69).
att(59,68).
att(59,65).
att(59,64).
att(59,63).
att(59,62).
att(59,60).
att(59,59).
att(59,58).
att(59,56).
att(59,55).
att(59,54).
att(59,53).
att(59,52).
att(59,51).
att(59,50).
att(59,49).
att(59,48).
att(59,46).
att(59,44).
att(59,43).
att(59,42).
att(59,41).
att(59,40).
att(59,39).
att(59,38).
att(59,37).
att(59,35).
att(59,33).
att(59,32).
att(59,31).
att(59,30).
att(59,29).
att(59,28).
att(59,27).
att(59,26).
att(59,25).
att(59,23).
att(59,22).
att(59,20).
att(59,19).
att(59,18).
att(59,15).
att(59,13).
att(59,12).
att(59,11).
att(59,10).
att(59,8).
att(59,6).
att(59,4).
att(59,3).
att(59,2).
att(58,182).
att(58,181).
att(58,179).
att(58,178).
att(58,177).
att(58,176).
att(58,175).
att(58,174).
att(58,173).
att(58,172).
att(58,171).
att(58,170).
att(58,168).
att(58,167).
att(58,165).
att(58,163).
att(58,162).
att(58,161).
att(58,160).
att(58,159).
att(58,158).
att(58,157).
att(58,155).
att(58,153).
att(58,152).
att(58,151).
att(58,150).
att(58,149).
att(58,148).
att(58,147).
att(58,145).
att(58,143).
att(58,142).
att(58,141).
att(58,139).
att(58,138).
att(58,137).
att(58,136).
att(58,135).
att(58,134).
att(58,132).
att(58,131).
att(58,130).
att(58,129).
att(58,128).
att(58,127).
att(58,124).
att(58,123).
att(58,121).
att(58,120).
att(58,119).
att(58,118).
att(58,116).
att(58,114).
att(58,113).
att(58,111).
att(58,110).
att(58,108).
att(58,107).
att(58,106).
att(58,105).
att(58,104).
att(58,103).
att(58,102).
att(58,101).
att(58,100).
att(58,99).
att(58,98).
att(58,95).
att(58,94).
att(58,93).
att(58,91).
att(58,89).
att(58,88).
att(58,87).
att(58,86).
att(58,84).
att(58,83).
att(58,82).
att(58,81).
att(58,80).
att(58,79).
att(58,78).
att(58,77).
att(58,76).
att(58,73).
att(58,72).
att(58,71).
att(58,68).
att(58,66).
att(58,65).
att(58,64).
att(58,61).
att(58,60).
att(58,59).
att(58,58).
att(58,57).
att(58,56).
att(58,55).
att(58,52).
att(58,51).
att(58,50).
att(58,49).
att(58,48).
att(58,47).
att(58,46).
att(58,44).
att(58,43).
att(58,42).
att(58,41).
att(58,40).
att(58,39).
att(58,38).
att(58,37).
att(58,35).
att(58,33).
att(58,32).
att(58,31).
att(58,30).
att(58,29).
att(58,28).
att(58,27).
att(58,26).
att(58,25).
att(58,22).
att(58,20).
att(58,19).
att(58,18).
att(58,17).
att(58,15).
att(58,14).
att(58,13).
att(58,12).
att(58,11).
att(58,10).
att(58,8).
att(58,7).
att(58,6).
att(58,4).
att(58,3).
att(58,2).
att(57,182).
att(57,181).
att(57,179).
att(57,177).
att(57,175).
att(57,174).
att(57,172).
att(57,170).
att(57,168).
att(57,167).
att(57,163).
att(57,161).
att(57,160).
att(57,157).
att(57,153).
att(57,151).
att(57,148).
att(57,147).
att(57,141).
att(57,138).
att(57,137).
att(57,136).
att(57,132).
att(57,131).
att(57,129).
att(57,127).
att(57,124).
att(57,121).
att(57,116).
att(57,113).
att(57,111).
att(57,106).
att(57,105).
att(57,102).
att(57,101).
att(57,98).
att(57,95).
att(57,93).
att(57,91).
att(57,87).
att(57,86).
att(57,85).
att(57,84).
att(57,79).
att(57,73).
att(57,72).
att(57,68).
att(57,65).
att(57,59).
att(57,58).
att(57,56).
att(57,55).
att(57,52).
att(57,51).
att(57,50).
att(57,49).
att(57,48).
att(57,46).
att(57,44).
att(57,43).
att(57,42).
att(57,39).
att(57,38).
att(57,32).
att(57,31).
att(57,29).
att(57,28).
att(57,27).
att(57,26).
att(57,25).
att(57,22).
att(57,20).
att(57,18).
att(57,13).
att(57,11).
att(57,10).
att(57,8).
att(57,6).
att(57,4).
att(57,3).
att(57,2).
att(56,182).
att(56,180).
att(56,179).
att(56,178).
att(56,177).
att(56,176).
att(56,175).
att(56,174).
att(56,173).
att(56,172).
att(56,171).
att(56,170).
att(56,169).
att(56,168).
att(56,167).
att(56,166).
att(56,165).
att(56,164).
att(56,163).
att(56,161).
att(56,160).
att(56,158).
att(56,157).
att(56,155).
att(56,153).
att(56,152).
att(56,151).
att(56,150).
att(56,149).
att(56,148).
att(56,145).
att(56,144).
att(56,143).
att(56,141).
att(56,138).
att(56,137).
att(56,136).
att(56,132).
att(56,131).
att(56,130).
att(56,129).
att(56,128).
att(56,127).
att(56,126).
att(56,124).
att(56,123).
att(56,122).
att(56,121).
att(56,120).
att(56,118).
att(56,116).
att(56,115).
att(56,114).
att(56,113).
att(56,112).
att(56,111).
att(56,110).
att(56,109).
att(56,108).
att(56,107).
att(56,106).
att(56,105).
att(56,104).
att(56,103).
att(56,102).
att(56,101).
att(56,100).
att(56,98).
att(56,97).
att(56,95).
att(56,93).
att(56,92).
att(56,91).
att(56,90).
att(56,89).
att(56,88).
att(56,87).
att(56,86).
att(56,84).
att(56,81).
att(56,80).
att(56,78).
att(56,77).
att(56,76).
att(56,73).
att(56,72).
att(56,71).
att(56,70).
att(56,69).
att(56,66).
att(56,65).
att(56,62).
att(56,61).
att(56,59).
att(56,58).
att(56,57).
att(56,56).
att(56,55).
att(56,53).
att(56,52).
att(56,51).
att(56,50).
att(56,49).
att(56,48).
att(56,46).
att(56,45).
att(56,44).
att(56,42).
att(56,40).
att(56,39).
att(56,38).
att(56,36).
att(56,35).
att(56,32).
att(56,30).
att(56,29).
att(56,28).
att(56,27).
att(56,26).
att(56,24).
att(56,23).
att(56,22).
att(56,20).
att(56,19).
att(56,18).
att(56,15).
att(56,13).
att(56,12).
att(56,11).
att(56,10).
att(56,9).
att(56,8).
att(56,4).
att(56,3).
att(56,2).
att(55,182).
att(55,181).
att(55,180).
att(55,179).
att(55,178).
att(55,177).
att(55,176).
att(55,175).
att(55,174).
att(55,173).
att(55,172).
att(55,170).
att(55,169).
att(55,168).
att(55,167).
att(55,166).
att(55,165).
att(55,164).
att(55,163).
att(55,161).
att(55,160).
att(55,159).
att(55,158).
att(55,157).
att(55,155).
att(55,154).
att(55,153).
att(55,152).
att(55,151).
att(55,150).
att(55,149).
att(55,148).
att(55,147).
att(55,146).
att(55,145).
att(55,144).
att(55,143).
att(55,142).
att(55,141).
att(55,139).
att(55,138).
att(55,137).
att(55,136).
att(55,135).
att(55,134).
att(55,133).
att(55,132).
att(55,131).
att(55,130).
att(55,129).
att(55,128).
att(55,127).
att(55,124).
att(55,123).
att(55,122).
att(55,121).
att(55,120).
att(55,119).
att(55,118).
att(55,117).
att(55,116).
att(55,115).
att(55,114).
att(55,113).
att(55,112).
att(55,111).
att(55,110).
att(55,108).
att(55,107).
att(55,106).
att(55,105).
att(55,104).
att(55,103).
att(55,102).
att(55,101).
att(55,100).
att(55,99).
att(55,98).
att(55,97).
att(55,96).
att(55,95).
att(55,94).
att(55,93).
att(55,92).
att(55,91).
att(55,89).
att(55,88).
att(55,87).
att(55,86).
att(55,85).
att(55,84).
att(55,83).
att(55,82).
att(55,81).
att(55,80).
att(55,79).
att(55,78).
att(55,77).
att(55,76).
att(55,75).
att(55,73).
att(55,72).
att(55,71).
att(55,70).
att(55,69).
att(55,68).
att(55,66).
att(55,65).
att(55,64).
att(55,63).
att(55,62).
att(55,60).
att(55,59).
att(55,58).
att(55,57).
att(55,56).
att(55,55).
att(55,54).
att(55,53).
att(55,52).
att(55,51).
att(55,50).
att(55,49).
att(55,48).
att(55,47).
att(55,46).
att(55,44).
att(55,43).
att(55,42).
att(55,41).
att(55,40).
att(55,39).
att(55,38).
att(55,37).
att(55,35).
att(55,33).
att(55,32).
att(55,31).
att(55,30).
att(55,29).
att(55,28).
att(55,27).
att(55,26).
att(55,25).
att(55,23).
att(55,22).
att(55,20).
att(55,19).
att(55,18).
att(55,15).
att(55,14).
att(55,13).
att(55,12).
att(55,11).
att(55,10).
att(55,8).
att(55,6).
att(55,4).
att(55,3).
att(55,2).
att(54,182).
att(54,181).
att(54,180).
att(54,179).
att(54,178).
att(54,177).
att(54,176).
att(54,175).
att(54,174).
att(54,173).
att(54,170).
att(54,169).
att(54,168).
att(54,166).
att(54,165).
att(54,164).
att(54,163).
att(54,160).
att(54,159).
att(54,158).
att(54,157).
att(54,155).
att(54,154).
att(54,153).
att(54,152).
att(54,151).
att(54,150).
att(54,149).
att(54,148).
att(54,147).
att(54,146).
att(54,145).
att(54,144).
att(54,143).
att(54,139).
att(54,138).
att(54,137).
att(54,136).
att(54,134).
att(54,133).
att(54,132).
att(54,131).
att(54,130).
att(54,129).
att(54,127).
att(54,124).
att(54,123).
att(54,122).
att(54,121).
att(54,120).
att(54,118).
att(54,117).
att(54,116).
att(54,115).
att(54,113).
att(54,112).
att(54,111).
att(54,110).
att(54,108).
att(54,107).
att(54,106).
att(54,105).
att(54,104).
att(54,103).
att(54,102).
att(54,101).
att(54,100).
att(54,99).
att(54,98).
att(54,97).
att(54,96).
att(54,95).
att(54,93).
att(54,92).
att(54,91).
att(54,89).
att(54,87).
att(54,86).
att(54,85).
att(54,84).
att(54,82).
att(54,81).
att(54,80).
att(54,79).
att(54,78).
att(54,77).
att(54,76).
att(54,75).
att(54,73).
att(54,72).
att(54,71).
att(54,70).
att(54,69).
att(54,68).
att(54,65).
att(54,64).
att(54,63).
att(54,62).
att(54,60).
att(54,59).
att(54,58).
att(54,56).
att(54,55).
att(54,54).
att(54,53).
att(54,52).
att(54,51).
att(54,50).
att(54,49).
att(54,48).
att(54,46).
att(54,44).
att(54,43).
att(54,42).
att(54,41).
att(54,40).
att(54,39).
att(54,38).
att(54,37).
att(54,35).
att(54,33).
att(54,31).
att(54,30).
att(54,29).
att(54,28).
att(54,27).
att(54,26).
att(54,25).
att(54,23).
att(54,22).
att(54,20).
att(54,19).
att(54,15).
att(54,13).
att(54,12).
att(54,11).
att(54,10).
att(54,8).
att(54,4).
att(54,3).
att(54,2).
att(53,182).
att(53,181).
att(53,180).
att(53,179).
att(53,178).
att(53,177).
att(53,176).
att(53,175).
att(53,174).
att(53,173).
att(53,170).
att(53,169).
att(53,168).
att(53,166).
att(53,165).
att(53,164).
att(53,163).
att(53,161).
att(53,160).
att(53,159).
att(53,158).
att(53,157).
att(53,155).
att(53,154).
att(53,153).
att(53,152).
att(53,151).
att(53,150).
att(53,149).
att(53,148).
att(53,147).
att(53,146).
att(53,145).
att(53,144).
att(53,143).
att(53,139).
att(53,138).
att(53,137).
att(53,136).
att(53,134).
att(53,133).
att(53,132).
att(53,131).
att(53,130).
att(53,129).
att(53,127).
att(53,124).
att(53,123).
att(53,122).
att(53,121).
att(53,120).
att(53,118).
att(53,117).
att(53,116).
att(53,115).
att(53,113).
att(53,112).
att(53,111).
att(53,110).
att(53,108).
att(53,107).
att(53,106).
att(53,105).
att(53,104).
att(53,103).
att(53,102).
att(53,101).
att(53,100).
att(53,99).
att(53,98).
att(53,97).
att(53,96).
att(53,95).
att(53,93).
att(53,92).
att(53,91).
att(53,89).
att(53,87).
att(53,86).
att(53,85).
att(53,84).
att(53,82).
att(53,81).
att(53,80).
att(53,79).
att(53,78).
att(53,77).
att(53,76).
att(53,75).
att(53,73).
att(53,72).
att(53,71).
att(53,70).
att(53,69).
att(53,68).
att(53,65).
att(53,64).
att(53,63).
att(53,62).
att(53,60).
att(53,59).
att(53,58).
att(53,56).
att(53,55).
att(53,54).
att(53,53).
att(53,52).
att(53,51).
att(53,50).
att(53,49).
att(53,48).
att(53,46).
att(53,44).
att(53,43).
att(53,42).
att(53,41).
att(53,40).
att(53,39).
att(53,38).
att(53,37).
att(53,35).
att(53,33).
att(53,31).
att(53,30).
att(53,29).
att(53,28).
att(53,27).
att(53,26).
att(53,25).
att(53,23).
att(53,22).
att(53,20).
att(53,19).
att(53,15).
att(53,13).
att(53,12).
att(53,11).
att(53,10).
att(53,8).
att(53,4).
att(53,3).
att(53,2).
att(52,182).
att(52,181).
att(52,180).
att(52,179).
att(52,178).
att(52,177).
att(52,176).
att(52,175).
att(52,174).
att(52,173).
att(52,172).
att(52,170).
att(52,169).
att(52,168).
att(52,167).
att(52,166).
att(52,165).
att(52,164).
att(52,163).
att(52,161).
att(52,160).
att(52,159).
att(52,158).
att(52,157).
att(52,155).
att(52,154).
att(52,153).
att(52,152).
att(52,151).
att(52,150).
att(52,149).
att(52,148).
att(52,147).
att(52,146).
att(52,145).
att(52,144).
att(52,143).
att(52,141).
att(52,139).
att(52,138).
att(52,137).
att(52,136).
att(52,134).
att(52,133).
att(52,132).
att(52,131).
att(52,130).
att(52,129).
att(52,127).
att(52,126).
att(52,124).
att(52,123).
att(52,122).
att(52,121).
att(52,120).
att(52,118).
att(52,117).
att(52,116).
att(52,115).
att(52,113).
att(52,112).
att(52,111).
att(52,110).
att(52,108).
att(52,107).
att(52,106).
att(52,105).
att(52,104).
att(52,103).
att(52,102).
att(52,101).
att(52,100).
att(52,99).
att(52,98).
att(52,97).
att(52,96).
att(52,95).
att(52,93).
att(52,92).
att(52,91).
att(52,89).
att(52,87).
att(52,86).
att(52,85).
att(52,84).
att(52,82).
att(52,81).
att(52,80).
att(52,79).
att(52,78).
att(52,77).
att(52,76).
att(52,75).
att(52,73).
att(52,72).
att(52,71).
att(52,70).
att(52,69).
att(52,68).
att(52,65).
att(52,64).
att(52,63).
att(52,62).
att(52,60).
att(52,59).
att(52,58).
att(52,56).
att(52,55).
att(52,54).
att(52,53).
att(52,52).
att(52,51).
att(52,50).
att(52,49).
att(52,48).
att(52,46).
att(52,44).
att(52,43).
att(52,42).
att(52,41).
att(52,40).
att(52,39).
att(52,38).
att(52,37).
att(52,35).
att(52,33).
att(52,32).
att(52,31).
att(52,30).
att(52,29).
att(52,28).
att(52,27).
att(52,26).
att(52,25).
att(52,23).
att(52,22).
att(52,20).
att(52,19).
att(52,18).
att(52,15).
att(52,13).
att(52,12).
att(52,11).
att(52,10).
att(52,8).
att(52,6).
att(52,4).
att(52,3).
att(52,2).
att(51,182).
att(51,181).
att(51,180).
att(51,179).
att(51,178).
att(51,177).
att(51,176).
att(51,175).
att(51,174).
att(51,173).
att(51,170).
att(51,169).
att(51,168).
att(51,166).
att(51,165).
att(51,164).
att(51,163).
att(51,160).
att(51,159).
att(51,158).
att(51,157).
att(51,155).
att(51,154).
att(51,153).
att(51,152).
att(51,151).
att(51,150).
att(51,149).
att(51,148).
att(51,147).
att(51,146).
att(51,145).
att(51,144).
att(51,143).
att(51,139).
att(51,138).
att(51,137).
att(51,136).
att(51,134).
att(51,133).
att(51,132).
att(51,131).
att(51,130).
att(51,129).
att(51,127).
att(51,126).
att(51,125).
att(51,124).
att(51,123).
att(51,122).
att(51,121).
att(51,120).
att(51,118).
att(51,117).
att(51,116).
att(51,115).
att(51,114).
att(51,113).
att(51,112).
att(51,111).
att(51,110).
att(51,109).
att(51,108).
att(51,107).
att(51,106).
att(51,105).
att(51,104).
att(51,103).
att(51,102).
att(51,101).
att(51,100).
att(51,99).
att(51,98).
att(51,97).
att(51,96).
att(51,95).
att(51,93).
att(51,92).
att(51,91).
att(51,90).
att(51,89).
att(51,87).
att(51,86).
att(51,85).
att(51,84).
att(51,82).
att(51,81).
att(51,80).
att(51,79).
att(51,78).
att(51,77).
att(51,76).
att(51,75).
att(51,73).
att(51,72).
att(51,71).
att(51,70).
att(51,69).
att(51,68).
att(51,66).
att(51,65).
att(51,64).
att(51,63).
att(51,62).
att(51,60).
att(51,59).
att(51,58).
att(51,56).
att(51,55).
att(51,54).
att(51,53).
att(51,52).
att(51,51).
att(51,50).
att(51,49).
att(51,48).
att(51,46).
att(51,44).
att(51,43).
att(51,42).
att(51,41).
att(51,40).
att(51,39).
att(51,38).
att(51,36).
att(51,35).
att(51,33).
att(51,32).
att(51,31).
att(51,30).
att(51,29).
att(51,28).
att(51,27).
att(51,26).
att(51,25).
att(51,23).
att(51,22).
att(51,21).
att(51,20).
att(51,19).
att(51,18).
att(51,15).
att(51,13).
att(51,12).
att(51,11).
att(51,10).
att(51,9).
att(51,8).
att(51,4).
att(51,3).
att(51,2).
att(50,182).
att(50,181).
att(50,180).
att(50,179).
att(50,178).
att(50,177).
att(50,176).
att(50,175).
att(50,174).
att(50,173).
att(50,172).
att(50,171).
att(50,170).
att(50,169).
att(50,168).
att(50,167).
att(50,166).
att(50,165).
att(50,164).
att(50,163).
att(50,161).
att(50,160).
att(50,159).
att(50,158).
att(50,157).
att(50,155).
att(50,154).
att(50,153).
att(50,152).
att(50,151).
att(50,150).
att(50,149).
att(50,148).
att(50,147).
att(50,146).
att(50,145).
att(50,144).
att(50,143).
att(50,141).
att(50,139).
att(50,138).
att(50,137).
att(50,136).
att(50,134).
att(50,133).
att(50,132).
att(50,131).
att(50,130).
att(50,129).
att(50,128).
att(50,127).
att(50,126).
att(50,124).
att(50,123).
att(50,122).
att(50,121).
att(50,120).
att(50,118).
att(50,117).
att(50,116).
att(50,115).
att(50,114).
att(50,113).
att(50,112).
att(50,111).
att(50,110).
att(50,109).
att(50,108).
att(50,107).
att(50,106).
att(50,105).
att(50,104).
att(50,103).
att(50,102).
att(50,101).
att(50,100).
att(50,99).
att(50,98).
att(50,97).
att(50,96).
att(50,95).
att(50,93).
att(50,92).
att(50,91).
att(50,90).
att(50,89).
att(50,88).
att(50,87).
att(50,86).
att(50,85).
att(50,84).
att(50,82).
att(50,81).
att(50,80).
att(50,79).
att(50,78).
att(50,77).
att(50,76).
att(50,75).
att(50,73).
att(50,72).
att(50,71).
att(50,70).
att(50,69).
att(50,68).
att(50,66).
att(50,65).
att(50,64).
att(50,63).
att(50,62).
att(50,61).
att(50,60).
att(50,59).
att(50,58).
att(50,57).
att(50,56).
att(50,55).
att(50,54).
att(50,53).
att(50,52).
att(50,51).
att(50,50).
att(50,49).
att(50,48).
att(50,47).
att(50,46).
att(50,45).
att(50,44).
att(50,43).
att(50,42).
att(50,41).
att(50,40).
att(50,39).
att(50,38).
att(50,36).
att(50,35).
att(50,33).
att(50,32).
att(50,31).
att(50,30).
att(50,29).
att(50,28).
att(50,27).
att(50,26).
att(50,25).
att(50,24).
att(50,23).
att(50,22).
att(50,21).
att(50,20).
att(50,19).
att(50,18).
att(50,15).
att(50,13).
att(50,12).
att(50,11).
att(50,10).
att(50,9).
att(50,8).
att(50,6).
att(50,4).
att(50,3).
att(50,2).
att(49,182).
att(49,181).
att(49,180).
att(49,179).
att(49,178).
att(49,177).
att(49,176).
att(49,175).
att(49,174).
att(49,173).
att(49,172).
att(49,171).
att(49,170).
att(49,169).
att(49,168).
att(49,167).
att(49,166).
att(49,165).
att(49,164).
att(49,163).
att(49,161).
att(49,160).
att(49,159).
att(49,158).
att(49,157).
att(49,155).
att(49,154).
att(49,153).
att(49,152).
att(49,151).
att(49,150).
att(49,149).
att(49,148).
att(49,147).
att(49,146).
att(49,145).
att(49,144).
att(49,143).
att(49,141).
att(49,139).
att(49,138).
att(49,137).
att(49,136).
att(49,134).
att(49,133).
att(49,132).
att(49,131).
att(49,130).
att(49,129).
att(49,128).
att(49,127).
att(49,124).
att(49,123).
att(49,122).
att(49,121).
att(49,120).
att(49,118).
att(49,117).
att(49,116).
att(49,115).
att(49,114).
att(49,113).
att(49,112).
att(49,111).
att(49,110).
att(49,109).
att(49,108).
att(49,107).
att(49,106).
att(49,105).
att(49,104).
att(49,103).
att(49,102).
att(49,101).
att(49,100).
att(49,99).
att(49,98).
att(49,97).
att(49,96).
att(49,95).
att(49,93).
att(49,92).
att(49,91).
att(49,90).
att(49,89).
att(49,88).
att(49,87).
att(49,86).
att(49,84).
att(49,82).
att(49,81).
att(49,80).
att(49,79).
att(49,78).
att(49,77).
att(49,76).
att(49,75).
att(49,73).
att(49,72).
att(49,71).
att(49,70).
att(49,69).
att(49,68).
att(49,66).
att(49,65).
att(49,64).
att(49,63).
att(49,62).
att(49,61).
att(49,60).
att(49,59).
att(49,58).
att(49,57).
att(49,56).
att(49,55).
att(49,54).
att(49,53).
att(49,52).
att(49,51).
att(49,50).
att(49,49).
att(49,48).
att(49,47).
att(49,46).
att(49,45).
att(49,44).
att(49,43).
att(49,42).
att(49,41).
att(49,40).
att(49,39).
att(49,38).
att(49,36).
att(49,35).
att(49,33).
att(49,32).
att(49,31).
att(49,30).
att(49,29).
att(49,28).
att(49,27).
att(49,26).
att(49,25).
att(49,24).
att(49,23).
att(49,22).
att(49,20).
att(49,19).
att(49,18).
att(49,15).
att(49,13).
att(49,12).
att(49,11).
att(49,10).
att(49,9).
att(49,8).
att(49,4).
att(49,3).
att(49,2).
att(48,182).
att(48,181).
att(48,180).
att(48,179).
att(48,178).
att(48,177).
att(48,176).
att(48,175).
att(48,174).
att(48,173).
att(48,170).
att(48,169).
att(48,168).
att(48,166).
att(48,165).
att(48,164).
att(48,163).
att(48,160).
att(48,159).
att(48,158).
att(48,157).
att(48,155).
att(48,154).
att(48,153).
att(48,152).
att(48,151).
att(48,150).
att(48,149).
att(48,148).
att(48,147).
att(48,146).
att(48,145).
att(48,144).
att(48,143).
att(48,142).
att(48,141).
att(48,139).
att(48,138).
att(48,137).
att(48,136).
att(48,135).
att(48,134).
att(48,133).
att(48,132).
att(48,131).
att(48,130).
att(48,129).
att(48,128).
att(48,127).
att(48,125).
att(48,124).
att(48,123).
att(48,122).
att(48,121).
att(48,120).
att(48,118).
att(48,117).
att(48,116).
att(48,115).
att(48,114).
att(48,113).
att(48,112).
att(48,111).
att(48,110).
att(48,109).
att(48,108).
att(48,107).
att(48,106).
att(48,105).
att(48,104).
att(48,103).
att(48,102).
att(48,101).
att(48,100).
att(48,99).
att(48,98).
att(48,97).
att(48,96).
att(48,95).
att(48,93).
att(48,92).
att(48,91).
att(48,90).
att(48,89).
att(48,87).
att(48,86).
att(48,85).
att(48,84).
att(48,83).
att(48,82).
att(48,81).
att(48,80).
att(48,79).
att(48,78).
att(48,77).
att(48,76).
att(48,75).
att(48,73).
att(48,72).
att(48,71).
att(48,70).
att(48,69).
att(48,68).
att(48,66).
att(48,65).
att(48,64).
att(48,63).
att(48,62).
att(48,60).
att(48,59).
att(48,58).
att(48,56).
att(48,55).
att(48,54).
att(48,53).
att(48,52).
att(48,51).
att(48,50).
att(48,49).
att(48,48).
att(48,46).
att(48,44).
att(48,43).
att(48,42).
att(48,41).
att(48,40).
att(48,39).
att(48,38).
att(48,36).
att(48,35).
att(48,33).
att(48,32).
att(48,31).
att(48,30).
att(48,29).
att(48,28).
att(48,27).
att(48,26).
att(48,25).
att(48,23).
att(48,22).
att(48,21).
att(48,20).
att(48,19).
att(48,18).
att(48,15).
att(48,14).
att(48,13).
att(48,12).
att(48,11).
att(48,10).
att(48,9).
att(48,8).
att(48,4).
att(48,3).
att(48,2).
att(46,182).
att(46,181).
att(46,180).
att(46,179).
att(46,178).
att(46,177).
att(46,176).
att(46,175).
att(46,174).
att(46,173).
att(46,172).
att(46,170).
att(46,169).
att(46,168).
att(46,167).
att(46,166).
att(46,165).
att(46,164).
att(46,163).
att(46,161).
att(46,160).
att(46,159).
att(46,158).
att(46,157).
att(46,155).
att(46,154).
att(46,153).
att(46,152).
att(46,151).
att(46,150).
att(46,149).
att(46,148).
att(46,147).
att(46,146).
att(46,145).
att(46,144).
att(46,143).
att(46,142).
att(46,141).
att(46,139).
att(46,138).
att(46,137).
att(46,136).
att(46,135).
att(46,134).
att(46,133).
att(46,132).
att(46,131).
att(46,130).
att(46,129).
att(46,128).
att(46,127).
att(46,125).
att(46,124).
att(46,123).
att(46,122).
att(46,121).
att(46,120).
att(46,119).
att(46,118).
att(46,117).
att(46,116).
att(46,115).
att(46,114).
att(46,113).
att(46,112).
att(46,111).
att(46,110).
att(46,109).
att(46,108).
att(46,107).
att(46,106).
att(46,105).
att(46,104).
att(46,103).
att(46,102).
att(46,101).
att(46,100).
att(46,99).
att(46,98).
att(46,97).
att(46,96).
att(46,95).
att(46,94).
att(46,93).
att(46,92).
att(46,91).
att(46,90).
att(46,89).
att(46,88).
att(46,87).
att(46,86).
att(46,85).
att(46,84).
att(46,83).
att(46,82).
att(46,81).
att(46,80).
att(46,79).
att(46,78).
att(46,77).
att(46,76).
att(46,75).
att(46,73).
att(46,72).
att(46,71).
att(46,70).
att(46,69).
att(46,68).
att(46,66).
att(46,65).
att(46,64).
att(46,63).
att(46,62).
att(46,60).
att(46,59).
att(46,58).
att(46,57).
att(46,56).
att(46,55).
att(46,54).
att(46,53).
att(46,52).
att(46,51).
att(46,50).
att(46,49).
att(46,48).
att(46,47).
att(46,46).
att(46,44).
att(46,43).
att(46,42).
att(46,41).
att(46,40).
att(46,39).
att(46,38).
att(46,37).
att(46,36).
att(46,35).
att(46,33).
att(46,32).
att(46,31).
att(46,30).
att(46,29).
att(46,28).
att(46,27).
att(46,26).
att(46,25).
att(46,23).
att(46,22).
att(46,21).
att(46,20).
att(46,19).
att(46,18).
att(46,15).
att(46,14).
att(46,13).
att(46,12).
att(46,11).
att(46,10).
att(46,9).
att(46,8).
att(46,6).
att(46,4).
att(46,3).
att(46,2).
att(44,182).
att(44,181).
att(44,180).
att(44,179).
att(44,178).
att(44,177).
att(44,176).
att(44,175).
att(44,174).
att(44,173).
att(44,170).
att(44,169).
att(44,168).
att(44,166).
att(44,165).
att(44,164).
att(44,163).
att(44,160).
att(44,159).
att(44,158).
att(44,157).
att(44,155).
att(44,154).
att(44,153).
att(44,152).
att(44,151).
att(44,150).
att(44,149).
att(44,148).
att(44,147).
att(44,146).
att(44,145).
att(44,144).
att(44,143).
att(44,139).
att(44,138).
att(44,137).
att(44,136).
att(44,134).
att(44,133).
att(44,132).
att(44,131).
att(44,130).
att(44,129).
att(44,127).
att(44,125).
att(44,124).
att(44,123).
att(44,122).
att(44,121).
att(44,120).
att(44,118).
att(44,117).
att(44,116).
att(44,115).
att(44,114).
att(44,113).
att(44,112).
att(44,111).
att(44,110).
att(44,109).
att(44,108).
att(44,107).
att(44,106).
att(44,105).
att(44,104).
att(44,103).
att(44,102).
att(44,101).
att(44,100).
att(44,99).
att(44,98).
att(44,97).
att(44,96).
att(44,95).
att(44,93).
att(44,92).
att(44,91).
att(44,90).
att(44,89).
att(44,87).
att(44,86).
att(44,85).
att(44,84).
att(44,82).
att(44,81).
att(44,80).
att(44,79).
att(44,78).
att(44,77).
att(44,76).
att(44,75).
att(44,73).
att(44,72).
att(44,71).
att(44,70).
att(44,69).
att(44,68).
att(44,66).
att(44,65).
att(44,64).
att(44,63).
att(44,62).
att(44,60).
att(44,59).
att(44,58).
att(44,56).
att(44,55).
att(44,54).
att(44,53).
att(44,52).
att(44,51).
att(44,50).
att(44,49).
att(44,48).
att(44,46).
att(44,44).
att(44,43).
att(44,42).
att(44,41).
att(44,40).
att(44,39).
att(44,38).
att(44,36).
att(44,35).
att(44,33).
att(44,32).
att(44,31).
att(44,30).
att(44,29).
att(44,28).
att(44,27).
att(44,26).
att(44,25).
att(44,23).
att(44,22).
att(44,21).
att(44,20).
att(44,19).
att(44,18).
att(44,15).
att(44,13).
att(44,12).
att(44,11).
att(44,10).
att(44,9).
att(44,8).
att(44,4).
att(44,3).
att(44,2).
att(43,182).
att(43,181).
att(43,180).
att(43,179).
att(43,178).
att(43,177).
att(43,176).
att(43,175).
att(43,174).
att(43,173).
att(43,170).
att(43,169).
att(43,168).
att(43,166).
att(43,165).
att(43,164).
att(43,163).
att(43,160).
att(43,159).
att(43,158).
att(43,157).
att(43,155).
att(43,154).
att(43,153).
att(43,152).
att(43,151).
att(43,150).
att(43,149).
att(43,148).
att(43,147).
att(43,146).
att(43,145).
att(43,144).
att(43,143).
att(43,139).
att(43,138).
att(43,137).
att(43,136).
att(43,134).
att(43,133).
att(43,132).
att(43,131).
att(43,130).
att(43,129).
att(43,127).
att(43,124).
att(43,123).
att(43,122).
att(43,121).
att(43,120).
att(43,118).
att(43,117).
att(43,116).
att(43,115).
att(43,113).
att(43,112).
att(43,111).
att(43,110).
att(43,108).
att(43,107).
att(43,106).
att(43,105).
att(43,104).
att(43,103).
att(43,102).
att(43,101).
att(43,100).
att(43,99).
att(43,98).
att(43,97).
att(43,96).
att(43,95).
att(43,93).
att(43,92).
att(43,91).
att(43,89).
att(43,87).
att(43,86).
att(43,85).
att(43,84).
att(43,82).
att(43,81).
att(43,80).
att(43,79).
att(43,78).
att(43,77).
att(43,76).
att(43,75).
att(43,73).
att(43,72).
att(43,71).
att(43,70).
att(43,69).
att(43,68).
att(43,65).
att(43,64).
att(43,63).
att(43,62).
att(43,60).
att(43,59).
att(43,58).
att(43,56).
att(43,55).
att(43,54).
att(43,53).
att(43,52).
att(43,51).
att(43,50).
att(43,49).
att(43,48).
att(43,46).
att(43,44).
att(43,43).
att(43,42).
att(43,41).
att(43,40).
att(43,39).
att(43,38).
att(43,37).
att(43,35).
att(43,33).
att(43,31).
att(43,30).
att(43,29).
att(43,28).
att(43,27).
att(43,26).
att(43,25).
att(43,23).
att(43,22).
att(43,20).
att(43,19).
att(43,15).
att(43,13).
att(43,12).
att(43,11).
att(43,10).
att(43,8).
att(43,4).
att(43,3).
att(43,2).
att(42,182).
att(42,181).
att(42,180).
att(42,179).
att(42,178).
att(42,177).
att(42,176).
att(42,175).
att(42,174).
att(42,173).
att(42,172).
att(42,171).
att(42,170).
att(42,169).
att(42,168).
att(42,167).
att(42,166).
att(42,165).
att(42,164).
att(42,163).
att(42,160).
att(42,159).
att(42,158).
att(42,157).
att(42,155).
att(42,154).
att(42,153).
att(42,152).
att(42,151).
att(42,150).
att(42,149).
att(42,148).
att(42,147).
att(42,146).
att(42,145).
att(42,144).
att(42,143).
att(42,142).
att(42,141).
att(42,139).
att(42,138).
att(42,137).
att(42,136).
att(42,135).
att(42,134).
att(42,133).
att(42,132).
att(42,131).
att(42,130).
att(42,129).
att(42,128).
att(42,127).
att(42,125).
att(42,124).
att(42,123).
att(42,122).
att(42,121).
att(42,120).
att(42,118).
att(42,117).
att(42,116).
att(42,115).
att(42,114).
att(42,113).
att(42,112).
att(42,111).
att(42,110).
att(42,109).
att(42,108).
att(42,107).
att(42,106).
att(42,105).
att(42,104).
att(42,103).
att(42,102).
att(42,101).
att(42,100).
att(42,99).
att(42,98).
att(42,97).
att(42,96).
att(42,95).
att(42,93).
att(42,92).
att(42,91).
att(42,90).
att(42,89).
att(42,88).
att(42,87).
att(42,86).
att(42,85).
att(42,84).
att(42,83).
att(42,82).
att(42,81).
att(42,80).
att(42,79).
att(42,78).
att(42,77).
att(42,76).
att(42,75).
att(42,73).
att(42,72).
att(42,71).
att(42,70).
att(42,69).
att(42,68).
att(42,66).
att(42,65).
att(42,64).
att(42,63).
att(42,62).
att(42,61).
att(42,60).
att(42,59).
att(42,58).
att(42,57).
att(42,56).
att(42,55).
att(42,54).
att(42,53).
att(42,52).
att(42,51).
att(42,50).
att(42,49).
att(42,48).
att(42,46).
att(42,45).
att(42,44).
att(42,43).
att(42,42).
att(42,41).
att(42,40).
att(42,39).
att(42,38).
att(42,36).
att(42,35).
att(42,33).
att(42,32).
att(42,31).
att(42,30).
att(42,29).
att(42,28).
att(42,27).
att(42,26).
att(42,25).
att(42,24).
att(42,23).
att(42,22).
att(42,21).
att(42,20).
att(42,19).
att(42,18).
att(42,15).
att(42,14).
att(42,13).
att(42,12).
att(42,11).
att(42,10).
att(42,9).
att(42,8).
att(42,4).
att(42,3).
att(42,2).
att(41,182).
att(41,181).
att(41,180).
att(41,179).
att(41,178).
att(41,177).
att(41,176).
att(41,175).
att(41,174).
att(41,173).
att(41,172).
att(41,171).
att(41,170).
att(41,169).
att(41,168).
att(41,167).
att(41,166).
att(41,165).
att(41,164).
att(41,163).
att(41,161).
att(41,160).
att(41,159).
att(41,158).
att(41,157).
att(41,155).
att(41,154).
att(41,153).
att(41,152).
att(41,151).
att(41,150).
att(41,149).
att(41,148).
att(41,147).
att(41,146).
att(41,145).
att(41,144).
att(41,143).
att(41,141).
att(41,139).
att(41,138).
att(41,137).
att(41,136).
att(41,134).
att(41,133).
att(41,132).
att(41,131).
att(41,130).
att(41,129).
att(41,128).
att(41,127).
att(41,124).
att(41,123).
att(41,122).
att(41,121).
att(41,120).
att(41,118).
att(41,117).
att(41,116).
att(41,115).
att(41,114).
att(41,113).
att(41,112).
att(41,111).
att(41,110).
att(41,109).
att(41,108).
att(41,107).
att(41,106).
att(41,105).
att(41,104).
att(41,103).
att(41,102).
att(41,101).
att(41,100).
att(41,99).
att(41,98).
att(41,97).
att(41,96).
att(41,95).
att(41,94).
att(41,93).
att(41,92).
att(41,91).
att(41,90).
att(41,89).
att(41,88).
att(41,87).
att(41,86).
att(41,85).
att(41,84).
att(41,82).
att(41,81).
att(41,80).
att(41,79).
att(41,78).
att(41,77).
att(41,76).
att(41,75).
att(41,73).
att(41,72).
att(41,71).
att(41,70).
att(41,69).
att(41,68).
att(41,66).
att(41,65).
att(41,64).
att(41,63).
att(41,62).
att(41,61).
att(41,60).
att(41,59).
att(41,58).
att(41,57).
att(41,56).
att(41,55).
att(41,54).
att(41,53).
att(41,52).
att(41,51).
att(41,50).
att(41,49).
att(41,48).
att(41,46).
att(41,45).
att(41,44).
att(41,43).
att(41,42).
att(41,41).
att(41,40).
att(41,39).
att(41,38).
att(41,37).
att(41,36).
att(41,35).
att(41,33).
att(41,32).
att(41,31).
att(41,30).
att(41,29).
att(41,28).
att(41,27).
att(41,26).
att(41,25).
att(41,24).
att(41,23).
att(41,22).
att(41,20).
att(41,19).
att(41,18).
att(41,15).
att(41,13).
att(41,12).
att(41,11).
att(41,10).
att(41,9).
att(41,8).
att(41,4).
att(41,3).
att(41,2).
att(40,182).
att(40,180).
att(40,179).
att(40,178).
att(40,177).
att(40,176).
att(40,175).
att(40,174).
att(40,173).
att(40,172).
att(40,171).
att(40,170).
att(40,169).
att(40,168).
att(40,167).
att(40,166).
att(40,165).
att(40,164).
att(40,163).
att(40,160).
att(40,158).
att(40,157).
att(40,155).
att(40,153).
att(40,152).
att(40,151).
att(40,150).
att(40,149).
att(40,148).
att(40,145).
att(40,144).
att(40,143).
att(40,141).
att(40,138).
att(40,137).
att(40,136).
att(40,132).
att(40,131).
att(40,130).
att(40,129).
att(40,128).
att(40,127).
att(40,124).
att(40,123).
att(40,122).
att(40,121).
att(40,120).
att(40,118).
att(40,116).
att(40,115).
att(40,114).
att(40,113).
att(40,112).
att(40,111).
att(40,110).
att(40,109).
att(40,108).
att(40,107).
att(40,106).
att(40,105).
att(40,104).
att(40,103).
att(40,102).
att(40,101).
att(40,100).
att(40,98).
att(40,97).
att(40,95).
att(40,94).
att(40,93).
att(40,92).
att(40,91).
att(40,90).
att(40,89).
att(40,88).
att(40,87).
att(40,86).
att(40,84).
att(40,81).
att(40,80).
att(40,78).
att(40,77).
att(40,76).
att(40,73).
att(40,72).
att(40,71).
att(40,70).
att(40,69).
att(40,66).
att(40,65).
att(40,62).
att(40,61).
att(40,59).
att(40,58).
att(40,57).
att(40,56).
att(40,55).
att(40,53).
att(40,52).
att(40,51).
att(40,50).
att(40,49).
att(40,48).
att(40,46).
att(40,45).
att(40,44).
att(40,42).
att(40,40).
att(40,39).
att(40,38).
att(40,36).
att(40,35).
att(40,32).
att(40,30).
att(40,29).
att(40,28).
att(40,27).
att(40,26).
att(40,24).
att(40,23).
att(40,22).
att(40,20).
att(40,19).
att(40,18).
att(40,15).
att(40,13).
att(40,12).
att(40,11).
att(40,10).
att(40,9).
att(40,8).
att(40,4).
att(40,3).
att(40,2).
att(39,182).
att(39,181).
att(39,180).
att(39,179).
att(39,178).
att(39,177).
att(39,176).
att(39,175).
att(39,174).
att(39,173).
att(39,171).
att(39,170).
att(39,169).
att(39,168).
att(39,166).
att(39,165).
att(39,164).
att(39,163).
att(39,162).
att(39,161).
att(39,160).
att(39,159).
att(39,158).
att(39,157).
att(39,155).
att(39,154).
att(39,153).
att(39,152).
att(39,151).
att(39,150).
att(39,149).
att(39,148).
att(39,147).
att(39,146).
att(39,145).
att(39,144).
att(39,143).
att(39,142).
att(39,141).
att(39,139).
att(39,138).
att(39,137).
att(39,136).
att(39,135).
att(39,134).
att(39,133).
att(39,132).
att(39,131).
att(39,130).
att(39,129).
att(39,128).
att(39,127).
att(39,124).
att(39,123).
att(39,122).
att(39,121).
att(39,120).
att(39,118).
att(39,117).
att(39,116).
att(39,115).
att(39,114).
att(39,113).
att(39,112).
att(39,111).
att(39,110).
att(39,108).
att(39,107).
att(39,106).
att(39,105).
att(39,104).
att(39,103).
att(39,102).
att(39,101).
att(39,100).
att(39,99).
att(39,98).
att(39,97).
att(39,96).
att(39,95).
att(39,93).
att(39,92).
att(39,91).
att(39,89).
att(39,87).
att(39,86).
att(39,85).
att(39,84).
att(39,83).
att(39,82).
att(39,81).
att(39,80).
att(39,79).
att(39,78).
att(39,77).
att(39,76).
att(39,75).
att(39,73).
att(39,72).
att(39,71).
att(39,70).
att(39,69).
att(39,68).
att(39,65).
att(39,64).
att(39,63).
att(39,62).
att(39,61).
att(39,60).
att(39,59).
att(39,58).
att(39,56).
att(39,55).
att(39,54).
att(39,53).
att(39,52).
att(39,51).
att(39,50).
att(39,49).
att(39,48).
att(39,46).
att(39,44).
att(39,43).
att(39,42).
att(39,41).
att(39,40).
att(39,39).
att(39,38).
att(39,37).
att(39,35).
att(39,33).
att(39,31).
att(39,30).
att(39,29).
att(39,28).
att(39,27).
att(39,26).
att(39,25).
att(39,23).
att(39,22).
att(39,20).
att(39,19).
att(39,18).
att(39,15).
att(39,14).
att(39,13).
att(39,12).
att(39,11).
att(39,10).
att(39,8).
att(39,4).
att(39,3).
att(39,2).
att(38,182).
att(38,181).
att(38,180).
att(38,179).
att(38,178).
att(38,177).
att(38,176).
att(38,175).
att(38,174).
att(38,173).
att(38,172).
att(38,170).
att(38,169).
att(38,168).
att(38,167).
att(38,165).
att(38,164).
att(38,163).
att(38,161).
att(38,160).
att(38,158).
att(38,157).
att(38,155).
att(38,153).
att(38,152).
att(38,151).
att(38,150).
att(38,149).
att(38,148).
att(38,147).
att(38,145).
att(38,143).
att(38,142).
att(38,141).
att(38,139).
att(38,138).
att(38,137).
att(38,136).
att(38,135).
att(38,134).
att(38,132).
att(38,131).
att(38,130).
att(38,129).
att(38,128).
att(38,127).
att(38,124).
att(38,123).
att(38,121).
att(38,120).
att(38,119).
att(38,116).
att(38,115).
att(38,114).
att(38,113).
att(38,111).
att(38,110).
att(38,108).
att(38,107).
att(38,106).
att(38,105).
att(38,104).
att(38,103).
att(38,102).
att(38,101).
att(38,98).
att(38,97).
att(38,95).
att(38,94).
att(38,93).
att(38,92).
att(38,91).
att(38,89).
att(38,88).
att(38,87).
att(38,86).
att(38,84).
att(38,83).
att(38,82).
att(38,81).
att(38,80).
att(38,79).
att(38,78).
att(38,77).
att(38,76).
att(38,73).
att(38,72).
att(38,71).
att(38,70).
att(38,69).
att(38,68).
att(38,66).
att(38,65).
att(38,62).
att(38,59).
att(38,58).
att(38,57).
att(38,56).
att(38,55).
att(38,52).
att(38,51).
att(38,50).
att(38,49).
att(38,48).
att(38,47).
att(38,46).
att(38,44).
att(38,43).
att(38,42).
att(38,41).
att(38,40).
att(38,39).
att(38,38).
att(38,37).
att(38,35).
att(38,33).
att(38,32).
att(38,31).
att(38,30).
att(38,29).
att(38,28).
att(38,27).
att(38,26).
att(38,25).
att(38,22).
att(38,20).
att(38,19).
att(38,18).
att(38,15).
att(38,14).
att(38,13).
att(38,12).
att(38,11).
att(38,10).
att(38,8).
att(38,6).
att(38,4).
att(38,3).
att(38,2).
att(36,182).
att(36,177).
att(36,175).
att(36,174).
att(36,170).
att(36,168).
att(36,161).
att(36,160).
att(36,157).
att(36,153).
att(36,151).
att(36,148).
att(36,147).
att(36,138).
att(36,137).
att(36,136).
att(36,131).
att(36,129).
att(36,127).
att(36,124).
att(36,121).
att(36,116).
att(36,113).
att(36,106).
att(36,105).
att(36,102).
att(36,101).
att(36,98).
att(36,95).
att(36,93).
att(36,85).
att(36,84).
att(36,79).
att(36,72).
att(36,65).
att(36,58).
att(36,56).
att(36,55).
att(36,51).
att(36,50).
att(36,49).
att(36,48).
att(36,46).
att(36,44).
att(36,42).
att(36,38).
att(36,31).
att(36,29).
att(36,28).
att(36,27).
att(36,26).
att(36,22).
att(36,20).
att(36,13).
att(36,11).
att(36,10).
att(36,8).
att(36,4).
att(36,3).
att(35,182).
att(35,181).
att(35,180).
att(35,179).
att(35,178).
att(35,177).
att(35,176).
att(35,175).
att(35,174).
att(35,173).
att(35,172).
att(35,170).
att(35,169).
att(35,168).
att(35,167).
att(35,166).
att(35,165).
att(35,164).
att(35,163).
att(35,160).
att(35,159).
att(35,158).
att(35,157).
att(35,155).
att(35,154).
att(35,153).
att(35,152).
att(35,151).
att(35,150).
att(35,149).
att(35,148).
att(35,147).
att(35,146).
att(35,145).
att(35,144).
att(35,143).
att(35,141).
att(35,139).
att(35,138).
att(35,137).
att(35,136).
att(35,134).
att(35,133).
att(35,132).
att(35,131).
att(35,130).
att(35,129).
att(35,127).
att(35,126).
att(35,124).
att(35,123).
att(35,122).
att(35,121).
att(35,120).
att(35,118).
att(35,117).
att(35,116).
att(35,115).
att(35,114).
att(35,113).
att(35,112).
att(35,111).
att(35,110).
att(35,109).
att(35,108).
att(35,107).
att(35,106).
att(35,105).
att(35,104).
att(35,103).
att(35,102).
att(35,101).
att(35,100).
att(35,99).
att(35,98).
att(35,97).
att(35,96).
att(35,95).
att(35,93).
att(35,92).
att(35,91).
att(35,90).
att(35,89).
att(35,87).
att(35,86).
att(35,85).
att(35,84).
att(35,82).
att(35,81).
att(35,80).
att(35,79).
att(35,78).
att(35,77).
att(35,76).
att(35,75).
att(35,73).
att(35,72).
att(35,71).
att(35,70).
att(35,69).
att(35,68).
att(35,66).
att(35,65).
att(35,64).
att(35,63).
att(35,62).
att(35,60).
att(35,59).
att(35,58).
att(35,56).
att(35,55).
att(35,54).
att(35,53).
att(35,52).
att(35,51).
att(35,50).
att(35,49).
att(35,48).
att(35,46).
att(35,44).
att(35,43).
att(35,42).
att(35,41).
att(35,40).
att(35,39).
att(35,38).
att(35,36).
att(35,35).
att(35,33).
att(35,32).
att(35,31).
att(35,30).
att(35,29).
att(35,28).
att(35,27).
att(35,26).
att(35,25).
att(35,23).
att(35,22).
att(35,21).
att(35,20).
att(35,19).
att(35,18).
att(35,15).
att(35,13).
att(35,12).
att(35,11).
att(35,10).
att(35,9).
att(35,8).
att(35,6).
att(35,4).
att(35,3).
att(35,2).
att(33,182).
att(33,181).
att(33,180).
att(33,179).
att(33,178).
att(33,177).
att(33,176).
att(33,175).
att(33,174).
att(33,173).
att(33,172).
att(33,171).
att(33,170).
att(33,169).
att(33,168).
att(33,167).
att(33,166).
att(33,165).
att(33,164).
att(33,163).
att(33,160).
att(33,159).
att(33,158).
att(33,157).
att(33,155).
att(33,154).
att(33,153).
att(33,152).
att(33,151).
att(33,150).
att(33,149).
att(33,148).
att(33,147).
att(33,146).
att(33,145).
att(33,144).
att(33,143).
att(33,141).
att(33,139).
att(33,138).
att(33,137).
att(33,136).
att(33,134).
att(33,133).
att(33,132).
att(33,131).
att(33,130).
att(33,129).
att(33,128).
att(33,127).
att(33,124).
att(33,123).
att(33,122).
att(33,121).
att(33,120).
att(33,118).
att(33,117).
att(33,116).
att(33,115).
att(33,114).
att(33,113).
att(33,112).
att(33,111).
att(33,110).
att(33,109).
att(33,108).
att(33,107).
att(33,106).
att(33,105).
att(33,104).
att(33,103).
att(33,102).
att(33,101).
att(33,100).
att(33,99).
att(33,98).
att(33,97).
att(33,96).
att(33,95).
att(33,94).
att(33,93).
att(33,92).
att(33,91).
att(33,90).
att(33,89).
att(33,88).
att(33,87).
att(33,86).
att(33,85).
att(33,84).
att(33,82).
att(33,81).
att(33,80).
att(33,79).
att(33,78).
att(33,77).
att(33,76).
att(33,75).
att(33,73).
att(33,72).
att(33,71).
att(33,70).
att(33,69).
att(33,68).
att(33,66).
att(33,65).
att(33,64).
att(33,63).
att(33,62).
att(33,61).
att(33,60).
att(33,59).
att(33,58).
att(33,57).
att(33,56).
att(33,55).
att(33,54).
att(33,53).
att(33,52).
att(33,51).
att(33,50).
att(33,49).
att(33,48).
att(33,46).
att(33,45).
att(33,44).
att(33,43).
att(33,42).
att(33,41).
att(33,40).
att(33,39).
att(33,38).
att(33,37).
att(33,36).
att(33,35).
att(33,33).
att(33,32).
att(33,31).
att(33,30).
att(33,29).
att(33,28).
att(33,27).
att(33,26).
att(33,25).
att(33,24).
att(33,23).
att(33,22).
att(33,20).
att(33,19).
att(33,18).
att(33,15).
att(33,13).
att(33,12).
att(33,11).
att(33,10).
att(33,9).
att(33,8).
att(33,4).
att(33,3).
att(33,2).
att(32,182).
att(32,181).
att(32,179).
att(32,178).
att(32,177).
att(32,176).
att(32,175).
att(32,174).
att(32,173).
att(32,172).
att(32,170).
att(32,168).
att(32,167).
att(32,163).
att(32,161).
att(32,160).
att(32,158).
att(32,157).
att(32,155).
att(32,153).
att(32,151).
att(32,150).
att(32,149).
att(32,148).
att(32,141).
att(32,138).
att(32,136).
att(32,132).
att(32,131).
att(32,130).
att(32,129).
att(32,127).
att(32,126).
att(32,124).
att(32,123).
att(32,121).
att(32,120).
att(32,116).
att(32,113).
att(32,111).
att(32,107).
att(32,106).
att(32,105).
att(32,104).
att(32,103).
att(32,102).
att(32,101).
att(32,95).
att(32,93).
att(32,91).
att(32,89).
att(32,87).
att(32,86).
att(32,84).
att(32,81).
att(32,73).
att(32,72).
att(32,71).
att(32,68).
att(32,65).
att(32,59).
att(32,58).
att(32,56).
att(32,55).
att(32,52).
att(32,51).
att(32,50).
att(32,49).
att(32,48).
att(32,46).
att(32,44).
att(32,43).
att(32,42).
att(32,39).
att(32,38).
att(32,35).
att(32,32).
att(32,29).
att(32,28).
att(32,25).
att(32,22).
att(32,20).
att(32,19).
att(32,18).
att(32,15).
att(32,13).
att(32,12).
att(32,11).
att(32,10).
att(32,8).
att(32,6).
att(32,4).
att(32,3).
att(32,2).
att(31,182).
att(31,180).
att(31,179).
att(31,178).
att(31,177).
att(31,176).
att(31,175).
att(31,174).
att(31,173).
att(31,172).
att(31,171).
att(31,170).
att(31,169).
att(31,168).
att(31,167).
att(31,166).
att(31,165).
att(31,164).
att(31,163).
att(31,161).
att(31,160).
att(31,158).
att(31,157).
att(31,155).
att(31,153).
att(31,152).
att(31,151).
att(31,150).
att(31,149).
att(31,148).
att(31,147).
att(31,145).
att(31,144).
att(31,143).
att(31,141).
att(31,140).
att(31,138).
att(31,137).
att(31,136).
att(31,132).
att(31,131).
att(31,130).
att(31,129).
att(31,128).
att(31,127).
att(31,126).
att(31,124).
att(31,123).
att(31,122).
att(31,121).
att(31,120).
att(31,119).
att(31,118).
att(31,116).
att(31,115).
att(31,114).
att(31,113).
att(31,112).
att(31,111).
att(31,110).
att(31,109).
att(31,108).
att(31,107).
att(31,106).
att(31,105).
att(31,104).
att(31,103).
att(31,102).
att(31,101).
att(31,100).
att(31,98).
att(31,97).
att(31,95).
att(31,93).
att(31,92).
att(31,91).
att(31,90).
att(31,89).
att(31,88).
att(31,87).
att(31,86).
att(31,84).
att(31,81).
att(31,80).
att(31,79).
att(31,78).
att(31,77).
att(31,76).
att(31,73).
att(31,72).
att(31,71).
att(31,70).
att(31,69).
att(31,66).
att(31,65).
att(31,62).
att(31,61).
att(31,59).
att(31,58).
att(31,57).
att(31,56).
att(31,55).
att(31,53).
att(31,52).
att(31,51).
att(31,50).
att(31,49).
att(31,48).
att(31,46).
att(31,45).
att(31,44).
att(31,42).
att(31,40).
att(31,39).
att(31,38).
att(31,36).
att(31,35).
att(31,32).
att(31,31).
att(31,30).
att(31,29).
att(31,28).
att(31,27).
att(31,26).
att(31,24).
att(31,23).
att(31,22).
att(31,20).
att(31,19).
att(31,18).
att(31,15).
att(31,14).
att(31,13).
att(31,12).
att(31,11).
att(31,10).
att(31,9).
att(31,8).
att(31,7).
att(31,4).
att(31,3).
att(31,2).
att(30,182).
att(30,180).
att(30,179).
att(30,178).
att(30,177).
att(30,176).
att(30,175).
att(30,174).
att(30,173).
att(30,170).
att(30,169).
att(30,168).
att(30,165).
att(30,164).
att(30,163).
att(30,161).
att(30,160).
att(30,158).
att(30,157).
att(30,155).
att(30,153).
att(30,152).
att(30,151).
att(30,150).
att(30,149).
att(30,148).
att(30,147).
att(30,144).
att(30,143).
att(30,140).
att(30,138).
att(30,137).
att(30,136).
att(30,132).
att(30,131).
att(30,130).
att(30,129).
att(30,127).
att(30,124).
att(30,123).
att(30,122).
att(30,121).
att(30,120).
att(30,119).
att(30,116).
att(30,115).
att(30,114).
att(30,113).
att(30,112).
att(30,111).
att(30,110).
att(30,109).
att(30,108).
att(30,107).
att(30,106).
att(30,105).
att(30,104).
att(30,103).
att(30,102).
att(30,101).
att(30,98).
att(30,97).
att(30,95).
att(30,93).
att(30,92).
att(30,89).
att(30,87).
att(30,85).
att(30,84).
att(30,81).
att(30,79).
att(30,77).
att(30,76).
att(30,73).
att(30,72).
att(30,71).
att(30,70).
att(30,69).
att(30,66).
att(30,65).
att(30,62).
att(30,58).
att(30,56).
att(30,55).
att(30,51).
att(30,50).
att(30,49).
att(30,48).
att(30,46).
att(30,44).
att(30,42).
att(30,39).
att(30,38).
att(30,37).
att(30,35).
att(30,31).
att(30,30).
att(30,29).
att(30,28).
att(30,27).
att(30,26).
att(30,23).
att(30,22).
att(30,20).
att(30,19).
att(30,15).
att(30,14).
att(30,13).
att(30,12).
att(30,11).
att(30,10).
att(30,9).
att(30,8).
att(30,7).
att(30,4).
att(30,3).
att(29,182).
att(29,181).
att(29,180).
att(29,179).
att(29,178).
att(29,177).
att(29,176).
att(29,175).
att(29,174).
att(29,173).
att(29,172).
att(29,171).
att(29,170).
att(29,169).
att(29,168).
att(29,167).
att(29,166).
att(29,165).
att(29,164).
att(29,163).
att(29,161).
att(29,160).
att(29,158).
att(29,157).
att(29,155).
att(29,153).
att(29,152).
att(29,151).
att(29,150).
att(29,149).
att(29,148).
att(29,147).
att(29,145).
att(29,144).
att(29,143).
att(29,142).
att(29,141).
att(29,139).
att(29,138).
att(29,137).
att(29,136).
att(29,135).
att(29,134).
att(29,132).
att(29,131).
att(29,130).
att(29,129).
att(29,128).
att(29,127).
att(29,126).
att(29,124).
att(29,123).
att(29,122).
att(29,121).
att(29,120).
att(29,119).
att(29,118).
att(29,116).
att(29,115).
att(29,114).
att(29,113).
att(29,112).
att(29,111).
att(29,110).
att(29,109).
att(29,108).
att(29,107).
att(29,106).
att(29,105).
att(29,104).
att(29,103).
att(29,102).
att(29,101).
att(29,100).
att(29,98).
att(29,97).
att(29,95).
att(29,94).
att(29,93).
att(29,92).
att(29,91).
att(29,90).
att(29,89).
att(29,88).
att(29,87).
att(29,86).
att(29,84).
att(29,83).
att(29,82).
att(29,81).
att(29,80).
att(29,79).
att(29,78).
att(29,77).
att(29,76).
att(29,73).
att(29,72).
att(29,71).
att(29,70).
att(29,69).
att(29,68).
att(29,66).
att(29,65).
att(29,62).
att(29,61).
att(29,59).
att(29,58).
att(29,57).
att(29,56).
att(29,55).
att(29,53).
att(29,52).
att(29,51).
att(29,50).
att(29,49).
att(29,48).
att(29,47).
att(29,46).
att(29,45).
att(29,44).
att(29,43).
att(29,42).
att(29,41).
att(29,40).
att(29,39).
att(29,38).
att(29,37).
att(29,36).
att(29,35).
att(29,33).
att(29,32).
att(29,31).
att(29,30).
att(29,29).
att(29,28).
att(29,27).
att(29,26).
att(29,25).
att(29,24).
att(29,23).
att(29,22).
att(29,20).
att(29,19).
att(29,18).
att(29,15).
att(29,14).
att(29,13).
att(29,12).
att(29,11).
att(29,10).
att(29,9).
att(29,8).
att(29,6).
att(29,4).
att(29,3).
att(29,2).
att(28,182).
att(28,181).
att(28,179).
att(28,177).
att(28,176).
att(28,175).
att(28,174).
att(28,173).
att(28,172).
att(28,170).
att(28,168).
att(28,167).
att(28,165).
att(28,163).
att(28,161).
att(28,160).
att(28,157).
att(28,155).
att(28,153).
att(28,152).
att(28,151).
att(28,148).
att(28,147).
att(28,145).
att(28,143).
att(28,142).
att(28,141).
att(28,139).
att(28,138).
att(28,137).
att(28,136).
att(28,135).
att(28,134).
att(28,132).
att(28,131).
att(28,130).
att(28,129).
att(28,128).
att(28,127).
att(28,124).
att(28,123).
att(28,121).
att(28,119).
att(28,116).
att(28,114).
att(28,113).
att(28,111).
att(28,110).
att(28,108).
att(28,107).
att(28,106).
att(28,105).
att(28,103).
att(28,102).
att(28,101).
att(28,98).
att(28,95).
att(28,94).
att(28,93).
att(28,91).
att(28,89).
att(28,88).
att(28,87).
att(28,86).
att(28,84).
att(28,83).
att(28,82).
att(28,81).
att(28,80).
att(28,79).
att(28,78).
att(28,77).
att(28,76).
att(28,73).
att(28,72).
att(28,68).
att(28,66).
att(28,65).
att(28,59).
att(28,58).
att(28,57).
att(28,56).
att(28,55).
att(28,52).
att(28,51).
att(28,50).
att(28,49).
att(28,48).
att(28,47).
att(28,46).
att(28,44).
att(28,43).
att(28,42).
att(28,41).
att(28,40).
att(28,39).
att(28,38).
att(28,37).
att(28,35).
att(28,33).
att(28,32).
att(28,31).
att(28,30).
att(28,29).
att(28,28).
att(28,27).
att(28,26).
att(28,25).
att(28,22).
att(28,20).
att(28,19).
att(28,18).
att(28,15).
att(28,14).
att(28,13).
att(28,12).
att(28,11).
att(28,10).
att(28,8).
att(28,6).
att(28,4).
att(28,3).
att(28,2).
att(27,182).
att(27,180).
att(27,179).
att(27,178).
att(27,177).
att(27,176).
att(27,175).
att(27,174).
att(27,173).
att(27,172).
att(27,171).
att(27,170).
att(27,169).
att(27,168).
att(27,167).
att(27,166).
att(27,165).
att(27,164).
att(27,163).
att(27,161).
att(27,160).
att(27,158).
att(27,157).
att(27,155).
att(27,153).
att(27,152).
att(27,151).
att(27,150).
att(27,149).
att(27,148).
att(27,145).
att(27,144).
att(27,143).
att(27,141).
att(27,138).
att(27,137).
att(27,136).
att(27,132).
att(27,131).
att(27,130).
att(27,129).
att(27,128).
att(27,127).
att(27,126).
att(27,124).
att(27,123).
att(27,122).
att(27,121).
att(27,120).
att(27,118).
att(27,116).
att(27,115).
att(27,114).
att(27,113).
att(27,112).
att(27,111).
att(27,110).
att(27,109).
att(27,108).
att(27,107).
att(27,106).
att(27,105).
att(27,104).
att(27,103).
att(27,102).
att(27,101).
att(27,100).
att(27,98).
att(27,97).
att(27,95).
att(27,93).
att(27,92).
att(27,91).
att(27,90).
att(27,89).
att(27,88).
att(27,87).
att(27,86).
att(27,84).
att(27,81).
att(27,80).
att(27,78).
att(27,77).
att(27,76).
att(27,73).
att(27,72).
att(27,71).
att(27,70).
att(27,69).
att(27,66).
att(27,65).
att(27,62).
att(27,61).
att(27,59).
att(27,58).
att(27,57).
att(27,56).
att(27,55).
att(27,53).
att(27,52).
att(27,51).
att(27,50).
att(27,49).
att(27,48).
att(27,46).
att(27,45).
att(27,44).
att(27,42).
att(27,40).
att(27,39).
att(27,38).
att(27,36).
att(27,35).
att(27,32).
att(27,30).
att(27,29).
att(27,28).
att(27,27).
att(27,26).
att(27,24).
att(27,23).
att(27,22).
att(27,20).
att(27,19).
att(27,18).
att(27,15).
att(27,13).
att(27,12).
att(27,11).
att(27,10).
att(27,9).
att(27,8).
att(27,4).
att(27,3).
att(27,2).
att(26,182).
att(26,180).
att(26,179).
att(26,178).
att(26,177).
att(26,176).
att(26,175).
att(26,174).
att(26,173).
att(26,172).
att(26,171).
att(26,170).
att(26,169).
att(26,168).
att(26,167).
att(26,166).
att(26,165).
att(26,164).
att(26,163).
att(26,161).
att(26,160).
att(26,158).
att(26,157).
att(26,155).
att(26,153).
att(26,152).
att(26,151).
att(26,150).
att(26,149).
att(26,148).
att(26,145).
att(26,144).
att(26,143).
att(26,141).
att(26,138).
att(26,137).
att(26,136).
att(26,132).
att(26,131).
att(26,130).
att(26,129).
att(26,128).
att(26,127).
att(26,126).
att(26,124).
att(26,123).
att(26,122).
att(26,121).
att(26,120).
att(26,118).
att(26,116).
att(26,115).
att(26,114).
att(26,113).
att(26,112).
att(26,111).
att(26,110).
att(26,109).
att(26,108).
att(26,107).
att(26,106).
att(26,105).
att(26,104).
att(26,103).
att(26,102).
att(26,101).
att(26,100).
att(26,98).
att(26,97).
att(26,95).
att(26,94).
att(26,93).
att(26,92).
att(26,91).
att(26,90).
att(26,89).
att(26,88).
att(26,87).
att(26,86).
att(26,84).
att(26,81).
att(26,80).
att(26,78).
att(26,77).
att(26,76).
att(26,73).
att(26,72).
att(26,71).
att(26,70).
att(26,69).
att(26,66).
att(26,65).
att(26,62).
att(26,61).
att(26,59).
att(26,58).
att(26,57).
att(26,56).
att(26,55).
att(26,53).
att(26,52).
att(26,51).
att(26,50).
att(26,49).
att(26,48).
att(26,46).
att(26,45).
att(26,44).
att(26,42).
att(26,40).
att(26,39).
att(26,38).
att(26,36).
att(26,35).
att(26,32).
att(26,30).
att(26,29).
att(26,28).
att(26,27).
att(26,26).
att(26,24).
att(26,23).
att(26,22).
att(26,20).
att(26,19).
att(26,18).
att(26,15).
att(26,13).
att(26,12).
att(26,11).
att(26,10).
att(26,9).
att(26,8).
att(26,4).
att(26,3).
att(26,2).
att(25,182).
att(25,181).
att(25,180).
att(25,179).
att(25,178).
att(25,177).
att(25,176).
att(25,175).
att(25,174).
att(25,173).
att(25,170).
att(25,169).
att(25,168).
att(25,166).
att(25,165).
att(25,164).
att(25,163).
att(25,161).
att(25,160).
att(25,159).
att(25,158).
att(25,157).
att(25,155).
att(25,154).
att(25,153).
att(25,152).
att(25,151).
att(25,150).
att(25,149).
att(25,148).
att(25,147).
att(25,146).
att(25,145).
att(25,144).
att(25,143).
att(25,139).
att(25,138).
att(25,137).
att(25,136).
att(25,134).
att(25,133).
att(25,132).
att(25,131).
att(25,130).
att(25,129).
att(25,127).
att(25,124).
att(25,123).
att(25,122).
att(25,121).
att(25,120).
att(25,118).
att(25,117).
att(25,116).
att(25,115).
att(25,113).
att(25,112).
att(25,111).
att(25,110).
att(25,108).
att(25,107).
att(25,106).
att(25,105).
att(25,104).
att(25,103).
att(25,102).
att(25,101).
att(25,100).
att(25,99).
att(25,98).
att(25,97).
att(25,96).
att(25,95).
att(25,93).
att(25,92).
att(25,91).
att(25,89).
att(25,87).
att(25,86).
att(25,85).
att(25,84).
att(25,82).
att(25,81).
att(25,80).
att(25,79).
att(25,78).
att(25,77).
att(25,76).
att(25,75).
att(25,73).
att(25,72).
att(25,71).
att(25,70).
att(25,69).
att(25,68).
att(25,65).
att(25,64).
att(25,63).
att(25,62).
att(25,60).
att(25,59).
att(25,58).
att(25,56).
att(25,55).
att(25,54).
att(25,53).
att(25,52).
att(25,51).
att(25,50).
att(25,49).
att(25,48).
att(25,46).
att(25,44).
att(25,43).
att(25,42).
att(25,41).
att(25,40).
att(25,39).
att(25,38).
att(25,37).
att(25,35).
att(25,33).
att(25,31).
att(25,30).
att(25,29).
att(25,28).
att(25,27).
att(25,26).
att(25,25).
att(25,23).
att(25,22).
att(25,20).
att(25,19).
att(25,15).
att(25,13).
att(25,12).
att(25,11).
att(25,10).
att(25,8).
att(25,4).
att(25,3).
att(25,2).
att(23,182).
att(23,181).
att(23,180).
att(23,179).
att(23,178).
att(23,177).
att(23,176).
att(23,175).
att(23,174).
att(23,173).
att(23,170).
att(23,169).
att(23,168).
att(23,166).
att(23,165).
att(23,164).
att(23,163).
att(23,161).
att(23,160).
att(23,159).
att(23,158).
att(23,157).
att(23,155).
att(23,154).
att(23,153).
att(23,152).
att(23,151).
att(23,150).
att(23,149).
att(23,148).
att(23,147).
att(23,146).
att(23,145).
att(23,144).
att(23,143).
att(23,139).
att(23,138).
att(23,137).
att(23,136).
att(23,134).
att(23,133).
att(23,132).
att(23,131).
att(23,130).
att(23,129).
att(23,127).
att(23,124).
att(23,123).
att(23,122).
att(23,121).
att(23,120).
att(23,118).
att(23,117).
att(23,116).
att(23,115).
att(23,113).
att(23,112).
att(23,111).
att(23,110).
att(23,108).
att(23,107).
att(23,106).
att(23,105).
att(23,104).
att(23,103).
att(23,102).
att(23,101).
att(23,100).
att(23,99).
att(23,98).
att(23,97).
att(23,96).
att(23,95).
att(23,93).
att(23,92).
att(23,91).
att(23,89).
att(23,87).
att(23,86).
att(23,85).
att(23,84).
att(23,82).
att(23,81).
att(23,80).
att(23,79).
att(23,78).
att(23,77).
att(23,76).
att(23,75).
att(23,73).
att(23,72).
att(23,71).
att(23,70).
att(23,69).
att(23,68).
att(23,65).
att(23,64).
att(23,63).
att(23,62).
att(23,60).
att(23,59).
att(23,58).
att(23,56).
att(23,55).
att(23,54).
att(23,53).
att(23,52).
att(23,51).
att(23,50).
att(23,49).
att(23,48).
att(23,46).
att(23,44).
att(23,43).
att(23,42).
att(23,41).
att(23,40).
att(23,39).
att(23,38).
att(23,37).
att(23,35).
att(23,33).
att(23,31).
att(23,30).
att(23,29).
att(23,28).
att(23,27).
att(23,26).
att(23,25).
att(23,23).
att(23,22).
att(23,20).
att(23,19).
att(23,15).
att(23,13).
att(23,12).
att(23,11).
att(23,10).
att(23,8).
att(23,4).
att(23,3).
att(23,2).
att(22,182).
att(22,181).
att(22,180).
att(22,179).
att(22,178).
att(22,177).
att(22,176).
att(22,175).
att(22,174).
att(22,173).
att(22,170).
att(22,169).
att(22,168).
att(22,166).
att(22,165).
att(22,164).
att(22,163).
att(22,160).
att(22,159).
att(22,158).
att(22,157).
att(22,155).
att(22,154).
att(22,153).
att(22,152).
att(22,151).
att(22,150).
att(22,149).
att(22,148).
att(22,147).
att(22,146).
att(22,145).
att(22,144).
att(22,143).
att(22,139).
att(22,138).
att(22,137).
att(22,136).
att(22,134).
att(22,133).
att(22,132).
att(22,131).
att(22,130).
att(22,129).
att(22,127).
att(22,125).
att(22,124).
att(22,123).
att(22,122).
att(22,121).
att(22,120).
att(22,118).
att(22,117).
att(22,116).
att(22,115).
att(22,114).
att(22,113).
att(22,112).
att(22,111).
att(22,110).
att(22,109).
att(22,108).
att(22,107).
att(22,106).
att(22,105).
att(22,104).
att(22,103).
att(22,102).
att(22,101).
att(22,100).
att(22,99).
att(22,98).
att(22,97).
att(22,96).
att(22,95).
att(22,93).
att(22,92).
att(22,91).
att(22,90).
att(22,89).
att(22,87).
att(22,86).
att(22,85).
att(22,84).
att(22,82).
att(22,81).
att(22,80).
att(22,79).
att(22,78).
att(22,77).
att(22,76).
att(22,75).
att(22,73).
att(22,72).
att(22,71).
att(22,70).
att(22,69).
att(22,68).
att(22,66).
att(22,65).
att(22,64).
att(22,63).
att(22,62).
att(22,60).
att(22,59).
att(22,58).
att(22,56).
att(22,55).
att(22,54).
att(22,53).
att(22,52).
att(22,51).
att(22,50).
att(22,49).
att(22,48).
att(22,46).
att(22,44).
att(22,43).
att(22,42).
att(22,41).
att(22,40).
att(22,39).
att(22,38).
att(22,36).
att(22,35).
att(22,33).
att(22,32).
att(22,31).
att(22,30).
att(22,29).
att(22,28).
att(22,27).
att(22,26).
att(22,25).
att(22,23).
att(22,22).
att(22,21).
att(22,20).
att(22,19).
att(22,18).
att(22,15).
att(22,13).
att(22,12).
att(22,11).
att(22,10).
att(22,9).
att(22,8).
att(22,4).
att(22,3).
att(22,2).
att(20,182).
att(20,181).
att(20,180).
att(20,179).
att(20,178).
att(20,177).
att(20,176).
att(20,175).
att(20,174).
att(20,173).
att(20,172).
att(20,171).
att(20,170).
att(20,169).
att(20,168).
att(20,167).
att(20,166).
att(20,165).
att(20,164).
att(20,163).
att(20,160).
att(20,159).
att(20,158).
att(20,157).
att(20,155).
att(20,154).
att(20,153).
att(20,152).
att(20,151).
att(20,150).
att(20,149).
att(20,148).
att(20,147).
att(20,146).
att(20,145).
att(20,144).
att(20,143).
att(20,142).
att(20,141).
att(20,139).
att(20,138).
att(20,137).
att(20,136).
att(20,135).
att(20,134).
att(20,133).
att(20,132).
att(20,131).
att(20,130).
att(20,129).
att(20,128).
att(20,127).
att(20,125).
att(20,124).
att(20,123).
att(20,122).
att(20,121).
att(20,120).
att(20,118).
att(20,117).
att(20,116).
att(20,115).
att(20,114).
att(20,113).
att(20,112).
att(20,111).
att(20,110).
att(20,109).
att(20,108).
att(20,107).
att(20,106).
att(20,105).
att(20,104).
att(20,103).
att(20,102).
att(20,101).
att(20,100).
att(20,99).
att(20,98).
att(20,97).
att(20,96).
att(20,95).
att(20,94).
att(20,93).
att(20,92).
att(20,91).
att(20,90).
att(20,89).
att(20,88).
att(20,87).
att(20,86).
att(20,85).
att(20,84).
att(20,83).
att(20,82).
att(20,81).
att(20,80).
att(20,79).
att(20,78).
att(20,77).
att(20,76).
att(20,75).
att(20,73).
att(20,72).
att(20,71).
att(20,70).
att(20,69).
att(20,68).
att(20,66).
att(20,65).
att(20,64).
att(20,63).
att(20,62).
att(20,61).
att(20,60).
att(20,59).
att(20,58).
att(20,57).
att(20,56).
att(20,55).
att(20,54).
att(20,53).
att(20,52).
att(20,51).
att(20,50).
att(20,49).
att(20,48).
att(20,46).
att(20,45).
att(20,44).
att(20,43).
att(20,42).
att(20,41).
att(20,40).
att(20,39).
att(20,38).
att(20,36).
att(20,35).
att(20,33).
att(20,32).
att(20,31).
att(20,30).
att(20,29).
att(20,28).
att(20,27).
att(20,26).
att(20,25).
att(20,24).
att(20,23).
att(20,22).
att(20,21).
att(20,20).
att(20,19).
att(20,18).
att(20,15).
att(20,14).
att(20,13).
att(20,12).
att(20,11).
att(20,10).
att(20,9).
att(20,8).
att(20,4).
att(20,3).
att(20,2).
att(19,182).
att(19,181).
att(19,180).
att(19,179).
att(19,178).
att(19,177).
att(19,176).
att(19,175).
att(19,174).
att(19,173).
att(19,172).
att(19,171).
att(19,170).
att(19,169).
att(19,168).
att(19,167).
att(19,166).
att(19,165).
att(19,164).
att(19,163).
att(19,161).
att(19,160).
att(19,159).
att(19,158).
att(19,157).
att(19,155).
att(19,154).
att(19,153).
att(19,152).
att(19,151).
att(19,150).
att(19,149).
att(19,148).
att(19,147).
att(19,146).
att(19,145).
att(19,144).
att(19,143).
att(19,141).
att(19,139).
att(19,138).
att(19,137).
att(19,136).
att(19,134).
att(19,133).
att(19,132).
att(19,131).
att(19,130).
att(19,129).
att(19,128).
att(19,127).
att(19,126).
att(19,124).
att(19,123).
att(19,122).
att(19,121).
att(19,120).
att(19,118).
att(19,117).
att(19,116).
att(19,115).
att(19,114).
att(19,113).
att(19,112).
att(19,111).
att(19,110).
att(19,109).
att(19,108).
att(19,107).
att(19,106).
att(19,105).
att(19,104).
att(19,103).
att(19,102).
att(19,101).
att(19,100).
att(19,99).
att(19,98).
att(19,97).
att(19,96).
att(19,95).
att(19,93).
att(19,92).
att(19,91).
att(19,90).
att(19,89).
att(19,88).
att(19,87).
att(19,86).
att(19,85).
att(19,84).
att(19,82).
att(19,81).
att(19,80).
att(19,79).
att(19,78).
att(19,77).
att(19,76).
att(19,75).
att(19,73).
att(19,72).
att(19,71).
att(19,70).
att(19,69).
att(19,68).
att(19,66).
att(19,65).
att(19,64).
att(19,63).
att(19,62).
att(19,61).
att(19,60).
att(19,59).
att(19,58).
att(19,57).
att(19,56).
att(19,55).
att(19,54).
att(19,53).
att(19,52).
att(19,51).
att(19,50).
att(19,49).
att(19,48).
att(19,46).
att(19,45).
att(19,44).
att(19,43).
att(19,42).
att(19,41).
att(19,40).
att(19,39).
att(19,38).
att(19,36).
att(19,35).
att(19,33).
att(19,32).
att(19,31).
att(19,30).
att(19,29).
att(19,28).
att(19,27).
att(19,26).
att(19,25).
att(19,24).
att(19,23).
att(19,22).
att(19,21).
att(19,20).
att(19,19).
att(19,18).
att(19,15).
att(19,13).
att(19,12).
att(19,11).
att(19,10).
att(19,9).
att(19,8).
att(19,6).
att(19,4).
att(19,3).
att(19,2).
att(18,182).
att(18,179).
att(18,178).
att(18,177).
att(18,176).
att(18,175).
att(18,174).
att(18,173).
att(18,172).
att(18,171).
att(18,170).
att(18,168).
att(18,167).
att(18,166).
att(18,164).
att(18,163).
att(18,160).
att(18,158).
att(18,157).
att(18,155).
att(18,153).
att(18,151).
att(18,150).
att(18,149).
att(18,148).
att(18,145).
att(18,144).
att(18,141).
att(18,138).
att(18,137).
att(18,136).
att(18,132).
att(18,131).
att(18,130).
att(18,129).
att(18,128).
att(18,127).
att(18,124).
att(18,123).
att(18,122).
att(18,121).
att(18,120).
att(18,118).
att(18,116).
att(18,114).
att(18,112).
att(18,111).
att(18,110).
att(18,109).
att(18,108).
att(18,107).
att(18,106).
att(18,105).
att(18,104).
att(18,103).
att(18,102).
att(18,101).
att(18,100).
att(18,98).
att(18,97).
att(18,95).
att(18,93).
att(18,92).
att(18,91).
att(18,90).
att(18,89).
att(18,88).
att(18,87).
att(18,86).
att(18,84).
att(18,81).
att(18,80).
att(18,78).
att(18,77).
att(18,73).
att(18,72).
att(18,71).
att(18,69).
att(18,66).
att(18,65).
att(18,61).
att(18,59).
att(18,58).
att(18,57).
att(18,56).
att(18,55).
att(18,53).
att(18,52).
att(18,51).
att(18,50).
att(18,49).
att(18,48).
att(18,46).
att(18,45).
att(18,44).
att(18,42).
att(18,40).
att(18,39).
att(18,38).
att(18,36).
att(18,35).
att(18,32).
att(18,29).
att(18,27).
att(18,26).
att(18,24).
att(18,23).
att(18,22).
att(18,20).
att(18,19).
att(18,18).
att(18,15).
att(18,12).
att(18,11).
att(18,10).
att(18,9).
att(18,8).
att(18,4).
att(18,2).
att(17,182).
att(17,180).
att(17,179).
att(17,178).
att(17,176).
att(17,175).
att(17,174).
att(17,173).
att(17,170).
att(17,169).
att(17,168).
att(17,165).
att(17,164).
att(17,163).
att(17,160).
att(17,158).
att(17,157).
att(17,155).
att(17,153).
att(17,152).
att(17,151).
att(17,150).
att(17,149).
att(17,148).
att(17,147).
att(17,144).
att(17,143).
att(17,140).
att(17,138).
att(17,137).
att(17,136).
att(17,132).
att(17,131).
att(17,130).
att(17,127).
att(17,124).
att(17,123).
att(17,122).
att(17,121).
att(17,120).
att(17,119).
att(17,116).
att(17,115).
att(17,114).
att(17,113).
att(17,112).
att(17,111).
att(17,110).
att(17,109).
att(17,108).
att(17,107).
att(17,106).
att(17,105).
att(17,104).
att(17,103).
att(17,102).
att(17,101).
att(17,98).
att(17,97).
att(17,95).
att(17,93).
att(17,92).
att(17,89).
att(17,87).
att(17,84).
att(17,81).
att(17,79).
att(17,77).
att(17,76).
att(17,73).
att(17,72).
att(17,71).
att(17,70).
att(17,69).
att(17,66).
att(17,65).
att(17,62).
att(17,58).
att(17,56).
att(17,51).
att(17,50).
att(17,49).
att(17,48).
att(17,46).
att(17,44).
att(17,42).
att(17,39).
att(17,35).
att(17,31).
att(17,30).
att(17,29).
att(17,27).
att(17,26).
att(17,23).
att(17,22).
att(17,20).
att(17,19).
att(17,15).
att(17,14).
att(17,13).
att(17,12).
att(17,11).
att(17,10).
att(17,9).
att(17,8).
att(17,7).
att(17,4).
att(17,3).
att(15,182).
att(15,181).
att(15,180).
att(15,179).
att(15,178).
att(15,177).
att(15,176).
att(15,175).
att(15,174).
att(15,173).
att(15,172).
att(15,171).
att(15,170).
att(15,169).
att(15,168).
att(15,167).
att(15,166).
att(15,165).
att(15,164).
att(15,163).
att(15,160).
att(15,159).
att(15,158).
att(15,157).
att(15,155).
att(15,154).
att(15,153).
att(15,152).
att(15,151).
att(15,150).
att(15,149).
att(15,148).
att(15,147).
att(15,146).
att(15,145).
att(15,144).
att(15,143).
att(15,141).
att(15,139).
att(15,138).
att(15,137).
att(15,136).
att(15,134).
att(15,133).
att(15,132).
att(15,131).
att(15,130).
att(15,129).
att(15,128).
att(15,127).
att(15,126).
att(15,124).
att(15,123).
att(15,122).
att(15,121).
att(15,120).
att(15,118).
att(15,117).
att(15,116).
att(15,115).
att(15,114).
att(15,113).
att(15,112).
att(15,111).
att(15,110).
att(15,109).
att(15,108).
att(15,107).
att(15,106).
att(15,105).
att(15,104).
att(15,103).
att(15,102).
att(15,101).
att(15,100).
att(15,99).
att(15,98).
att(15,97).
att(15,96).
att(15,95).
att(15,93).
att(15,92).
att(15,91).
att(15,90).
att(15,89).
att(15,88).
att(15,87).
att(15,86).
att(15,85).
att(15,84).
att(15,82).
att(15,81).
att(15,80).
att(15,79).
att(15,78).
att(15,77).
att(15,76).
att(15,75).
att(15,73).
att(15,72).
att(15,71).
att(15,70).
att(15,69).
att(15,68).
att(15,66).
att(15,65).
att(15,64).
att(15,63).
att(15,62).
att(15,61).
att(15,60).
att(15,59).
att(15,58).
att(15,57).
att(15,56).
att(15,55).
att(15,54).
att(15,53).
att(15,52).
att(15,51).
att(15,50).
att(15,49).
att(15,48).
att(15,46).
att(15,45).
att(15,44).
att(15,43).
att(15,42).
att(15,41).
att(15,40).
att(15,39).
att(15,38).
att(15,36).
att(15,35).
att(15,33).
att(15,32).
att(15,31).
att(15,30).
att(15,29).
att(15,28).
att(15,27).
att(15,26).
att(15,25).
att(15,24).
att(15,23).
att(15,22).
att(15,21).
att(15,20).
att(15,19).
att(15,18).
att(15,15).
att(15,13).
att(15,12).
att(15,11).
att(15,10).
att(15,9).
att(15,8).
att(15,6).
att(15,4).
att(15,3).
att(15,2).
att(14,182).
att(14,180).
att(14,179).
att(14,178).
att(14,177).
att(14,176).
att(14,175).
att(14,174).
att(14,173).
att(14,170).
att(14,169).
att(14,168).
att(14,165).
att(14,164).
att(14,163).
att(14,160).
att(14,158).
att(14,157).
att(14,155).
att(14,153).
att(14,152).
att(14,151).
att(14,150).
att(14,149).
att(14,148).
att(14,147).
att(14,144).
att(14,143).
att(14,140).
att(14,138).
att(14,137).
att(14,136).
att(14,132).
att(14,131).
att(14,130).
att(14,129).
att(14,127).
att(14,124).
att(14,123).
att(14,122).
att(14,121).
att(14,120).
att(14,119).
att(14,116).
att(14,115).
att(14,114).
att(14,113).
att(14,112).
att(14,111).
att(14,110).
att(14,109).
att(14,108).
att(14,107).
att(14,106).
att(14,105).
att(14,104).
att(14,103).
att(14,102).
att(14,101).
att(14,98).
att(14,97).
att(14,95).
att(14,94).
att(14,93).
att(14,92).
att(14,89).
att(14,88).
att(14,87).
att(14,86).
att(14,84).
att(14,81).
att(14,79).
att(14,77).
att(14,76).
att(14,73).
att(14,72).
att(14,71).
att(14,70).
att(14,69).
att(14,66).
att(14,65).
att(14,62).
att(14,59).
att(14,58).
att(14,57).
att(14,56).
att(14,55).
att(14,52).
att(14,51).
att(14,50).
att(14,49).
att(14,48).
att(14,46).
att(14,44).
att(14,42).
att(14,39).
att(14,38).
att(14,35).
att(14,32).
att(14,31).
att(14,30).
att(14,29).
att(14,28).
att(14,27).
att(14,26).
att(14,23).
att(14,22).
att(14,20).
att(14,19).
att(14,15).
att(14,14).
att(14,13).
att(14,12).
att(14,11).
att(14,10).
att(14,9).
att(14,8).
att(14,7).
att(14,4).
att(14,3).
att(13,182).
att(13,181).
att(13,180).
att(13,179).
att(13,178).
att(13,177).
att(13,176).
att(13,175).
att(13,174).
att(13,173).
att(13,172).
att(13,171).
att(13,170).
att(13,169).
att(13,168).
att(13,167).
att(13,166).
att(13,165).
att(13,164).
att(13,163).
att(13,161).
att(13,160).
att(13,159).
att(13,158).
att(13,157).
att(13,155).
att(13,154).
att(13,153).
att(13,152).
att(13,151).
att(13,150).
att(13,149).
att(13,148).
att(13,147).
att(13,146).
att(13,145).
att(13,144).
att(13,143).
att(13,141).
att(13,139).
att(13,138).
att(13,137).
att(13,136).
att(13,134).
att(13,133).
att(13,132).
att(13,131).
att(13,130).
att(13,129).
att(13,128).
att(13,127).
att(13,126).
att(13,124).
att(13,123).
att(13,122).
att(13,121).
att(13,120).
att(13,118).
att(13,117).
att(13,116).
att(13,115).
att(13,114).
att(13,113).
att(13,112).
att(13,111).
att(13,110).
att(13,109).
att(13,108).
att(13,107).
att(13,106).
att(13,105).
att(13,104).
att(13,103).
att(13,102).
att(13,101).
att(13,100).
att(13,99).
att(13,98).
att(13,97).
att(13,96).
att(13,95).
att(13,93).
att(13,92).
att(13,91).
att(13,90).
att(13,89).
att(13,88).
att(13,87).
att(13,86).
att(13,85).
att(13,84).
att(13,82).
att(13,81).
att(13,80).
att(13,79).
att(13,78).
att(13,77).
att(13,76).
att(13,75).
att(13,73).
att(13,72).
att(13,71).
att(13,70).
att(13,69).
att(13,68).
att(13,66).
att(13,65).
att(13,64).
att(13,63).
att(13,62).
att(13,61).
att(13,60).
att(13,59).
att(13,58).
att(13,57).
att(13,56).
att(13,55).
att(13,54).
att(13,53).
att(13,52).
att(13,51).
att(13,50).
att(13,49).
att(13,48).
att(13,46).
att(13,45).
att(13,44).
att(13,43).
att(13,42).
att(13,41).
att(13,40).
att(13,39).
att(13,38).
att(13,36).
att(13,35).
att(13,33).
att(13,32).
att(13,31).
att(13,30).
att(13,29).
att(13,28).
att(13,27).
att(13,26).
att(13,25).
att(13,24).
att(13,23).
att(13,22).
att(13,20).
att(13,19).
att(13,18).
att(13,15).
att(13,13).
att(13,12).
att(13,11).
att(13,10).
att(13,9).
att(13,8).
att(13,4).
att(13,3).
att(13,2).
att(13,1).
att(12,182).
att(12,181).
att(12,180).
att(12,179).
att(12,178).
att(12,177).
att(12,176).
att(12,175).
att(12,174).
att(12,173).
att(12,172).
att(12,171).
att(12,170).
att(12,169).
att(12,168).
att(12,167).
att(12,166).
att(12,165).
att(12,164).
att(12,163).
att(12,160).
att(12,159).
att(12,158).
att(12,157).
att(12,155).
att(12,154).
att(12,153).
att(12,152).
att(12,151).
att(12,150).
att(12,149).
att(12,148).
att(12,147).
att(12,146).
att(12,145).
att(12,144).
att(12,143).
att(12,141).
att(12,139).
att(12,138).
att(12,137).
att(12,136).
att(12,134).
att(12,133).
att(12,132).
att(12,131).
att(12,130).
att(12,129).
att(12,128).
att(12,127).
att(12,126).
att(12,124).
att(12,123).
att(12,122).
att(12,121).
att(12,120).
att(12,118).
att(12,117).
att(12,116).
att(12,115).
att(12,114).
att(12,113).
att(12,112).
att(12,111).
att(12,110).
att(12,109).
att(12,108).
att(12,107).
att(12,106).
att(12,105).
att(12,104).
att(12,103).
att(12,102).
att(12,101).
att(12,100).
att(12,99).
att(12,98).
att(12,97).
att(12,96).
att(12,95).
att(12,94).
att(12,93).
att(12,92).
att(12,91).
att(12,90).
att(12,89).
att(12,88).
att(12,87).
att(12,86).
att(12,85).
att(12,84).
att(12,82).
att(12,81).
att(12,80).
att(12,79).
att(12,78).
att(12,77).
att(12,76).
att(12,75).
att(12,73).
att(12,72).
att(12,71).
att(12,70).
att(12,69).
att(12,68).
att(12,66).
att(12,65).
att(12,64).
att(12,63).
att(12,62).
att(12,61).
att(12,60).
att(12,59).
att(12,58).
att(12,57).
att(12,56).
att(12,55).
att(12,54).
att(12,53).
att(12,52).
att(12,51).
att(12,50).
att(12,49).
att(12,48).
att(12,46).
att(12,45).
att(12,44).
att(12,43).
att(12,42).
att(12,41).
att(12,40).
att(12,39).
att(12,38).
att(12,36).
att(12,35).
att(12,33).
att(12,32).
att(12,31).
att(12,30).
att(12,29).
att(12,28).
att(12,27).
att(12,26).
att(12,25).
att(12,24).
att(12,23).
att(12,22).
att(12,21).
att(12,20).
att(12,19).
att(12,18).
att(12,15).
att(12,13).
att(12,12).
att(12,11).
att(12,10).
att(12,9).
att(12,8).
att(12,6).
att(12,4).
att(12,3).
att(12,2).
att(11,182).
att(11,181).
att(11,180).
att(11,179).
att(11,178).
att(11,177).
att(11,176).
att(11,175).
att(11,174).
att(11,173).
att(11,172).
att(11,171).
att(11,170).
att(11,169).
att(11,168).
att(11,167).
att(11,166).
att(11,165).
att(11,164).
att(11,163).
att(11,160).
att(11,159).
att(11,158).
att(11,157).
att(11,155).
att(11,154).
att(11,153).
att(11,152).
att(11,151).
att(11,150).
att(11,149).
att(11,148).
att(11,147).
att(11,146).
att(11,145).
att(11,144).
att(11,143).
att(11,142).
att(11,141).
att(11,140).
att(11,139).
att(11,138).
att(11,137).
att(11,136).
att(11,135).
att(11,134).
att(11,133).
att(11,132).
att(11,131).
att(11,130).
att(11,129).
att(11,128).
att(11,127).
att(11,124).
att(11,123).
att(11,122).
att(11,121).
att(11,120).
att(11,119).
att(11,118).
att(11,117).
att(11,116).
att(11,115).
att(11,114).
att(11,113).
att(11,112).
att(11,111).
att(11,110).
att(11,109).
att(11,108).
att(11,107).
att(11,106).
att(11,105).
att(11,104).
att(11,103).
att(11,102).
att(11,101).
att(11,100).
att(11,99).
att(11,98).
att(11,97).
att(11,96).
att(11,95).
att(11,93).
att(11,92).
att(11,91).
att(11,90).
att(11,89).
att(11,88).
att(11,87).
att(11,86).
att(11,85).
att(11,84).
att(11,83).
att(11,82).
att(11,81).
att(11,80).
att(11,79).
att(11,78).
att(11,77).
att(11,76).
att(11,75).
att(11,73).
att(11,72).
att(11,71).
att(11,70).
att(11,69).
att(11,68).
att(11,66).
att(11,65).
att(11,64).
att(11,63).
att(11,62).
att(11,61).
att(11,60).
att(11,59).
att(11,58).
att(11,57).
att(11,56).
att(11,55).
att(11,54).
att(11,53).
att(11,52).
att(11,51).
att(11,50).
att(11,49).
att(11,48).
att(11,46).
att(11,45).
att(11,44).
att(11,43).
att(11,42).
att(11,41).
att(11,40).
att(11,39).
att(11,38).
att(11,36).
att(11,35).
att(11,33).
att(11,32).
att(11,31).
att(11,30).
att(11,29).
att(11,28).
att(11,27).
att(11,26).
att(11,25).
att(11,24).
att(11,23).
att(11,22).
att(11,21).
att(11,20).
att(11,19).
att(11,18).
att(11,15).
att(11,14).
att(11,13).
att(11,12).
att(11,11).
att(11,10).
att(11,9).
att(11,8).
att(11,7).
att(11,4).
att(11,3).
att(11,2).
att(10,182).
att(10,181).
att(10,180).
att(10,179).
att(10,178).
att(10,177).
att(10,176).
att(10,175).
att(10,174).
att(10,173).
att(10,172).
att(10,171).
att(10,170).
att(10,169).
att(10,168).
att(10,167).
att(10,166).
att(10,165).
att(10,164).
att(10,163).
att(10,162).
att(10,161).
att(10,160).
att(10,159).
att(10,158).
att(10,157).
att(10,155).
att(10,154).
att(10,153).
att(10,152).
att(10,151).
att(10,150).
att(10,149).
att(10,148).
att(10,147).
att(10,146).
att(10,145).
att(10,144).
att(10,143).
att(10,142).
att(10,141).
att(10,139).
att(10,138).
att(10,137).
att(10,136).
att(10,135).
att(10,134).
att(10,133).
att(10,132).
att(10,131).
att(10,130).
att(10,129).
att(10,128).
att(10,127).
att(10,124).
att(10,123).
att(10,122).
att(10,121).
att(10,120).
att(10,118).
att(10,117).
att(10,116).
att(10,115).
att(10,114).
att(10,113).
att(10,112).
att(10,111).
att(10,110).
att(10,109).
att(10,108).
att(10,107).
att(10,106).
att(10,105).
att(10,104).
att(10,103).
att(10,102).
att(10,101).
att(10,100).
att(10,99).
att(10,98).
att(10,97).
att(10,96).
att(10,95).
att(10,93).
att(10,92).
att(10,91).
att(10,90).
att(10,89).
att(10,88).
att(10,87).
att(10,86).
att(10,84).
att(10,83).
att(10,82).
att(10,81).
att(10,80).
att(10,79).
att(10,78).
att(10,77).
att(10,76).
att(10,75).
att(10,73).
att(10,72).
att(10,71).
att(10,70).
att(10,69).
att(10,68).
att(10,66).
att(10,65).
att(10,64).
att(10,63).
att(10,62).
att(10,61).
att(10,60).
att(10,59).
att(10,58).
att(10,57).
att(10,56).
att(10,55).
att(10,54).
att(10,53).
att(10,52).
att(10,51).
att(10,50).
att(10,49).
att(10,48).
att(10,47).
att(10,46).
att(10,45).
att(10,44).
att(10,43).
att(10,42).
att(10,41).
att(10,40).
att(10,39).
att(10,38).
att(10,36).
att(10,35).
att(10,33).
att(10,32).
att(10,31).
att(10,30).
att(10,29).
att(10,28).
att(10,27).
att(10,26).
att(10,25).
att(10,24).
att(10,23).
att(10,22).
att(10,20).
att(10,19).
att(10,18).
att(10,17).
att(10,15).
att(10,14).
att(10,13).
att(10,12).
att(10,11).
att(10,10).
att(10,9).
att(10,8).
att(10,7).
att(10,4).
att(10,3).
att(10,2).
att(9,182).
att(9,181).
att(9,180).
att(9,179).
att(9,178).
att(9,177).
att(9,176).
att(9,175).
att(9,174).
att(9,173).
att(9,170).
att(9,169).
att(9,168).
att(9,166).
att(9,165).
att(9,164).
att(9,163).
att(9,160).
att(9,159).
att(9,158).
att(9,157).
att(9,155).
att(9,154).
att(9,153).
att(9,152).
att(9,151).
att(9,150).
att(9,149).
att(9,148).
att(9,147).
att(9,146).
att(9,145).
att(9,144).
att(9,143).
att(9,139).
att(9,138).
att(9,137).
att(9,136).
att(9,134).
att(9,133).
att(9,132).
att(9,131).
att(9,130).
att(9,129).
att(9,127).
att(9,124).
att(9,123).
att(9,122).
att(9,121).
att(9,120).
att(9,118).
att(9,117).
att(9,116).
att(9,115).
att(9,113).
att(9,112).
att(9,111).
att(9,110).
att(9,108).
att(9,107).
att(9,106).
att(9,105).
att(9,104).
att(9,103).
att(9,102).
att(9,101).
att(9,100).
att(9,99).
att(9,98).
att(9,97).
att(9,96).
att(9,95).
att(9,93).
att(9,92).
att(9,91).
att(9,89).
att(9,87).
att(9,86).
att(9,84).
att(9,82).
att(9,81).
att(9,80).
att(9,79).
att(9,78).
att(9,77).
att(9,76).
att(9,75).
att(9,73).
att(9,72).
att(9,71).
att(9,70).
att(9,69).
att(9,68).
att(9,65).
att(9,64).
att(9,63).
att(9,62).
att(9,60).
att(9,59).
att(9,58).
att(9,56).
att(9,55).
att(9,54).
att(9,53).
att(9,52).
att(9,51).
att(9,50).
att(9,49).
att(9,48).
att(9,46).
att(9,44).
att(9,43).
att(9,42).
att(9,41).
att(9,40).
att(9,39).
att(9,38).
att(9,35).
att(9,33).
att(9,31).
att(9,30).
att(9,29).
att(9,28).
att(9,27).
att(9,26).
att(9,25).
att(9,23).
att(9,22).
att(9,20).
att(9,19).
att(9,15).
att(9,13).
att(9,12).
att(9,11).
att(9,10).
att(9,8).
att(9,4).
att(9,3).
att(9,2).
att(8,182).
att(8,180).
att(8,179).
att(8,178).
att(8,177).
att(8,176).
att(8,175).
att(8,174).
att(8,173).
att(8,172).
att(8,171).
att(8,170).
att(8,169).
att(8,168).
att(8,167).
att(8,166).
att(8,165).
att(8,164).
att(8,163).
att(8,161).
att(8,160).
att(8,158).
att(8,157).
att(8,155).
att(8,153).
att(8,152).
att(8,151).
att(8,150).
att(8,149).
att(8,148).
att(8,147).
att(8,145).
att(8,144).
att(8,143).
att(8,141).
att(8,138).
att(8,137).
att(8,136).
att(8,132).
att(8,131).
att(8,130).
att(8,129).
att(8,128).
att(8,127).
att(8,124).
att(8,123).
att(8,122).
att(8,121).
att(8,120).
att(8,118).
att(8,116).
att(8,115).
att(8,114).
att(8,113).
att(8,112).
att(8,111).
att(8,110).
att(8,109).
att(8,108).
att(8,107).
att(8,106).
att(8,105).
att(8,104).
att(8,103).
att(8,102).
att(8,101).
att(8,100).
att(8,98).
att(8,97).
att(8,95).
att(8,94).
att(8,93).
att(8,92).
att(8,91).
att(8,90).
att(8,89).
att(8,88).
att(8,87).
att(8,86).
att(8,84).
att(8,81).
att(8,80).
att(8,79).
att(8,78).
att(8,77).
att(8,76).
att(8,73).
att(8,72).
att(8,71).
att(8,70).
att(8,69).
att(8,66).
att(8,65).
att(8,62).
att(8,61).
att(8,59).
att(8,58).
att(8,57).
att(8,56).
att(8,55).
att(8,53).
att(8,52).
att(8,51).
att(8,50).
att(8,49).
att(8,48).
att(8,47).
att(8,46).
att(8,45).
att(8,44).
att(8,42).
att(8,40).
att(8,39).
att(8,38).
att(8,36).
att(8,35).
att(8,32).
att(8,31).
att(8,30).
att(8,29).
att(8,28).
att(8,27).
att(8,26).
att(8,24).
att(8,23).
att(8,22).
att(8,20).
att(8,19).
att(8,18).
att(8,15).
att(8,13).
att(8,12).
att(8,11).
att(8,10).
att(8,9).
att(8,8).
att(8,4).
att(8,3).
att(8,2).
att(7,182).
att(7,180).
att(7,179).
att(7,178).
att(7,176).
att(7,175).
att(7,174).
att(7,173).
att(7,170).
att(7,169).
att(7,168).
att(7,165).
att(7,164).
att(7,163).
att(7,160).
att(7,158).
att(7,157).
att(7,155).
att(7,153).
att(7,152).
att(7,151).
att(7,150).
att(7,149).
att(7,148).
att(7,147).
att(7,144).
att(7,143).
att(7,140).
att(7,138).
att(7,137).
att(7,136).
att(7,132).
att(7,131).
att(7,130).
att(7,127).
att(7,124).
att(7,123).
att(7,122).
att(7,121).
att(7,120).
att(7,119).
att(7,116).
att(7,115).
att(7,114).
att(7,113).
att(7,112).
att(7,111).
att(7,110).
att(7,109).
att(7,108).
att(7,107).
att(7,106).
att(7,105).
att(7,104).
att(7,103).
att(7,102).
att(7,101).
att(7,98).
att(7,97).
att(7,95).
att(7,93).
att(7,92).
att(7,89).
att(7,87).
att(7,84).
att(7,81).
att(7,79).
att(7,77).
att(7,76).
att(7,73).
att(7,72).
att(7,71).
att(7,70).
att(7,69).
att(7,66).
att(7,65).
att(7,62).
att(7,58).
att(7,56).
att(7,51).
att(7,50).
att(7,49).
att(7,48).
att(7,46).
att(7,44).
att(7,42).
att(7,39).
att(7,35).
att(7,31).
att(7,30).
att(7,29).
att(7,27).
att(7,26).
att(7,23).
att(7,22).
att(7,20).
att(7,19).
att(7,15).
att(7,14).
att(7,13).
att(7,12).
att(7,11).
att(7,10).
att(7,9).
att(7,8).
att(7,7).
att(7,4).
att(7,3).
att(6,182).
att(6,181).
att(6,180).
att(6,179).
att(6,178).
att(6,177).
att(6,176).
att(6,175).
att(6,174).
att(6,173).
att(6,170).
att(6,169).
att(6,168).
att(6,166).
att(6,165).
att(6,164).
att(6,163).
att(6,160).
att(6,159).
att(6,158).
att(6,157).
att(6,155).
att(6,154).
att(6,153).
att(6,152).
att(6,151).
att(6,150).
att(6,149).
att(6,148).
att(6,147).
att(6,146).
att(6,145).
att(6,144).
att(6,143).
att(6,139).
att(6,138).
att(6,137).
att(6,136).
att(6,134).
att(6,133).
att(6,132).
att(6,131).
att(6,130).
att(6,129).
att(6,127).
att(6,124).
att(6,123).
att(6,122).
att(6,121).
att(6,120).
att(6,118).
att(6,117).
att(6,116).
att(6,115).
att(6,113).
att(6,112).
att(6,111).
att(6,110).
att(6,108).
att(6,107).
att(6,106).
att(6,105).
att(6,104).
att(6,103).
att(6,102).
att(6,101).
att(6,100).
att(6,99).
att(6,98).
att(6,97).
att(6,96).
att(6,95).
att(6,93).
att(6,92).
att(6,91).
att(6,89).
att(6,87).
att(6,86).
att(6,84).
att(6,82).
att(6,81).
att(6,80).
att(6,79).
att(6,78).
att(6,77).
att(6,76).
att(6,75).
att(6,73).
att(6,72).
att(6,71).
att(6,70).
att(6,69).
att(6,68).
att(6,65).
att(6,64).
att(6,63).
att(6,62).
att(6,60).
att(6,59).
att(6,58).
att(6,56).
att(6,55).
att(6,54).
att(6,53).
att(6,52).
att(6,51).
att(6,50).
att(6,49).
att(6,48).
att(6,46).
att(6,44).
att(6,43).
att(6,42).
att(6,41).
att(6,40).
att(6,39).
att(6,38).
att(6,35).
att(6,33).
att(6,31).
att(6,30).
att(6,29).
att(6,28).
att(6,27).
att(6,26).
att(6,25).
att(6,23).
att(6,22).
att(6,20).
att(6,19).
att(6,15).
att(6,13).
att(6,12).
att(6,11).
att(6,10).
att(6,8).
att(6,4).
att(6,3).
att(6,2).
att(4,182).
att(4,181).
att(4,180).
att(4,179).
att(4,178).
att(4,177).
att(4,176).
att(4,175).
att(4,174).
att(4,173).
att(4,170).
att(4,169).
att(4,168).
att(4,166).
att(4,165).
att(4,164).
att(4,163).
att(4,160).
att(4,159).
att(4,158).
att(4,157).
att(4,155).
att(4,154).
att(4,153).
att(4,152).
att(4,151).
att(4,150).
att(4,149).
att(4,148).
att(4,147).
att(4,146).
att(4,145).
att(4,144).
att(4,143).
att(4,142).
att(4,141).
att(4,139).
att(4,138).
att(4,137).
att(4,136).
att(4,135).
att(4,134).
att(4,133).
att(4,132).
att(4,131).
att(4,130).
att(4,129).
att(4,128).
att(4,127).
att(4,126).
att(4,125).
att(4,124).
att(4,123).
att(4,122).
att(4,121).
att(4,120).
att(4,118).
att(4,117).
att(4,116).
att(4,115).
att(4,114).
att(4,113).
att(4,112).
att(4,111).
att(4,110).
att(4,109).
att(4,108).
att(4,107).
att(4,106).
att(4,105).
att(4,104).
att(4,103).
att(4,102).
att(4,101).
att(4,100).
att(4,99).
att(4,98).
att(4,97).
att(4,96).
att(4,95).
att(4,93).
att(4,92).
att(4,91).
att(4,90).
att(4,89).
att(4,87).
att(4,86).
att(4,85).
att(4,84).
att(4,83).
att(4,82).
att(4,81).
att(4,80).
att(4,79).
att(4,78).
att(4,77).
att(4,76).
att(4,75).
att(4,73).
att(4,72).
att(4,71).
att(4,70).
att(4,69).
att(4,68).
att(4,66).
att(4,65).
att(4,64).
att(4,63).
att(4,62).
att(4,60).
att(4,59).
att(4,58).
att(4,56).
att(4,55).
att(4,54).
att(4,53).
att(4,52).
att(4,51).
att(4,50).
att(4,49).
att(4,48).
att(4,46).
att(4,44).
att(4,43).
att(4,42).
att(4,41).
att(4,40).
att(4,39).
att(4,38).
att(4,36).
att(4,35).
att(4,33).
att(4,32).
att(4,31).
att(4,30).
att(4,29).
att(4,28).
att(4,27).
att(4,26).
att(4,25).
att(4,23).
att(4,22).
att(4,21).
att(4,20).
att(4,19).
att(4,18).
att(4,15).
att(4,14).
att(4,13).
att(4,12).
att(4,11).
att(4,10).
att(4,9).
att(4,8).
att(4,4).
att(4,3).
att(4,2).
att(3,182).
att(3,181).
att(3,180).
att(3,179).
att(3,178).
att(3,177).
att(3,176).
att(3,175).
att(3,174).
att(3,173).
att(3,170).
att(3,169).
att(3,168).
att(3,166).
att(3,165).
att(3,164).
att(3,163).
att(3,161).
att(3,160).
att(3,159).
att(3,158).
att(3,157).
att(3,155).
att(3,154).
att(3,153).
att(3,152).
att(3,151).
att(3,150).
att(3,149).
att(3,148).
att(3,147).
att(3,146).
att(3,145).
att(3,144).
att(3,143).
att(3,139).
att(3,138).
att(3,137).
att(3,136).
att(3,134).
att(3,133).
att(3,132).
att(3,131).
att(3,130).
att(3,129).
att(3,127).
att(3,126).
att(3,124).
att(3,123).
att(3,122).
att(3,121).
att(3,120).
att(3,118).
att(3,117).
att(3,116).
att(3,115).
att(3,114).
att(3,113).
att(3,112).
att(3,111).
att(3,110).
att(3,109).
att(3,108).
att(3,107).
att(3,106).
att(3,105).
att(3,104).
att(3,103).
att(3,102).
att(3,101).
att(3,100).
att(3,99).
att(3,98).
att(3,97).
att(3,96).
att(3,95).
att(3,94).
att(3,93).
att(3,92).
att(3,91).
att(3,89).
att(3,88).
att(3,87).
att(3,86).
att(3,85).
att(3,84).
att(3,82).
att(3,81).
att(3,80).
att(3,79).
att(3,78).
att(3,77).
att(3,76).
att(3,75).
att(3,73).
att(3,72).
att(3,71).
att(3,70).
att(3,69).
att(3,68).
att(3,65).
att(3,64).
att(3,63).
att(3,62).
att(3,60).
att(3,59).
att(3,58).
att(3,57).
att(3,56).
att(3,55).
att(3,54).
att(3,53).
att(3,52).
att(3,51).
att(3,50).
att(3,49).
att(3,48).
att(3,46).
att(3,44).
att(3,43).
att(3,42).
att(3,41).
att(3,40).
att(3,39).
att(3,38).
att(3,35).
att(3,33).
att(3,32).
att(3,31).
att(3,30).
att(3,29).
att(3,28).
att(3,27).
att(3,26).
att(3,25).
att(3,23).
att(3,22).
att(3,20).
att(3,19).
att(3,15).
att(3,13).
att(3,12).
att(3,11).
att(3,10).
att(3,9).
att(3,8).
att(3,4).
att(3,3).
att(3,2).
att(3,1).
att(2,182).
att(2,181).
att(2,180).
att(2,179).
att(2,178).
att(2,177).
att(2,176).
att(2,175).
att(2,174).
att(2,173).
att(2,170).
att(2,169).
att(2,168).
att(2,166).
att(2,165).
att(2,164).
att(2,163).
att(2,161).
att(2,160).
att(2,159).
att(2,158).
att(2,157).
att(2,155).
att(2,154).
att(2,153).
att(2,152).
att(2,151).
att(2,150).
att(2,149).
att(2,148).
att(2,147).
att(2,146).
att(2,145).
att(2,144).
att(2,143).
att(2,139).
att(2,138).
att(2,137).
att(2,136).
att(2,134).
att(2,133).
att(2,132).
att(2,131).
att(2,130).
att(2,129).
att(2,127).
att(2,124).
att(2,123).
att(2,122).
att(2,121).
att(2,120).
att(2,118).
att(2,117).
att(2,116).
att(2,115).
att(2,113).
att(2,112).
att(2,111).
att(2,110).
att(2,108).
att(2,107).
att(2,106).
att(2,105).
att(2,104).
att(2,103).
att(2,102).
att(2,101).
att(2,100).
att(2,99).
att(2,98).
att(2,97).
att(2,96).
att(2,95).
att(2,93).
att(2,92).
att(2,91).
att(2,89).
att(2,87).
att(2,86).
att(2,85).
att(2,84).
att(2,82).
att(2,81).
att(2,80).
att(2,79).
att(2,78).
att(2,77).
att(2,76).
att(2,75).
att(2,73).
att(2,72).
att(2,71).
att(2,70).
att(2,69).
att(2,68).
att(2,65).
att(2,64).
att(2,63).
att(2,62).
att(2,60).
att(2,59).
att(2,58).
att(2,56).
att(2,55).
att(2,54).
att(2,53).
att(2,52).
att(2,51).
att(2,50).
att(2,49).
att(2,48).
att(2,46).
att(2,44).
att(2,43).
att(2,42).
att(2,41).
att(2,40).
att(2,39).
att(2,38).
att(2,37).
att(2,35).
att(2,33).
att(2,31).
att(2,30).
att(2,29).
att(2,28).
att(2,27).
att(2,26).
att(2,25).
att(2,23).
att(2,22).
att(2,20).
att(2,19).
att(2,15).
att(2,13).
att(2,12).
att(2,11).
att(2,10).
att(2,8).
att(2,4).
att(2,3).
att(2,2).
