arg(1..161).
att(2,1).
att(1,2).
att(35,160).
att(3,1).
att(4,1).
att(54,99).
att(6,138).
att(1,3).
att(94,137).
att(15,45).
att(33,68).
att(1,4).
att(14,1).
att(76,26).
att(5,3).
att(5,67).
att(3,132).
att(3,23).
att(149,13).
att(104,103).
att(105,117).
att(8,3).
att(126,8).
att(3,5).
att(9,3).
att(156,157).
att(73,48).
att(79,12).
att(161,112).
att(29,22).
att(2,159).
att(6,5).
att(45,122).
att(49,148).
att(43,1).
att(46,50).
att(92,54).
att(113,9).
att(25,2).
att(5,6).
att(35,105).
att(27,2).
att(14,108).
att(158,79).
att(7,6).
att(38,95).
att(21,3).
att(66,1).
att(160,35).
att(3,8).
att(5,32).
att(11,5).
att(3,33).
att(115,9).
att(34,2).
att(47,29).
att(23,3).
att(6,7).
att(125,122).
att(57,31).
att(153,99).
att(18,4).
att(26,3).
att(133,118).
att(19,4).
att(3,9).
att(2,25).
att(12,6).
att(30,3).
att(9,115).
att(55,54).
att(2,52).
att(31,3).
att(87,53).
att(48,2).
att(54,32).
att(39,72).
att(112,54).
att(2,34).
att(33,3).
att(71,49).
att(52,2).
att(9,22).
att(77,141).
att(77,41).
att(79,158).
att(8,44).
att(38,78).
att(20,5).
att(5,24).
att(49,139).
att(72,39).
att(28,4).
att(39,3).
att(38,134).
att(124,5).
att(10,8).
att(8,126).
att(41,131).
att(1,66).
att(24,5).
att(58,50).
att(108,14).
att(97,11).
att(39,75).
att(9,113).
att(94,77).
att(140,8).
att(5,60).
att(128,5).
att(13,149).
att(4,85).
att(53,119).
att(53,87).
att(5,11).
att(13,8).
att(100,15).
att(8,86).
att(49,3).
att(8,10).
att(41,77).
att(33,102).
att(27,65).
att(101,79).
att(81,77).
att(37,14).
att(68,33).
att(3,26).
att(1,14).
att(32,5).
att(64,30).
att(2,135).
att(141,77).
att(54,89).
att(85,120).
att(33,154).
att(59,3).
att(136,5).
att(6,12).
att(50,46).
att(62,3).
att(105,35).
att(63,3).
att(2,27).
att(30,64).
att(142,26).
att(42,82).
att(33,151).
att(12,114).
att(54,55).
att(106,46).
att(78,38).
att(38,5).
att(33,56).
att(8,107).
att(42,41).
att(96,16).
att(99,153).
att(8,150).
att(122,45).
att(150,8).
att(86,8).
att(118,133).
att(72,93).
att(142,145).
att(4,69).
att(16,96).
att(103,104).
att(127,88).
att(5,41).
att(122,152).
att(157,156).
att(34,88).
att(75,39).
att(8,13).
att(109,53).
att(31,57).
att(14,37).
att(54,80).
att(59,98).
att(13,146).
att(121,156).
att(84,3).
att(22,9).
att(119,53).
att(5,128).
att(4,116).
att(3,62).
att(5,124).
att(8,40).
att(77,81).
att(135,2).
att(5,91).
att(131,41).
att(120,85).
att(56,33).
att(134,38).
att(69,4).
att(51,13).
att(130,6).
att(41,42).
att(148,49).
att(110,60).
att(147,2).
att(122,125).
att(103,33).
att(152,122).
att(12,79).
att(4,28).
att(88,127).
att(47,83).
att(4,36).
att(60,5).
att(159,2).
att(15,13).
att(8,140).
att(95,38).
att(138,6).
att(5,136).
att(54,112).
att(83,47).
att(151,33).
att(4,18).
att(45,15).
att(85,4).
att(67,5).
att(90,9).
att(3,49).
att(65,27).
att(26,76).
att(54,92).
att(29,111).
att(40,8).
att(70,5).
att(139,49).
att(143,6).
att(22,29).
att(13,15).
att(8,35).
att(46,45).
att(4,19).
att(74,5).
att(98,59).
att(107,8).
att(3,63).
att(32,54).
att(156,121).
att(33,103).
att(3,30).
att(111,29).
att(26,142).
att(44,8).
att(89,54).
att(145,142).
att(17,14).
att(6,130).
att(132,3).
att(6,143).
att(93,72).
att(4,123).
att(118,15).
att(32,129).
att(80,54).
att(16,15).
att(99,54).
att(48,73).
att(4,121).
att(33,61).
att(77,94).
att(5,70).
att(46,106).
att(53,109).
att(5,20).
att(154,33).
att(137,94).
att(53,26).
att(3,21).
att(61,33).
att(26,53).
att(9,90).
att(15,100).
att(129,32).
att(15,16).
att(3,31).
att(114,12).
att(11,97).
att(50,58).
att(88,34).
att(112,161).
att(45,46).
att(91,5).
att(117,105).
att(116,4).
att(155,42).
att(79,101).
att(2,147).
att(82,42).
att(14,17).
att(121,4).
att(144,117).
att(146,13).
att(15,118).
att(123,4).
att(5,38).
att(5,74).
