arg(1..517).
att(439,440).
att(440,439).
att(218,217).
att(163,164).
att(164,163).
att(146,145).
att(145,146).
att(131,132).
att(132,131).
att(72,71).
att(71,72).
att(70,69).
att(69,70).
att(61,62).
att(57,58).
att(58,57).
att(53,54).
att(54,53).
att(55,56).
att(51,52).
att(52,51).
att(46,45).
att(42,41).
att(41,42).
att(17,18).
att(18,17).
att(16,15).
att(15,16).
att(14,13).
att(13,14).
att(12,11).
att(11,12).
att(1,2).
att(2,1).
att(3,4).
att(4,3).
att(10,9).
att(23,24).
att(26,25).
att(25,26).
att(31,32).
att(35,36).
att(36,35).
att(38,37).
att(80,79).
att(87,88).
att(82,81).
att(81,82).
att(95,96).
att(91,92).
att(101,102).
att(99,100).
att(100,99).
att(110,109).
att(107,108).
att(108,107).
att(105,106).
att(106,105).
att(120,119).
att(119,120).
att(116,115).
att(115,116).
att(128,127).
att(127,128).
att(140,139).
att(258,257).
att(257,258).
att(319,320).
att(320,319).
att(290,289).
att(289,290).
att(339,340).
att(340,339).
att(163,162).
att(146,147).
att(62,63).
att(63,62).
att(50,51).
att(45,48).
att(48,45).
att(37,40).
att(40,37).
att(20,17).
att(6,7).
att(7,6).
att(22,23).
att(21,24).
att(24,21).
att(28,25).
att(30,31).
att(29,32).
att(32,29).
att(33,36).
att(39,38).
att(77,80).
att(78,79).
att(79,78).
att(86,87).
att(85,88).
att(88,85).
att(81,84).
att(94,95).
att(93,96).
att(96,93).
att(89,92).
att(92,89).
att(104,101).
att(101,104).
att(100,97).
att(111,110).
att(112,109).
att(109,112).
att(118,119).
att(114,115).
att(126,127).
att(137,140).
att(140,137).
att(292,289).
att(337,340).
att(163,168).
att(70,65).
att(2,5).
att(217,224).
att(224,217).
att(134,131).
att(65,72).
att(64,57).
att(56,49).
att(49,56).
att(47,42).
att(5,4).
att(19,22).
att(22,19).
att(27,30).
att(30,27).
att(34,39).
att(39,34).
att(264,257).
att(54,61).
att(40,46).
att(211,224).
att(75,72).
att(77,68).
att(68,77).
att(60,53).
att(7,10).
att(8,9).
att(9,8).
att(83,94).
att(94,83).
att(98,111).
att(111,98).
att(122,106).
att(121,106).
att(12,20).
att(3,28).
att(16,20).
att(106,118).
att(113,109).
att(320,292).
att(40,59).
att(439,425).
att(41,55).
att(14,20).
att(76,86).
att(86,76).
att(108,118).
att(140,171).
att(44,9).
att(22,50).
att(59,32).
att(7,33).
att(43,4).
att(300,257).
att(7,43).
att(22,60).
att(117,69).
att(166,145).
att(168,145).
att(21,47).
att(123,72).
att(140,182).
att(2,64).
att(22,44).
att(16,80).
att(73,9).
att(49,114).
att(193,131).
att(30,90).
att(8,80).
att(66,9).
att(49,123).
att(163,234).
att(84,25).
att(124,56).
att(208,131).
att(199,137).
att(74,25).
att(102,53).
att(48,126).
att(90,11).
att(39,124).
att(22,117).
att(30,122).
att(246,146).
att(140,238).
att(40,66).
att(125,27).
att(97,9).
att(52,91).
att(26,113).
att(39,73).
att(52,67).
att(21,103).
att(140,256).
att(67,56).
att(374,257).
att(103,32).
att(140,243).
att(137,244).
att(54,74).
att(140,248).
att(2,125).
att(7,121).
att(54,75).
att(86,214).
att(181,53).
att(21,149).
att(226,98).
att(108,235).
att(238,109).
att(186,57).
att(234,107).
att(70,199).
att(86,210).
att(83,215).
att(70,194).
att(54,190).
att(129,9).
att(111,232).
att(13,134).
att(94,216).
att(194,76).
att(150,32).
att(101,240).
att(177,62).
att(152,27).
att(58,184).
att(151,25).
att(178,34).
att(35,179).
att(68,211).
att(202,89).
att(39,184).
att(183,37).
att(225,115).
att(192,45).
att(189,42).
att(160,11).
att(21,130).
att(243,104).
att(425,320).
att(111,250).
att(70,222).
att(245,109).
att(185,34).
att(7,160).
att(21,142).
att(197,96).
att(3,154).
att(235,119).
att(204,88).
att(81,205).
att(7,156).
att(30,129).
att(101,251).
att(207,82).
att(3,158).
att(143,18).
att(223,127).
att(106,202).
att(70,230).
att(252,92).
att(30,189).
att(16,175).
att(15,176).
att(170,9).
att(39,136).
att(213,119).
att(7,165).
att(111,206).
att(188,25).
att(12,169).
att(49,148).
att(79,235).
att(100,200).
att(198,98).
att(180,24).
att(173,9).
att(79,236).
att(135,36).
att(236,77).
att(2,167).
att(195,107).
att(7,175).
att(52,155).
att(227,76).
att(39,141).
att(156,56).
att(106,197).
att(17,191).
att(162,16).
att(154,56).
att(119,218).
att(39,138).
att(228,77).
att(40,151).
att(171,25).
att(139,57).
att(68,242).
att(136,53).
att(221,105).
att(138,62).
att(17,166).
att(130,56).
att(7,178).
att(100,220).
att(21,173).
att(2,185).
att(77,246).
att(101,223).
att(12,177).
att(70,255).
att(222,98).
att(165,27).
att(94,228).
att(250,72).
att(212,109).
att(216,105).
att(215,106).
att(182,11).
att(39,231).
att(15,208).
att(155,92).
att(22,215).
att(100,161).
att(157,96).
att(133,72).
att(17,213).
att(169,109).
att(56,244).
att(159,92).
att(240,42).
att(210,24).
att(167,98).
att(172,109).
att(149,94).
att(54,253).
att(142,72).
att(196,9).
att(2,203).
att(256,53).
att(49,252).
att(63,246).
att(161,109).
att(187,120).
att(86,153).
att(13,195).
att(15,193).
att(209,32).
att(101,172).
att(254,51).
att(22,198).
att(201,25).
att(107,187).
att(70,150).
att(2,209).
att(230,53).
att(203,25).
att(79,157).
att(94,144).
att(469,257).
att(81,133).
att(248,36).
att(232,51).
att(141,92).
att(52,229).
att(3,219).
att(241,42).
att(111,181).
att(22,207).
att(101,192).
att(214,9).
att(111,180).
att(49,239).
att(184,106).
att(147,77).
att(233,56).
att(21,204).
att(41,201).
att(175,79).
att(30,254).
att(251,27).
att(249,25).
att(21,245).
att(77,175).
att(101,135).
att(21,247).
att(57,221).
att(206,42).
att(108,144).
att(255,27).
att(83,184).
att(22,241).
att(81,183).
att(190,92).
att(174,76).
att(153,127).
att(106,143).
att(7,226).
att(8,225).
att(179,92).
att(8,237).
att(220,56).
att(21,249).
att(200,42).
att(86,188).
att(229,11).
att(244,30).
att(8,233).
att(58,215).
att(176,96).
att(158,109).
att(191,77).
att(219,42).
att(237,25).
att(40,212).
att(247,4).
att(239,25).
att(54,196).
att(253,11).
att(22,227).
att(81,170).
att(111,152).
att(144,119).
att(231,32).
att(101,159).
att(205,56).
att(70,186).
att(81,174).
att(242,16).
att(148,109).
att(349,93).
att(112,368).
att(336,79).
att(119,376).
att(100,354).
att(364,106).
att(285,32).
att(15,270).
att(77,336).
att(392,131).
att(334,76).
att(367,105).
att(348,93).
att(273,25).
att(100,364).
att(385,137).
att(287,24).
att(108,355).
att(70,336).
att(16,261).
att(57,309).
att(7,268).
att(163,430).
att(276,4).
att(41,313).
att(265,27).
att(106,380).
att(305,36).
att(54,295).
att(341,72).
att(16,284).
att(295,51).
att(355,119).
att(40,307).
att(310,36).
att(338,72).
att(384,106).
att(16,281).
att(286,11).
att(316,45).
att(326,83).
att(329,96).
att(7,287).
att(343,79).
att(394,146).
att(263,32).
att(393,146).
att(77,343).
att(70,352).
att(12,273).
att(54,298).
att(332,88).
att(111,371).
att(314,37).
att(323,96).
att(333,82).
att(406,137).
att(3,285).
att(407,137).
att(308,45).
att(41,312).
att(22,310).
att(93,381).
att(163,387).
att(63,288).
att(359,72).
att(363,76).
att(8,294).
att(26,315).
att(322,99).
att(94,383).
att(357,72).
att(163,391).
att(279,51).
att(260,39).
att(272,42).
att(354,72).
att(353,72).
att(58,274).
att(325,109).
att(39,272).
att(77,358).
att(327,109).
att(358,79).
att(41,261).
att(39,267).
att(22,314).
att(83,384).
att(39,265).
att(306,32).
att(311,25).
att(127,337).
att(81,384).
att(39,279).
att(13,317).
att(360,88).
att(262,53).
att(350,109).
att(317,16).
att(101,344).
att(112,349).
att(146,422).
att(421,145).
att(57,269).
att(40,275).
att(291,24).
att(8,306).
att(304,25).
att(111,346).
att(16,312).
att(375,79).
att(22,301).
att(83,364).
att(101,351).
att(77,375).
att(7,318).
att(112,341).
att(330,115).
att(81,365).
att(379,72).
att(378,72).
att(39,282).
att(268,53).
att(94,355).
att(163,483).
att(140,460).
att(269,77).
att(16,336).
att(373,53).
att(39,359).
att(267,76).
att(351,32).
att(346,25).
att(7,328).
att(3,324).
att(449,131).
att(140,458).
att(303,109).
att(26,348).
att(83,274).
att(52,369).
att(86,274).
att(81,277).
att(297,109).
att(40,356).
att(298,109).
att(2,325).
att(365,42).
att(299,109).
att(58,384).
att(309,116).
att(77,261).
att(111,296).
att(140,450).
att(261,79).
att(70,271).
att(301,104).
att(101,304).
att(324,9).
att(335,6).
att(7,334).
att(280,92).
att(30,338).
att(368,36).
att(140,455).
att(7,332).
att(57,374).
att(278,92).
att(107,293).
att(85,284).
att(259,78).
att(22,347).
att(86,262).
att(307,99).
att(54,358).
att(17,323).
att(372,34).
att(54,360).
att(58,364).
att(77,281).
att(313,109).
att(22,322).
att(356,56).
att(284,79).
att(270,89).
att(331,32).
att(29,330).
att(146,456).
att(140,478).
att(281,79).
att(77,284).
att(52,357).
att(163,507).
att(288,72).
att(370,42).
att(271,88).
att(16,343).
att(3,345).
att(22,335).
att(39,382).
att(86,266).
att(111,305).
att(163,510).
att(94,259).
att(22,331).
att(345,57).
att(85,311).
att(294,72).
att(63,350).
att(321,36).
att(22,375).
att(15,366).
att(344,51).
att(49,342).
att(86,308).
att(140,484).
att(491,131).
att(352,56).
att(369,25).
att(39,333).
att(16,358).
att(81,316).
att(71,302).
att(70,303).
att(2,363).
att(140,488).
att(275,127).
att(296,76).
att(371,32).
att(22,377).
att(106,264).
att(266,104).
att(328,42).
att(7,362).
att(302,93).
att(383,16).
att(362,25).
att(12,378).
att(277,104).
att(52,321).
att(111,283).
att(52,327).
att(2,373).
att(22,353).
att(111,281).
att(94,300).
att(342,36).
att(382,11).
att(274,106).
att(112,280).
att(81,297).
att(3,379).
att(140,499).
att(101,286).
att(312,79).
att(16,375).
att(163,473).
att(112,278).
att(318,72).
att(77,312).
att(347,34).
att(377,4).
att(111,276).
att(283,104).
att(315,72).
att(140,502).
att(282,104).
att(495,146).
att(86,299).
att(461,77).
att(415,32).
att(484,98).
att(492,106).
att(474,92).
att(68,449).
att(477,96).
att(427,42).
att(22,407).
att(16,396).
att(86,468).
att(478,92).
att(7,385).
att(429,37).
att(448,56).
att(101,494).
att(68,459).
att(446,53).
att(17,411).
att(2,396).
att(455,76).
att(140,263).
att(164,302).
att(49,418).
att(410,9).
att(508,106).
att(57,428).
att(2,403).
att(387,18).
att(2,406).
att(504,99).
att(506,109).
att(459,96).
att(462,89).
att(414,9).
att(399,25).
att(70,467).
att(7,402).
att(487,127).
att(39,447).
att(412,4).
att(2,410).
att(505,98).
att(433,42).
att(7,416).
att(386,25).
att(13,408).
att(497,109).
att(70,476).
att(416,1).
att(488,72).
att(16,432).
att(30,446).
att(457,106).
att(2,417).
att(77,495).
att(2,420).
att(13,431).
att(40,390).
att(381,224).
att(402,51).
att(482,69).
att(507,96).
att(106,461).
att(115,469).
att(426,16).
att(16,424).
att(13,421).
att(83,508).
att(140,291).
att(422,16).
att(106,451).
att(41,388).
att(456,107).
att(2,429).
att(54,409).
att(58,405).
att(483,77).
att(16,418).
att(108,453).
att(409,56).
att(2,434).
att(398,62).
att(453,119).
att(479,109).
att(443,9).
att(366,224).
att(40,405).
att(2,438).
att(8,436).
att(444,16).
att(40,404).
att(100,471).
att(81,487).
att(445,11).
att(454,115).
att(480,105).
att(8,433).
att(16,441).
att(509,69).
att(400,56).
att(83,492).
att(17,426).
att(435,9).
att(52,394).
att(40,413).
att(403,42).
att(54,393).
att(7,441).
att(52,398).
att(7,442).
att(63,386).
att(501,53).
att(22,470).
att(26,474).
att(503,56).
att(13,462).
att(58,508).
att(417,99).
att(390,72).
att(411,89).
att(30,479).
att(22,466).
att(77,393).
att(467,24).
att(396,79).
att(77,394).
att(108,430).
att(83,405).
att(502,51).
att(77,396).
att(39,495).
att(460,4).
att(111,423).
att(408,96).
att(471,32).
att(490,36).
att(30,472).
att(163,361).
att(391,78).
att(70,399).
att(40,492).
att(464,4).
att(468,32).
att(163,367).
att(451,16).
att(470,25).
att(39,489).
att(81,415).
att(472,25).
att(423,106).
att(475,11).
att(85,389).
att(39,504).
att(58,492).
att(30,464).
att(438,104).
att(447,109).
att(111,445).
att(13,480).
att(111,443).
att(388,88).
att(40,498).
att(41,511).
att(22,452).
att(101,435).
att(413,76).
att(401,72).
att(94,395).
att(498,42).
att(70,414).
att(452,27).
att(146,329).
att(494,56).
att(493,56).
att(450,27).
att(430,119).
att(512,36).
att(92,392).
att(22,457).
att(140,343).
att(39,505).
att(442,104).
att(70,412).
att(465,16).
att(436,109).
att(481,1).
att(21,501).
att(85,437).
att(511,32).
att(473,58).
att(432,79).
att(111,400).
att(7,485).
att(12,490).
att(30,512).
att(70,424).
att(431,77).
att(77,432).
att(2,486).
att(57,477).
att(419,72).
att(106,397).
att(13,491).
att(22,500).
att(466,56).
att(7,482).
att(463,42).
att(163,326).
att(57,465).
att(389,109).
att(424,79).
att(49,475).
att(86,448).
att(361,131).
att(77,424).
att(22,506).
att(41,454).
att(77,418).
att(418,79).
att(489,25).
att(510,14).
att(30,493).
att(486,24).
att(30,496).
att(476,42).
att(420,82).
att(437,72).
att(77,441).
att(376,132).
att(404,104).
att(101,401).
att(22,481).
att(79,444).
att(7,497).
att(434,72).
att(441,79).
att(2,503).
att(86,419).
att(496,24).
att(164,348).
att(140,372).
att(500,11).
att(428,83).
att(380,131).
att(395,116).
att(499,9).
att(2,508).
att(86,432).
att(140,370).
att(485,32).
att(54,463).
att(57,453).
att(293,217).
att(2,509).
att(405,106).
att(458,56).
att(86,427).
att(164,349).
att(397,116).
att(41,516).
att(49,514).
att(58,517).
att(13,513).
att(513,18).
att(514,32).
att(515,25).
att(101,517).
att(100,515).
att(517,106).
att(516,72).
att(83,517).
