arg(1..570).
att(275,276).
att(244,243).
att(243,244).
att(256,255).
att(255,256).
att(226,225).
att(216,215).
att(215,216).
att(220,219).
att(219,220).
att(222,221).
att(199,200).
att(200,199).
att(197,198).
att(202,201).
att(205,206).
att(206,205).
att(190,189).
att(189,190).
att(186,185).
att(185,186).
att(188,187).
att(163,164).
att(164,163).
att(175,176).
att(176,175).
att(169,170).
att(170,169).
att(171,172).
att(150,149).
att(146,145).
att(145,146).
att(160,159).
att(159,160).
att(157,158).
att(154,153).
att(153,154).
att(80,79).
att(70,69).
att(69,70).
att(61,62).
att(62,61).
att(63,64).
att(53,54).
att(54,53).
att(55,56).
att(56,55).
att(49,50).
att(50,49).
att(51,52).
att(42,41).
att(41,42).
att(43,44).
att(19,20).
att(20,19).
att(17,18).
att(12,11).
att(11,12).
att(1,2).
att(2,1).
att(3,4).
att(4,3).
att(7,8).
att(9,10).
att(10,9).
att(22,21).
att(21,22).
att(27,28).
att(30,29).
att(29,30).
att(32,31).
att(31,32).
att(34,33).
att(39,40).
att(40,39).
att(73,74).
att(74,73).
att(75,76).
att(76,75).
att(87,88).
att(82,81).
att(81,82).
att(94,93).
att(96,95).
att(95,96).
att(90,89).
att(89,90).
att(102,101).
att(99,100).
att(100,99).
att(97,98).
att(98,97).
att(111,112).
att(112,111).
att(108,107).
att(105,106).
att(106,105).
att(120,119).
att(119,120).
att(118,117).
att(117,118).
att(116,115).
att(115,116).
att(114,113).
att(113,114).
att(126,125).
att(125,126).
att(121,122).
att(138,137).
att(137,138).
att(142,141).
att(141,142).
att(144,143).
att(143,144).
att(132,131).
att(136,135).
att(135,136).
att(276,275).
att(279,280).
att(281,282).
att(282,281).
att(268,267).
att(266,265).
att(265,266).
att(305,306).
att(314,313).
att(339,340).
att(324,323).
att(336,335).
att(331,332).
att(330,329).
att(329,330).
att(369,370).
att(370,369).
att(381,382).
att(360,359).
att(359,360).
att(356,355).
att(355,356).
att(423,424).
att(424,423).
att(244,241).
att(256,253).
att(226,227).
att(227,226).
att(196,193).
att(193,196).
att(208,205).
att(163,162).
att(174,175).
att(147,146).
att(77,80).
att(67,66).
att(66,67).
att(71,70).
att(58,59).
att(59,58).
att(45,48).
att(48,45).
att(15,14).
att(14,15).
att(6,7).
att(7,6).
att(24,21).
att(26,27).
att(25,28).
att(28,25).
att(36,33).
att(33,36).
att(37,40).
att(78,79).
att(79,78).
att(85,88).
att(88,85).
att(81,84).
att(92,89).
att(103,102).
att(104,101).
att(101,104).
att(112,109).
att(123,122).
att(122,123).
att(140,137).
att(129,132).
att(132,129).
att(155,154).
att(276,273).
att(370,371).
att(8,4).
att(169,174).
att(10,13).
att(2,5).
att(19,24).
att(95,92).
att(209,216).
att(194,199).
att(202,207).
att(207,202).
att(186,191).
att(149,148).
att(148,149).
att(157,156).
att(156,157).
att(65,72).
att(72,65).
att(64,57).
att(57,64).
att(58,63).
att(42,47).
att(13,12).
att(5,4).
att(110,107).
att(107,110).
att(124,125).
att(274,279).
att(279,274).
att(282,287).
att(272,265).
att(342,339).
att(339,342).
att(325,324).
att(324,325).
att(333,332).
att(332,333).
att(354,359).
att(52,60).
att(212,219).
att(190,181).
att(119,128).
att(49,60).
att(117,128).
att(187,183).
att(160,147).
att(67,80).
att(55,60).
att(98,109).
att(115,128).
att(141,130).
att(47,33).
att(325,331).
att(220,213).
att(198,203).
att(203,198).
att(190,179).
att(77,68).
att(68,77).
att(65,80).
att(60,53).
att(43,38).
att(38,43).
att(23,26).
att(26,23).
att(83,94).
att(94,83).
att(100,109).
att(128,113).
att(130,143).
att(261,268).
att(268,261).
att(312,313).
att(313,312).
att(321,336).
att(336,321).
att(372,381).
att(381,372).
att(355,366).
att(48,60).
att(207,217).
att(84,70).
att(106,128).
att(305,296).
att(74,86).
att(135,155).
att(221,195).
att(195,221).
att(196,222).
att(172,182).
att(187,165).
att(165,187).
att(52,46).
att(46,52).
att(45,51).
att(18,16).
att(16,18).
att(15,17).
att(86,76).
att(202,234).
att(199,232).
att(7,37).
att(3,34).
att(159,188).
att(162,138).
att(276,319).
att(293,266).
att(275,317).
att(109,95).
att(89,109).
att(127,75).
att(148,167).
att(95,108).
att(79,121).
att(319,265).
att(44,29).
att(207,248).
att(1,60).
att(172,152).
att(152,172).
att(35,31).
att(91,103).
att(103,91).
att(269,305).
att(305,269).
att(329,373).
att(367,339).
att(178,144).
att(29,35).
att(252,186).
att(142,208).
att(170,237).
att(382,313).
att(322,265).
att(228,169).
att(53,124).
att(187,233).
att(40,127).
att(172,245).
att(248,169).
att(10,87).
att(169,201).
att(141,240).
att(275,376).
att(148,254).
att(254,144).
att(160,238).
att(251,144).
att(93,42).
att(148,229).
att(424,480).
att(230,157).
att(61,71).
att(265,376).
att(394,266).
att(235,105).
att(99,231).
att(268,399).
att(452,325).
att(214,94).
att(231,112).
att(158,21).
att(78,194).
att(180,64).
att(266,390).
att(232,107).
att(179,64).
att(167,42).
att(266,410).
att(467,324).
att(117,230).
att(211,68).
att(119,230).
att(191,46).
att(114,230).
att(126,236).
att(266,416).
att(201,81).
att(168,64).
att(99,250).
att(332,472).
att(217,70).
att(96,194).
att(123,230).
att(279,394).
att(250,89).
att(12,171).
att(276,435).
att(125,218).
att(483,325).
att(204,110).
att(111,201).
att(94,251).
att(105,208).
att(25,192).
att(45,134).
att(94,247).
att(107,194).
att(233,70).
att(247,89).
att(239,65).
att(22,188).
att(481,336).
att(66,239).
att(53,133).
att(40,151).
att(66,246).
att(97,214).
att(246,77).
att(225,90).
att(134,64).
att(249,68).
att(360,477).
att(329,502).
att(245,75).
att(182,12).
att(79,242).
att(276,468).
att(113,177).
att(177,115).
att(113,180).
att(266,463).
att(64,249).
att(131,70).
att(94,150).
att(43,228).
att(236,33).
att(66,139).
att(237,33).
att(325,393).
att(210,29).
att(166,105).
att(355,432).
att(99,173).
att(241,33).
att(57,234).
att(97,178).
att(325,408).
att(46,252).
att(94,140).
att(229,52).
att(7,210).
att(477,268).
att(276,460).
att(463,279).
att(223,7).
att(12,211).
att(1,218).
att(192,103).
att(184,110).
att(20,208).
att(161,126).
att(139,85).
att(105,184).
att(276,499).
att(414,381).
att(50,212).
att(253,32).
att(41,204).
att(242,21).
att(151,116).
att(55,209).
att(482,266).
att(49,218).
att(224,55).
att(399,360).
att(82,188).
att(431,325).
att(53,224).
att(173,72).
att(425,324).
att(218,53).
att(74,168).
att(234,7).
att(275,484).
att(183,70).
att(213,33).
att(29,234).
att(48,218).
att(19,235).
att(238,22).
att(40,223).
att(415,360).
att(409,355).
att(240,21).
att(94,161).
att(133,122).
att(70,188).
att(181,76).
att(193,449).
att(271,15).
att(148,402).
att(29,288).
att(7,262).
att(398,143).
att(363,111).
att(226,485).
att(10,272).
att(88,337).
att(41,290).
att(335,72).
att(99,361).
att(53,320).
att(388,137).
att(2,270).
att(358,106).
att(146,414).
att(12,263).
att(302,33).
att(135,396).
att(255,497).
att(298,39).
att(326,75).
att(118,358).
att(149,389).
att(32,271).
att(264,22).
att(307,33).
att(308,33).
att(175,443).
att(187,431).
att(295,52).
att(365,122).
att(303,57).
att(387,149).
att(320,41).
att(416,137).
att(262,29).
att(337,74).
att(207,470).
att(82,331).
att(280,12).
att(10,278).
att(353,125).
att(219,456).
att(291,64).
att(176,433).
att(205,493).
att(257,33).
att(347,123).
att(125,350).
att(90,377).
att(79,368).
att(12,298).
att(348,122).
att(436,146).
att(427,137).
att(160,445).
att(199,483).
att(207,489).
att(119,337).
att(352,122).
att(73,367).
att(2,295).
att(11,302).
att(221,501).
att(207,488).
att(256,471).
att(187,404).
att(311,29).
att(362,68).
att(30,308).
att(81,383).
att(285,52).
att(81,384).
att(368,65).
att(169,392).
att(142,446).
att(196,498).
att(7,309).
att(95,365).
att(165,407).
att(41,284).
att(341,104).
att(100,337).
att(105,348).
att(176,413).
att(41,285).
att(289,21).
att(99,343).
att(351,106).
att(115,326).
att(377,65).
att(38,288).
att(300,18).
att(81,363).
att(256,453).
att(383,70).
att(317,2).
att(6,316).
att(328,122).
att(4,317).
att(344,105).
att(484,163).
att(195,388).
att(283,89).
att(259,65).
att(148,465).
att(433,244).
att(460,144).
att(459,143).
att(244,440).
att(379,64).
att(410,221).
att(187,510).
att(45,364).
att(117,317).
att(216,415).
att(497,187).
att(148,474).
att(374,64).
att(45,353).
att(196,400).
att(451,144).
att(371,64).
att(378,55).
att(405,220).
att(340,4).
att(474,137).
att(292,115).
att(10,345).
att(402,193).
att(83,257).
att(19,322).
att(113,293).
att(19,328).
att(258,88).
att(306,104).
att(56,354).
att(277,68).
att(81,264).
att(118,291).
att(290,122).
att(9,337).
att(219,387).
att(244,428).
att(441,226).
att(327,29).
att(284,65).
att(190,482).
att(187,487).
att(43,375).
att(98,317).
att(364,55).
att(294,70).
att(50,338).
att(160,511).
att(310,88).
att(99,258).
att(297,76).
att(79,299).
att(334,42).
att(376,19).
att(2,357).
att(421,195).
att(422,196).
att(338,55).
att(345,64).
att(375,18).
att(118,286).
att(53,349).
att(255,407).
att(343,64).
att(138,484).
att(260,106).
att(380,18).
att(4,362).
att(373,32).
att(256,403).
att(176,450).
att(79,289).
att(196,430).
att(64,337).
att(349,52).
att(219,438).
att(270,125).
att(75,316).
att(189,463).
att(169,476).
att(509,138).
att(263,116).
att(41,351).
att(190,459).
att(472,176).
att(507,132).
att(97,283).
att(301,88).
att(74,310).
att(12,376).
att(361,21).
att(153,486).
att(318,65).
att(296,91).
att(309,75).
att(299,85).
att(48,337).
att(9,376).
att(475,91).
att(478,94).
att(430,45).
att(505,123).
att(100,481).
att(107,495).
att(493,105).
att(404,22).
att(438,52).
att(113,505).
att(244,380).
att(54,446).
att(488,111).
att(118,509).
att(45,422).
att(53,447).
att(485,112).
att(66,461).
att(435,64).
att(412,21).
att(396,28).
att(499,100).
att(454,88).
att(286,144).
att(391,21).
att(125,496).
att(81,452).
att(437,33).
att(461,90).
att(53,418).
att(117,484).
att(495,122).
att(219,334).
att(440,33).
att(417,57).
att(470,77).
att(273,138).
att(392,31).
att(504,110).
att(443,33).
att(490,115).
att(385,29).
att(393,22).
att(120,490).
att(395,21).
att(12,426).
att(15,429).
att(141,304).
att(316,160).
att(141,297).
att(389,33).
att(7,417).
att(72,481).
att(304,137).
att(492,68).
att(64,407).
att(21,446).
att(94,504).
att(146,316).
att(453,112).
att(152,316).
att(20,446).
att(407,58).
att(480,112).
att(120,455).
att(132,307).
att(66,500).
att(315,137).
att(68,497).
att(144,317).
att(397,64).
att(429,32).
att(7,436).
att(439,4).
att(418,21).
att(502,77).
att(58,385).
att(160,294).
att(61,391).
att(4,442).
att(115,458).
att(455,123).
att(400,52).
att(118,457).
att(447,4).
att(510,68).
att(386,64).
att(70,507).
att(114,463).
att(110,467).
att(445,4).
att(512,64).
att(154,346).
att(186,378).
att(187,379).
att(195,260).
att(196,259).
att(105,427).
att(2,451).
att(19,466).
att(26,475).
att(90,411).
att(74,398).
att(122,446).
att(244,311).
att(95,412).
att(74,397).
att(157,347).
att(116,437).
att(94,405).
att(107,420).
att(40,494).
att(457,4).
att(40,492).
att(464,4).
att(120,444).
att(469,26).
att(94,401).
att(2,464).
att(28,469).
att(267,198).
att(401,65).
att(448,112).
att(115,419).
att(43,508).
att(465,2).
att(501,39).
att(189,367).
att(141,352).
att(76,409).
att(120,421).
att(408,68).
att(494,57).
att(45,506).
att(350,137).
att(503,33).
att(97,439).
att(278,195).
att(384,169).
att(403,70).
att(498,42).
att(468,12).
att(413,69).
att(115,425).
att(141,344).
att(491,55).
att(496,52).
att(43,503).
att(458,22).
att(287,195).
att(479,4).
att(112,434).
att(450,31).
att(19,462).
att(346,135).
att(97,448).
att(449,33).
att(207,303).
att(143,367).
att(90,441).
att(419,68).
att(511,29).
att(462,48).
att(120,406).
att(96,446).
att(142,367).
att(426,75).
att(420,65).
att(432,76).
att(508,31).
att(500,21).
att(45,454).
att(471,64).
att(97,395).
att(2,491).
att(256,277).
att(473,53).
att(288,244).
att(323,175).
att(390,106).
att(444,88).
att(172,327).
att(466,64).
att(165,331).
att(32,497).
att(205,292).
att(196,301).
att(428,69).
att(50,479).
att(41,473).
att(476,43).
att(434,68).
att(442,75).
att(446,79).
att(489,29).
att(10,512).
att(456,50).
att(120,386).
att(357,148).
att(411,110).
att(487,32).
att(196,315).
att(141,374).
att(506,4).
att(67,441).
att(366,146).
att(406,106).
att(486,25).
att(195,318).
att(516,4).
att(31,538).
att(19,529).
att(532,21).
att(33,550).
att(18,538).
att(521,31).
att(562,33).
att(41,556).
att(554,55).
att(39,567).
att(529,12).
att(21,528).
att(567,33).
att(565,40).
att(541,64).
att(4,547).
att(6,547).
att(9,544).
att(558,4).
att(528,61).
att(50,518).
att(520,52).
att(50,520).
att(38,538).
att(534,48).
att(73,522).
att(76,522).
att(563,123).
att(552,112).
att(78,523).
att(67,523).
att(85,537).
att(545,107).
att(95,532).
att(118,563).
att(112,540).
att(94,531).
att(530,65).
att(118,546).
att(119,544).
att(120,541).
att(546,115).
att(570,106).
att(91,515).
att(79,536).
att(526,85).
att(99,566).
att(536,77).
att(537,65).
att(85,523).
att(94,570).
att(112,524).
att(94,564).
att(113,534).
att(74,551).
att(514,106).
att(79,545).
att(73,544).
att(69,550).
att(113,514).
att(77,568).
att(531,97).
att(95,552).
att(519,115).
att(115,517).
att(539,88).
att(559,77).
att(105,530).
att(518,125).
att(557,76).
att(74,555).
att(561,75).
att(137,522).
att(525,143).
att(549,169).
att(522,141).
att(172,553).
att(527,137).
att(566,189).
att(163,557).
att(172,558).
att(160,519).
att(517,160).
att(548,137).
att(560,146).
att(551,137).
att(143,548).
att(160,561).
att(543,137).
att(513,176).
att(190,527).
att(145,542).
att(189,522).
att(547,160).
att(556,137).
att(152,547).
att(553,146).
att(219,533).
att(533,193).
att(550,244).
att(195,539).
att(195,544).
att(538,244).
att(555,195).
att(244,513).
att(569,203).
att(202,568).
att(255,524).
att(216,554).
att(564,193).
att(244,521).
att(219,543).
att(276,516).
att(542,312).
att(282,565).
att(515,305).
att(544,282).
att(381,560).
att(535,325).
att(359,569).
att(332,535).
att(339,525).
att(540,324).
att(568,329).
att(523,370).
att(336,559).
att(370,526).
att(424,549).
att(524,424).
