arg(1..118).
att(80,43).
att(41,93).
att(10,80).
att(71,37).
att(34,54).
att(53,14).
att(47,91).
att(108,110).
att(29,26).
att(104,21).
att(30,12).
att(2,45).
att(41,19).
att(14,53).
att(60,5).
att(114,7).
att(80,19).
att(104,105).
att(116,36).
att(66,57).
att(47,108).
att(44,16).
att(12,77).
att(50,106).
att(107,29).
att(56,16).
att(19,54).
att(19,50).
att(89,107).
att(105,104).
att(112,77).
att(77,84).
att(93,41).
att(11,113).
att(33,99).
att(111,98).
att(34,83).
att(117,27).
att(51,84).
att(17,71).
att(118,19).
att(13,61).
att(93,118).
att(15,3).
att(103,23).
att(81,18).
att(64,1).
att(21,104).
att(105,30).
att(55,38).
att(81,24).
att(7,91).
att(61,46).
att(27,102).
att(77,76).
att(34,19).
att(113,58).
att(3,32).
att(70,94).
att(76,5).
att(85,93).
att(24,81).
att(56,78).
att(92,20).
att(27,77).
att(5,60).
att(35,88).
att(31,26).
att(88,20).
att(11,81).
att(83,106).
att(102,107).
att(59,22).
att(99,26).
att(19,100).
att(107,21).
att(46,9).
att(29,98).
att(107,89).
att(90,64).
att(52,115).
att(82,43).
att(77,112).
att(109,76).
att(101,35).
att(10,19).
att(47,29).
att(48,113).
att(73,25).
att(49,13).
att(72,110).
att(75,36).
att(14,82).
att(54,10).
att(51,59).
att(41,54).
att(106,83).
att(67,28).
att(77,15).
att(83,34).
att(16,56).
att(42,114).
att(87,11).
att(85,19).
att(93,80).
att(38,97).
att(11,39).
att(25,109).
att(28,67).
att(11,87).
att(70,77).
att(19,43).
att(83,19).
att(18,11).
att(87,63).
att(11,16).
att(45,78).
att(67,41).
att(51,22).
att(83,8).
att(77,25).
att(58,39).
att(56,11).
att(69,103).
att(96,95).
att(117,105).
att(41,50).
att(77,27).
att(6,75).
att(74,29).
att(37,44).
att(88,92).
att(65,63).
att(96,115).
att(110,108).
att(73,4).
att(111,74).
att(29,104).
att(62,8).
att(20,88).
att(75,49).
att(22,69).
att(15,77).
att(21,29).
att(2,52).
att(83,118).
att(77,23).
att(60,4).
att(34,93).
att(118,50).
att(109,77).
att(114,29).
att(98,111).
att(9,49).
att(65,68).
att(114,42).
att(55,66).
att(93,50).
att(7,114).
att(48,68).
att(58,11).
att(95,24).
att(77,69).
att(80,10).
att(26,31).
att(92,35).
att(32,86).
att(104,89).
att(93,83).
att(20,94).
att(37,71).
att(19,80).
att(16,11).
att(64,90).
att(116,6).
att(89,104).
att(85,57).
att(107,117).
att(93,85).
att(54,62).
att(98,40).
att(57,85).
att(29,31).
att(69,77).
att(42,1).
att(113,11).
att(86,77).
att(3,15).
att(28,8).
att(39,11).
att(58,113).
att(97,53).
att(10,62).
att(59,69).
att(25,73).
att(6,116).
att(101,79).
att(118,100).
att(72,40).
att(29,114).
att(90,74).
att(79,112).
att(38,55).
att(85,10).
att(17,18).
att(98,29).
