arg(1..201).
att(69,151).
att(67,192).
att(195,64).
att(35,113).
att(51,199).
att(3,2).
att(4,2).
att(42,110).
att(5,2).
att(75,97).
att(13,1).
att(4,3).
att(191,110).
att(16,1).
att(17,1).
att(18,1).
att(9,2).
att(67,100).
att(20,1).
att(10,2).
att(6,3).
att(184,149).
att(136,165).
att(28,169).
att(22,1).
att(7,3).
att(24,1).
att(12,2).
att(25,1).
att(153,121).
att(1,6).
att(13,2).
att(5,4).
att(9,3).
att(2,6).
att(33,1).
att(181,67).
att(17,2).
att(33,114).
att(47,108).
att(143,76).
att(78,96).
att(35,1).
att(36,1).
att(92,142).
att(62,154).
att(1,7).
att(37,1).
att(147,194).
att(38,1).
att(100,139).
att(39,1).
att(111,135).
att(20,2).
att(41,1).
att(21,2).
att(117,172).
att(147,75).
att(44,1).
att(2,7).
att(14,3).
att(26,170).
att(23,2).
att(58,196).
att(47,1).
att(55,157).
att(24,2).
att(50,1).
att(25,2).
att(5,6).
att(57,104).
att(184,112).
att(8,5).
att(53,1).
att(17,3).
att(27,2).
att(56,1).
att(2,8).
att(19,3).
att(60,1).
att(84,185).
att(170,116).
att(63,1).
att(64,1).
att(32,2).
att(131,200).
att(65,193).
att(67,152).
att(24,171).
att(196,64).
att(68,1).
att(69,1).
att(35,2).
att(16,4).
att(71,1).
att(23,3).
att(72,1).
att(6,7).
att(24,3).
att(4,8).
att(18,121).
att(75,1).
att(99,179).
att(76,1).
att(77,1).
att(25,3).
att(45,109).
att(78,1).
att(160,119).
att(103,138).
att(46,161).
att(40,2).
att(1,10).
att(19,4).
att(14,5).
att(115,84).
att(27,3).
att(99,89).
att(84,1).
att(85,1).
att(117,133).
att(150,193).
att(11,6).
att(15,5).
att(29,3).
att(90,1).
att(45,2).
att(6,8).
att(92,1).
att(46,2).
att(93,1).
att(31,3).
att(47,201).
att(96,1).
att(17,5).
att(49,2).
att(129,80).
att(23,4).
att(7,8).
att(175,152).
att(120,171).
att(60,103).
att(201,144).
att(100,1).
att(50,2).
att(14,123).
att(56,197).
att(1,11).
att(33,3).
att(3,10).
att(120,132).
att(35,166).
att(55,105).
att(34,3).
att(14,6).
att(105,1).
att(106,1).
att(160,72).
att(112,85).
att(173,69).
att(110,1).
att(55,2).
att(112,1).
att(4,10).
att(20,5).
att(37,3).
att(114,1).
att(27,4).
att(27,117).
att(156,73).
att(172,153).
att(21,5).
att(118,1).
att(28,4).
att(148,75).
att(119,1).
att(120,1).
att(152,74).
att(18,174).
att(121,1).
att(13,7).
att(1,12).
att(61,2).
att(22,5).
att(10,8).
att(62,2).
att(174,115).
att(192,110).
att(41,3).
att(23,5).
att(14,7).
att(128,1).
att(133,79).
att(107,176).
att(2,129).
att(43,3).
att(33,167).
att(67,2).
att(44,3).
att(4,11).
att(188,148).
att(98,140).
att(134,1).
att(68,2).
att(136,1).
att(25,5).
att(33,4).
att(46,3).
att(20,6).
att(154,159).
att(166,155).
att(82,186).
att(34,4).
att(173,185).
att(16,7).
att(47,3).
att(5,11).
att(73,2).
att(21,6).
att(10,9).
att(14,176).
att(27,5).
att(51,159).
att(106,87).
att(17,7).
att(85,145).
att(149,1).
att(75,2).
att(123,170).
att(70,151).
att(54,198).
att(137,78).
att(53,106).
att(58,104).
att(51,3).
att(115,173).
att(11,9).
att(102,178).
att(12,177).
att(29,5).
att(52,3).
att(165,71).
att(39,4).
att(162,1).
att(10,178).
att(188,180).
att(7,11).
att(169,1).
att(1,14).
att(41,4).
att(25,6).
att(16,8).
att(8,179).
att(141,77).
att(87,2).
att(112,135).
att(151,122).
att(6,180).
att(175,1).
att(176,1).
att(171,116).
att(161,72).
att(174,69).
att(59,3).
att(75,189).
att(90,2).
att(74,98).
att(178,114).
att(91,2).
att(44,4).
att(2,14).
att(92,2).
att(4,13).
att(22,7).
att(137,165).
att(45,4).
att(186,1).
att(35,5).
att(62,3).
att(29,169).
att(189,1).
att(63,154).
att(63,3).
att(191,1).
att(36,5).
att(12,10).
att(192,1).
att(47,4).
att(29,6).
att(19,8).
att(98,2).
att(5,13).
att(24,7).
att(126,169).
att(148,123).
att(198,1).
att(100,2).
att(10,11).
att(182,150).
att(200,1).
att(189,111).
att(52,199).
att(67,3).
att(51,107).
att(102,2).
att(25,7).
att(77,97).
att(31,6).
att(39,5).
att(134,79).
att(17,9).
att(17,122).
att(2,15).
att(106,2).
att(40,5).
att(32,6).
att(26,7).
att(14,10).
att(52,4).
att(27,170).
att(71,3).
att(41,5).
att(72,3).
att(22,8).
att(18,9).
att(120,83).
att(27,7).
att(54,4).
att(15,10).
att(112,2).
att(113,2).
att(55,4).
att(23,8).
att(80,96).
att(3,15).
att(43,5).
att(179,151).
att(115,2).
att(56,4).
att(148,194).
att(28,117).
att(29,7).
att(117,2).
att(57,4).
att(158,120).
att(184,67).
att(107,87).
att(78,3).
att(20,9).
att(79,3).
att(47,161).
att(30,7).
att(4,15).
att(59,4).
att(37,6).
att(25,8).
att(17,10).
att(11,12).
att(129,168).
att(59,196).
att(11,125).
att(64,102).
att(81,3).
att(60,4).
att(123,2).
att(31,7).
att(38,6).
att(9,13).
att(61,4).
att(49,108).
att(72,99).
att(104,88).
att(189,66).
att(83,3).
att(48,5).
att(62,4).
att(32,7).
att(100,179).
att(54,158).
att(85,3).
att(49,5).
att(63,4).
att(27,8).
att(130,129).
att(59,104).
att(131,80).
att(23,172).
att(194,65).
att(146,162).
att(90,183).
att(158,73).
att(132,200).
att(16,11).
att(113,174).
att(155,121).
att(91,143).
att(8,14).
att(89,3).
att(121,171).
att(20,10).
att(136,2).
att(67,4).
att(186,112).
att(17,11).
att(92,3).
att(14,12).
att(139,2).
att(69,4).
att(54,5).
att(189,148).
att(110,136).
att(141,2).
att(66,153).
att(201,108).
att(170,154).
att(7,15).
att(135,79).
att(12,13).
att(71,4).
att(5,16).
att(45,6).
att(72,4).
att(86,145).
att(172,116).
att(19,174).
att(78,188).
att(38,7).
att(34,167).
att(58,5).
att(47,6).
att(8,15).
att(23,10).
att(16,12).
att(111,86).
att(151,2).
att(39,7).
att(161,157).
att(6,16).
att(33,8).
att(108,176).
att(40,112).
att(52,159).
att(154,2).
att(40,7).
att(139,78).
att(52,107).
att(155,2).
att(103,3).
att(190,111).
att(24,10).
att(156,2).
att(57,105).
att(49,6).
att(157,2).
att(20,121).
att(29,9).
att(78,4).
att(186,149).
att(159,2).
att(71,191).
att(94,142).
att(21,11).
att(149,123).
att(154,192).
att(143,196).
att(79,4).
att(35,8).
att(31,116).
att(108,87).
att(42,7).
att(195,178).
att(3,18).
att(108,3).
att(80,4).
att(51,6).
att(63,5).
att(143,77).
att(164,2).
att(109,3).
att(43,7).
att(52,6).
att(22,11).
att(166,2).
att(31,9).
att(159,73).
att(135,199).
att(168,2).
att(65,5).
att(192,179).
att(112,3).
att(147,76).
att(44,7).
att(37,8).
att(45,110).
att(132,80).
att(169,2).
att(16,13).
att(66,5).
att(38,113).
att(146,124).
att(171,2).
att(23,11).
att(183,113).
att(114,3).
att(194,110).
att(196,146).
att(45,7).
att(189,180).
att(169,117).
att(38,8).
att(65,102).
att(16,123).
att(11,15).
att(172,70).
att(174,2).
att(20,12).
att(102,89).
att(28,10).
att(176,2).
att(117,3).
att(33,9).
att(24,11).
att(176,115).
att(177,2).
att(7,180).
att(14,124).
att(179,2).
att(3,182).
att(180,2).
att(89,4).
att(34,9).
att(29,10).
att(60,104).
att(93,92).
att(182,2).
att(25,11).
att(90,4).
att(48,7).
att(183,2).
att(127,169).
att(97,141).
att(91,4).
att(10,16).
att(186,2).
att(59,6).
att(27,118).
att(124,3).
att(111,175).
att(10,126).
att(188,2).
att(73,5).
att(13,15).
att(125,131).
att(93,4).
att(180,151).
att(141,164).
att(189,2).
att(19,13).
att(43,111).
att(126,3).
att(62,195).
att(8,127).
att(191,66).
att(122,83).
att(68,101).
att(23,12).
att(128,3).
att(75,5).
att(51,7).
att(27,11).
att(108,137).
att(4,129).
att(194,2).
att(62,6).
att(196,2).
att(130,201).
att(97,4).
att(52,7).
att(17,14).
att(164,72).
att(197,2).
att(131,3).
att(160,190).
att(7,18).
att(38,9).
att(28,11).
att(79,97).
att(200,2).
att(133,3).
att(3,20).
att(78,5).
att(201,2).
att(64,6).
att(21,13).
att(100,4).
att(39,9).
att(63,103).
att(34,115).
att(109,87).
att(101,4).
att(80,5).
att(137,3).
att(55,7).
att(103,4).
att(47,8).
att(23,120).
att(133,80).
att(82,96).
att(173,70).
att(30,11).
att(56,7).
att(174,153).
att(140,3).
att(147,162).
att(41,9).
att(48,8).
att(83,5).
att(126,82).
att(142,3).
att(57,7).
att(190,148).
att(24,172).
att(31,11).
att(101,179).
att(85,95).
att(49,8).
att(14,16).
att(144,3).
att(58,7).
att(17,15).
att(171,154).
att(150,161).
att(60,196).
att(103,89).
att(74,190).
att(50,8).
att(37,10).
att(3,21).
att(91,183).
att(43,9).
att(114,135).
att(96,181).
att(137,79).
att(110,4).
att(148,3).
att(87,5).
att(116,85).
att(100,90).
att(60,7).
att(168,155).
att(22,173).
att(88,5).
att(38,10).
att(18,15).
att(150,3).
att(33,11).
att(94,92).
att(19,122).
att(39,113).
att(82,147).
att(89,5).
att(61,7).
att(153,3).
att(90,5).
att(39,10).
att(95,142).
att(159,158).
att(162,157).
att(2,22).
att(62,7).
att(22,14).
att(53,159).
att(115,4).
att(53,8).
att(147,124).
att(155,3).
att(17,123).
att(116,4).
att(11,18).
att(30,12).
att(92,5).
att(113,86).
att(158,3).
att(118,4).
att(169,187).
att(159,3).
att(199,109).
att(145,77).
att(77,6).
att(17,16).
att(15,124).
att(144,125).
att(69,101).
att(161,3).
att(120,4).
att(95,5).
att(174,70).
att(37,114).
att(197,146).
att(125,170).
att(149,76).
att(157,74).
att(13,125).
att(79,6).
att(172,186).
att(110,87).
att(21,15).
att(165,3).
att(49,201).
att(57,8).
att(18,16).
att(90,144).
att(141,126).
att(123,132).
att(65,154).
att(16,176).
att(184,150).
att(98,5).
att(8,20).
att(43,10).
att(120,84).
att(124,4).
att(11,126).
att(188,67).
att(167,3).
att(196,178).
att(68,7).
att(58,8).
att(25,14).
att(125,4).
att(168,3).
att(99,5).
att(29,13).
att(98,141).
att(127,82).
att(126,4).
att(14,177).
att(100,5).
att(175,185).
att(84,186).
att(59,8).
att(83,96).
att(107,88).
att(127,4).
att(7,128).
att(51,160).
att(51,9).
att(11,19).
att(171,3).
att(26,119).
att(170,71).
att(5,129).
att(1,131).
att(83,6).
att(58,157).
att(178,184).
att(173,3).
att(59,105).
att(14,18).
att(54,107).
att(138,79).
att(190,180).
att(174,116).
att(42,164).
att(71,7).
att(175,3).
att(86,95).
att(85,6).
att(89,184).
att(42,112).
att(181,183).
att(117,85).
att(177,3).
att(12,19).
att(27,14).
att(75,150).
att(8,180).
att(105,5).
att(166,72).
att(179,3).
att(4,182).
att(54,9).
att(98,91).
att(21,16).
att(135,4).
att(131,81).
att(74,7).
att(28,14).
att(56,198).
att(112,175).
att(67,102).
att(108,5).
att(6,22).
att(48,10).
att(64,8).
att(37,12).
att(164,119).
att(25,15).
att(77,189).
att(76,7).
att(187,3).
att(40,165).
att(196,110).
att(150,76).
att(185,113).
att(141,4).
att(112,5).
att(92,6).
att(78,98).
att(63,195).
att(67,8).
att(39,12).
att(191,148).
att(57,106).
att(27,171).
att(51,10).
att(144,4).
att(31,117).
att(111,87).
att(178,115).
att(45,11).
att(68,153).
att(15,19).
att(172,154).
att(52,10).
att(180,69).
att(81,97).
att(96,6).
att(46,11).
att(131,201).
att(117,5).
att(151,161).
att(199,3).
att(54,199).
att(97,6).
att(41,12).
att(13,20).
att(139,79).
att(32,14).
att(61,9).
att(73,151).
att(16,124).
att(145,125).
att(71,8).
att(16,19).
att(25,16).
att(167,72).
att(120,5).
att(99,6).
att(42,12).
att(19,18).
att(166,156).
att(87,185).
att(188,149).
att(134,167).
att(84,7).
att(33,14).
att(118,85).
att(61,156).
att(185,68).
att(163,157).
att(14,20).
att(122,5).
att(63,9).
att(142,126).
att(85,7).
att(101,6).
att(43,12).
att(163,73).
att(12,126).
att(124,132).
att(75,190).
att(23,17).
att(20,18).
att(157,4).
att(36,167).
att(61,196).
att(182,114).
att(198,146).
att(10,127).
att(190,67).
att(127,131).
att(167,188).
att(75,8).
att(27,16).
att(43,112).
att(21,174).
att(133,129).
att(6,129).
att(195,66).
att(31,15).
att(127,5).
att(200,65).
att(66,9).
att(45,12).
att(185,150).
att(68,102).
att(162,4).
att(106,6).
att(77,8).
att(28,16).
att(25,120).
att(136,80).
att(19,175).
att(36,14).
att(46,12).
att(164,4).
att(41,13).
att(34,168).
att(68,9).
att(22,18).
att(122,84).
att(80,188).
att(165,119).
att(109,6).
att(92,7).
att(14,21).
att(37,14).
att(29,16).
att(71,152).
att(59,157).
att(1,27).
att(133,5).
att(110,6).
att(140,165).
att(182,151).
att(173,186).
att(41,113).
att(80,8).
att(17,20).
att(53,108).
att(54,11).
att(111,6).
att(70,9).
att(170,4).
att(71,101).
att(38,14).
att(152,123).
att(113,136).
att(105,178).
att(171,4).
att(136,5).
att(71,9).
att(94,143).
att(32,169).
att(49,12).
att(173,4).
att(177,70).
att(32,117).
att(96,7).
att(174,4).
att(72,9).
att(44,13).
att(21,19).
att(156,192).
att(31,16).
att(106,89).
att(97,7).
att(115,6).
att(160,74).
att(201,65).
att(149,124).
att(90,184).
att(9,180).
att(57,11).
att(39,114).
att(74,100).
att(103,90).
att(178,4).
att(7,181).
att(9,24).
att(19,20).
att(142,5).
att(179,4).
att(190,112).
att(99,7).
att(91,94).
att(100,91).
att(176,153).
att(5,26).
att(86,8).
att(57,158).
att(181,4).
att(182,69).
att(105,139).
att(52,12).
att(137,199).
att(37,15).
att(120,6).
att(26,18).
att(102,7).
att(132,168).
att(57,198).
att(60,11).
att(38,15).
att(194,111).
att(113,87).
att(149,5).
att(78,9).
att(54,12).
att(18,21).
att(123,6).
att(141,79).
att(24,19).
att(21,20).
att(124,6).
att(148,195).
att(190,4).
att(35,16).
att(9,128).
att(62,11).
att(165,73).
att(131,130).
att(62,156).
att(26,172).
att(192,4).
att(126,6).
att(9,25).
att(49,110).
att(110,88).
att(1,132).
att(193,4).
att(107,7).
att(83,187).
att(71,10).
att(56,12).
att(50,13).
att(55,159).
att(32,17).
att(198,110).
att(3,28).
att(93,8).
att(161,74).
att(72,101).
att(128,6).
att(103,179).
att(109,7).
att(64,11).
att(57,12).
att(17,22).
att(42,113).
att(107,89).
att(41,15).
att(198,4).
att(111,137).
att(127,83).
att(46,14).
att(37,16).
att(23,20).
att(86,96).
att(131,6).
att(67,154).
att(200,4).
att(111,7).
att(15,23).
att(8,26).
att(96,8).
att(201,4).
att(42,15).
att(30,18).
att(132,6).
att(46,163).
att(173,117).
att(89,95).
att(112,7).
att(47,14).
att(138,166).
att(22,122).
att(53,13).
att(134,6).
att(67,11).
att(127,170).
att(135,6).
att(40,114).
att(60,157).
att(191,112).
att(39,16).
att(103,140).
att(136,6).
att(165,5).
att(193,67).
att(131,82).
att(1,30).
att(77,10).
att(61,12).
att(14,24).
att(44,15).
att(166,73).
att(32,18).
att(117,135).
att(18,176).
att(53,200).
att(171,187).
att(168,5).
att(62,12).
att(50,14).
att(70,102).
att(146,78).
att(45,15).
att(29,19).
att(147,125).
att(198,178).
att(10,26).
att(20,22).
att(26,20).
att(184,114).
att(16,177).
att(33,169).
att(111,88).
att(38,115).
att(16,125).
att(184,69).
att(51,14).
att(175,71).
att(2,30).
att(4,29).
att(80,10).
att(29,119).
att(121,85).
att(104,8).
att(90,145).
att(177,116).
att(193,148).
att(91,9).
att(18,23).
att(30,19).
att(14,178).
att(173,5).
att(72,11).
att(42,16).
att(27,20).
att(21,22).
att(177,185).
att(174,5).
att(92,9).
att(52,14).
att(24,21).
att(192,180).
att(11,26).
att(58,13).
att(141,127).
att(101,180).
att(123,7).
att(82,10).
att(73,11).
att(199,110).
att(146,6).
att(85,147).
att(177,5).
att(107,8).
att(87,96).
att(124,7).
att(10,128).
att(59,13).
att(19,23).
att(51,201).
att(174,154).
att(129,131).
att(94,9).
att(83,10).
att(28,20).
att(36,116).
att(67,194).
att(8,129).
att(125,7).
att(75,151).
att(179,5).
att(80,149).
att(150,162).
att(188,113).
att(2,132).
att(199,66).
att(60,13).
att(67,12).
att(93,94).
att(149,6).
att(75,11).
att(49,15).
att(181,5).
att(76,100).
att(127,7).
att(167,73).
att(10,27).
att(132,82).
att(150,6).
att(153,161).
att(29,171).
att(29,20).
att(125,84).
att(68,12).
att(55,14).
att(200,146).
att(181,115).
att(86,10).
att(184,5).
att(101,141).
att(147,78).
att(77,11).
att(41,17).
att(112,8).
att(13,26).
att(62,13).
att(18,24).
att(56,159).
att(186,5).
att(21,23).
att(113,8).
att(46,16).
att(51,15).
att(131,7).
att(70,12).
att(125,171).
att(71,102).
att(68,154).
att(117,174).
att(5,30).
att(89,10).
att(71,12).
att(52,15).
att(31,20).
att(151,124).
att(157,6).
att(14,26).
att(163,190).
att(65,195).
att(84,187).
att(134,7).
att(38,167).
att(25,22).
att(35,19).
att(90,10).
att(12,27).
att(135,7).
att(200,66).
att(160,6).
att(85,97).
att(96,143).
att(59,14).
att(136,7).
att(184,151).
att(118,135).
att(118,8).
att(8,29).
att(61,157).
att(15,26).
att(178,116).
att(23,174).
att(104,9).
att(92,10).
att(30,119).
att(168,73).
att(196,5).
att(161,121).
att(54,160).
att(144,79).
att(103,91).
att(121,134).
att(18,25).
att(198,5).
att(83,11).
att(139,7).
att(45,17).
att(126,84).
att(56,108).
att(100,92).
att(199,5).
att(121,8).
att(50,16).
att(112,176).
att(140,7).
att(84,11).
att(27,22).
att(24,23).
att(142,127).
att(16,26).
att(141,7).
att(116,87).
att(120,173).
att(56,15).
att(167,6).
att(62,14).
att(142,7).
att(5,31).
att(85,11).
att(139,128).
att(51,16).
att(191,68).
att(63,196).
att(108,9).
att(42,18).
att(178,153).
att(22,24).
att(145,164).
att(124,8).
att(169,6).
att(57,15).
att(7,130).
att(196,67).
att(170,6).
att(1,133).
att(97,10).
att(17,26).
att(35,20).
att(125,8).
att(3,132).
att(123,85).
att(110,138).
att(182,115).
att(145,7).
att(82,188).
att(39,19).
att(71,153).
att(35,117).
att(8,30).
att(155,193).
att(20,25).
att(32,21).
att(146,7).
att(172,6).
att(148,163).
att(71,13).
att(15,27).
att(81,149).
att(88,11).
att(76,151).
att(173,6).
att(42,114).
att(99,10).
att(83,98).
att(110,89).
att(24,122).
att(32,170).
att(13,28).
att(40,19).
att(72,13).
att(80,12).
att(102,180).
att(151,162).
att(172,155).
att(175,6).
att(87,186).
att(113,9).
att(49,17).
att(33,21).
att(94,144).
att(165,120).
att(123,172).
att(11,180).
att(201,146).
att(11,29).
att(115,175).
att(184,183).
att(90,11).
att(66,14).
att(150,7).
att(9,30).
att(101,10).
att(81,12).
att(33,118).
att(27,23).
att(75,191).
att(64,156).
att(197,111).
att(5,183).
att(1,185).
att(55,16).
att(50,17).
att(47,112).
att(157,160).
att(127,84).
att(186,114).
att(19,26).
att(163,158).
att(152,7).
att(192,68).
att(52,201).
att(153,7).
att(92,11).
att(42,19).
att(197,67).
att(56,16).
att(179,116).
att(89,146).
att(51,17).
att(68,14).
att(62,106).
att(117,9).
att(17,27).
att(10,30).
att(182,6).
att(162,121).
att(105,140).
att(134,8).
att(201,110).
att(47,18).
att(78,100).
att(18,125).
att(105,10).
att(69,14).
att(15,28).
att(43,19).
att(2,34).
att(184,6).
att(161,191).
att(23,25).
att(157,7).
att(131,83).
att(77,13).
att(190,113).
att(18,27).
att(53,17).
att(44,19).
att(26,173).
att(14,127).
att(78,13).
att(33,22).
att(140,166).
att(169,119).
att(108,10).
att(65,105).
att(87,12).
att(27,24).
att(140,128).
att(189,6).
att(73,192).
att(50,111).
att(146,79).
att(166,74).
att(5,33).
att(97,11).
att(161,7).
att(54,17).
att(128,132).
att(79,13).
att(190,6).
att(73,102).
att(27,121).
att(92,145).
att(162,75).
att(150,78).
att(8,130).
att(60,16).
att(129,170).
att(141,8).
att(110,10).
att(100,142).
att(198,67).
att(2,133).
att(89,12).
att(73,14).
att(164,7).
att(67,155).
att(99,11).
att(10,31).
att(156,123).
att(111,138).
att(167,189).
att(165,7).
att(90,96).
att(179,153).
att(184,70).
att(90,12).
att(51,18).
att(126,9).
att(87,147).
att(76,101).
att(118,87).
att(166,7).
att(93,95).
att(144,8).
att(139,81).
att(196,6).
att(82,13).
att(23,26).
att(146,164).
att(127,9).
att(78,190).
att(29,24).
att(145,8).
att(197,6).
att(35,169).
att(60,158).
att(53,161).
att(75,14).
att(187,114).
att(168,7).
att(23,123).
att(176,154).
att(52,18).
att(198,6).
att(77,151).
att(171,73).
att(125,85).
att(132,83).
att(21,27).
att(149,163).
att(129,9).
att(9,32).
att(63,16).
att(143,80).
att(48,19).
att(103,11).
att(24,26).
att(108,178).
att(44,165).
att(5,34).
att(30,24).
att(21,124).
att(201,6).
att(70,15).
att(152,162).
att(16,178).
att(77,14).
att(37,22).
att(150,125).
att(117,136).
att(172,7).
att(85,13).
att(170,156).
att(112,89).
att(41,21).
att(59,17).
att(163,75).
att(54,18).
att(132,9).
att(105,11).
att(71,15).
att(122,86).
att(136,82).
att(174,7).
att(10,32).
att(65,16).
att(31,24).
att(25,26).
att(145,197).
att(158,160).
att(103,180).
att(116,175).
att(118,10).
att(28,25).
att(90,146).
att(106,140).
att(51,162).
att(12,180).
att(106,11).
att(50,19).
att(17,126).
att(152,8).
att(185,70).
att(2,36).
att(119,10).
att(42,21).
att(31,171).
att(66,16).
att(153,8).
att(35,23).
att(177,7).
att(144,127).
att(123,134).
att(199,147).
att(135,9).
att(184,115).
att(154,8).
att(2,185).
att(88,13).
att(80,14).
att(56,109).
att(61,17).
att(18,29).
att(56,18).
att(121,10).
att(47,20).
att(91,96).
att(195,112).
att(155,8).
att(190,69).
att(138,167).
att(89,13).
att(109,139).
att(21,28).
att(138,129).
att(129,132).
att(74,15).
att(7,34).
att(52,19).
att(127,171).
att(111,177).
att(99,12).
att(57,18).
att(69,104).
att(138,9).
att(40,22).
att(53,201).
att(90,13).
att(63,157).
att(116,88).
att(5,132).
att(63,17).
att(183,7).
att(124,10).
att(81,189).
att(12,32).
att(69,16).
att(101,142).
att(148,79).
att(141,166).
att(162,191).
att(22,28).
att(112,138).
att(188,114).
att(17,30).
att(49,20).
att(25,27).
att(160,76).
att(31,25).
att(64,17).
att(42,115).
att(59,108).
att(137,82).
att(24,123).
att(161,8).
att(113,11).
att(123,86).
att(77,15).
att(88,147).
att(162,8).
att(25,174).
att(83,99).
att(180,153).
att(93,13).
att(50,20).
att(114,11).
att(13,32).
att(35,24).
att(188,7).
att(115,137).
att(60,18).
att(32,25).
att(26,27).
att(151,195).
att(73,153).
att(189,7).
att(115,11).
att(91,185).
att(83,149).
att(67,195).
att(86,98).
att(164,121).
att(141,81).
att(173,73).
att(96,183).
att(151,125).
att(23,175).
att(78,151).
att(190,7).
att(145,9).
att(96,144).
att(51,20).
att(129,10).
att(107,91).
att(21,29).
att(43,22).
att(75,102).
att(89,97).
att(105,12).
att(61,18).
att(56,19).
att(36,169).
att(201,67).
att(192,7).
att(73,16).
att(145,80).
att(21,176).
att(62,107).
att(101,93).
att(80,15).
att(131,10).
att(171,119).
att(12,33).
att(48,21).
att(44,22).
att(185,115).
att(143,198).
att(97,13).
att(165,75).
att(201,178).
att(22,29).
att(171,156).
att(10,34).
att(149,9).
att(66,156).
att(178,117).
att(187,70).
att(70,104).
att(133,10).
att(161,76).
att(196,7).
att(168,157).
att(124,134).
att(41,23).
att(29,121).
att(6,36).
att(108,12).
att(4,37).
att(58,19).
att(75,16).
att(17,178).
att(174,187).
att(82,15).
att(20,30).
att(134,10).
att(72,193).
att(136,168).
att(38,24).
att(81,100).
att(200,147).
att(59,159).
att(23,29).
att(15,179).
att(136,130).
att(117,175).
att(177,186).
att(76,16).
att(50,112).
att(65,106).
att(173,8).
att(59,19).
att(10,130).
att(91,14).
att(27,122).
att(46,22).
att(136,10).
att(153,9).
att(32,171).
att(180,185).
att(73,103).
att(201,7).
att(111,90).
att(142,81).
att(4,133).
att(2,134).
att(84,15).
att(55,20).
att(43,115).
att(176,8).
att(51,21).
att(47,22).
att(87,98).
att(108,91).
att(124,11).
att(182,116).
att(146,80).
att(30,27).
att(50,163).
att(61,19).
att(197,148).
att(90,97).
att(128,85).
att(76,102).
att(103,13).
att(79,16).
att(93,96).
att(23,124).
att(37,25).
att(63,197).
att(57,20).
att(118,88).
att(141,10).
att(2,39).
att(104,13).
att(152,125).
att(116,137).
att(70,194).
att(89,147).
att(127,11).
att(69,155).
att(181,8).
att(142,10).
att(53,21).
att(105,13).
att(13,34).
att(49,22).
att(32,120).
att(128,11).
att(116,12).
att(88,15).
att(58,20).
att(38,25).
att(82,189).
att(84,149).
att(149,126).
att(81,16).
att(39,168).
att(107,179).
att(129,11).
att(132,84).
att(35,26).
att(194,149).
att(9,36).
att(97,14).
att(54,21).
att(184,8).
att(82,100).
att(7,37).
att(143,81).
att(16,33).
att(130,11).
att(21,31).
att(1,40).
att(145,10).
att(107,13).
att(163,9).
att(17,127).
att(118,12).
att(30,121).
att(55,161).
att(87,187).
att(112,90).
att(141,199).
att(102,181).
att(14,34).
att(90,15).
att(70,18).
att(146,10).
att(85,99).
att(43,24).
att(15,128).
att(187,8).
att(74,103).
att(65,19).
att(60,20).
att(51,22).
att(147,10).
att(47,23).
att(109,91).
att(61,108).
att(188,8).
att(91,15).
att(13,129).
att(71,18).
att(191,150).
att(22,31).
att(40,25).
att(148,10).
att(169,120).
att(22,176).
att(154,162).
att(155,78).
att(194,69).
att(167,9).
att(110,13).
att(92,15).
att(61,20).
att(103,93).
att(28,29).
att(166,158).
att(168,9).
att(183,116).
att(101,14).
att(119,88).
att(94,96).
att(7,132).
att(163,159).
att(100,94).
att(20,177).
att(3,134).
att(35,170).
att(80,190).
att(62,20).
att(156,124).
att(82,150).
att(137,168).
att(18,33).
att(53,22).
att(188,151).
att(136,11).
att(77,152).
att(35,119).
att(144,198).
att(94,15).
att(9,37).
att(194,8).
att(35,27).
att(171,9).
att(59,199).
att(116,89).
att(44,166).
att(137,11).
att(103,142).
att(58,21).
att(32,28).
att(124,12).
att(24,124).
att(95,145).
att(136,201).
att(175,187).
att(3,40).
att(74,18).
att(172,9).
att(196,180).
att(33,171).
att(138,11).
att(190,70).
att(73,193).
att(125,12).
att(104,14).
att(50,23).
att(39,26).
att(69,19).
att(198,112).
att(88,16).
att(33,120).
att(113,90).
att(140,167).
att(168,75).
att(197,8).
att(139,11).
att(12,36).
att(155,10).
att(190,182).
att(12,181).
att(105,14).
att(115,13).
att(100,182).
att(187,183).
att(90,186).
att(164,76).
att(140,11).
att(90,147).
att(150,126).
att(10,182).
att(89,16).
att(22,32).
att(47,24).
att(95,184).
att(199,8).
att(156,78).
att(86,99).
att(20,126).
att(129,171).
att(163,122).
att(106,141).
att(130,85).
att(8,183).
att(106,14).
att(2,41).
att(65,20).
att(157,10).
att(147,197).
att(70,155).
att(143,166).
att(113,177).
att(98,144).
att(201,8).
att(44,25).
att(18,127).
att(186,71).
att(85,149).
att(71,19).
att(78,191).
att(141,82).
att(52,23).
att(48,24).
att(120,88).
att(104,93).
att(61,21).
att(66,20).
att(41,26).
att(144,128).
att(16,128).
att(11,37).
att(98,95).
att(109,140).
att(40,168).
att(26,31).
att(45,25).
att(191,70).
att(1,42).
att(67,20).
att(62,21).
att(32,29).
att(85,17).
att(117,89).
att(108,179).
att(56,161).
att(93,146).
att(176,155).
att(120,13).
att(132,12).
att(196,69).
att(101,143).
att(81,101).
att(93,16).
att(24,32).
att(27,123).
att(65,107).
att(19,34).
att(46,25).
att(8,132).
att(54,23).
att(157,124).
att(50,24).
att(6,133).
att(133,12).
att(153,79).
att(36,28).
att(184,9).
att(88,187).
att(43,26).
att(148,11).
att(87,17).
att(6,40).
att(25,124).
att(178,73).
att(131,85).
att(187,71).
att(2,42).
att(167,190).
att(158,161).
att(103,15).
att(142,199).
att(95,16).
att(135,12).
att(76,192).
att(123,13).
att(83,150).
att(188,115).
att(88,17).
att(62,198).
att(28,31).
att(37,28).
att(78,152).
att(60,22).
att(104,142).
att(13,37).
att(104,15).
att(31,30).
att(108,92).
att(136,12).
att(23,125).
att(36,170).
att(69,195).
att(121,88).
att(90,98).
att(192,70).
att(21,177).
att(23,33).
att(114,14).
att(18,35).
att(168,10).
att(41,117).
att(105,93).
att(52,24).
att(105,15).
att(164,122).
att(102,94).
att(146,81).
att(53,112).
att(127,172).
att(183,72).
att(3,42).
att(16,36).
att(83,18).
att(38,28).
att(58,110).
att(77,19).
att(173,188).
att(200,179).
att(126,13).
att(81,190).
att(35,29).
att(106,15).
att(170,10).
att(57,23).
att(153,11).
att(191,9).
att(192,114).
att(49,25).
att(121,136).
att(19,127).
att(72,20).
att(71,105).
att(24,33).
att(145,198).
att(141,167).
att(176,187).
att(91,17).
att(140,12).
att(145,128).
att(59,160).
att(139,83).
att(179,73).
att(58,23).
att(46,26).
att(185,116).
att(173,10).
att(191,182).
att(182,185).
att(13,181).
att(6,41).
att(32,172).
att(2,43).
att(118,14).
att(66,107).
att(101,182).
att(51,113).
att(144,166).
att(174,10).
att(81,151).
att(110,140).
att(130,133).
att(91,186).
att(25,33).
att(193,70).
att(86,18).
att(9,183).
att(47,26).
att(28,123).
att(175,10).
att(37,119).
att(55,24).
att(143,12).
att(7,184).
att(51,25).
att(158,11).
att(5,185).
att(158,124).
att(34,30).
att(88,99).
att(184,72).
att(11,39).
att(147,165).
att(94,17).
att(18,36).
att(44,27).
att(144,12).
att(198,9).
att(159,11).
att(102,143).
att(102,16).
att(75,20).
att(60,23).
att(200,112).
att(177,10).
att(3,135).
att(177,155).
att(132,13).
att(56,24).
att(160,11).
att(58,200).
att(52,25).
att(94,97).
att(95,17).
att(151,80).
att(167,76).
att(112,15).
att(76,20).
att(174,156).
att(175,119).
att(45,27).
att(109,179).
att(69,156).
att(182,117).
att(153,163).
att(64,108).
att(159,78).
att(116,138).
att(96,17).
att(57,24).
att(54,112).
att(134,13).
att(147,12).
att(171,157).
att(80,102).
att(48,165).
att(125,173).
att(148,12).
att(135,13).
att(72,105).
att(116,90).
att(22,126).
att(165,159).
att(33,121).
att(162,160).
att(193,114).
att(22,35).
att(104,181).
att(46,27).
att(133,85).
att(2,44).
att(4,43).
att(67,22).
att(136,13).
att(47,115).
att(144,82).
att(20,127).
att(40,118).
att(113,91).
att(91,18).
att(172,120).
att(47,27).
att(126,14).
att(107,16).
att(123,88).
att(18,128).
att(151,12).
att(187,152).
att(18,37).
att(55,25).
att(62,109).
att(67,157).
att(64,23).
att(63,198).
att(154,195).
att(190,71).
att(108,16).
att(100,144).
att(86,19).
att(128,134).
att(70,195).
att(80,20).
att(164,77).
att(41,29).
att(93,18).
att(60,24).
att(156,79).
att(153,12).
att(131,133).
att(160,78).
att(128,14).
att(29,33).
att(87,149).
att(184,153).
att(38,30).
att(78,103).
att(101,95).
att(53,163).
att(111,140).
att(72,155).
att(159,124).
att(18,179).
att(129,14).
att(19,37).
att(94,18).
att(198,180).
att(141,13).
att(77,153).
att(10,132).
att(27,124).
att(155,12).
att(177,74).
att(171,11).
att(42,29).
att(127,87).
att(8,42).
att(17,38).
att(53,26).
att(181,154).
att(6,43).
att(22,36).
att(71,22).
att(156,12).
att(191,10).
att(111,16).
att(145,82).
att(87,188).
att(15,39).
att(75,193).
att(89,19).
att(96,18).
att(97,184).
att(83,20).
att(115,177).
att(67,23).
att(166,122).
att(144,13).
att(194,114).
att(68,196).
att(28,34).
att(34,121).
att(90,148).
att(6,185).
att(18,38).
att(4,186).
att(2,187).
att(175,156).
att(113,16).
att(78,21).
att(23,36).
att(34,32).
att(111,92).
att(159,12).
att(131,86).
att(105,17).
att(73,22).
att(68,23).
att(59,25).
att(196,70).
att(120,137).
att(134,14).
att(114,16).
att(98,18).
att(75,154).
att(32,122).
att(64,24).
att(29,34).
att(93,98).
att(105,94).
att(80,152).
att(161,12).
att(163,123).
att(147,13).
att(135,14).
att(74,22).
att(102,95).
att(160,161).
att(40,169).
att(178,11).
att(49,165).
att(115,16).
att(99,96).
att(147,128).
att(24,36).
att(52,27).
att(63,159).
att(56,26).
att(137,169).
att(80,21).
att(46,116).
att(39,119).
att(135,85).
att(126,135).
att(56,162).
att(141,200).
att(8,43).
att(116,16).
att(65,24).
att(174,75).
att(149,13).
att(126,15).
att(93,19).
att(93,147).
att(141,130).
att(108,17).
att(15,130).
att(82,102).
att(181,11).
att(101,144).
att(87,20).
att(36,32).
att(135,132).
att(170,121).
att(152,196).
att(150,81).
att(51,114).
att(127,15).
att(25,36).
att(46,29).
att(115,91).
att(94,19).
att(125,88).
att(154,80).
att(166,77).
att(88,149).
att(88,20).
att(82,21).
att(62,25).
att(28,35).
att(166,12).
att(44,117).
att(185,153).
att(198,149).
att(18,39).
att(58,26).
att(152,13).
att(40,31).
att(112,92).
att(5,135).
att(37,32).
att(34,33).
att(140,14).
att(5,45).
att(129,15).
att(78,153).
att(47,29).
att(153,13).
att(83,21).
att(121,175).
att(144,199).
att(103,18).
att(21,38).
att(51,28).
att(141,14).
att(91,99).
att(154,13).
att(78,22).
att(94,98).
att(90,20).
att(42,118).
att(175,188).
att(121,16).
att(155,13).
att(24,37).
att(48,29).
att(118,138).
att(195,150).
att(188,116).
att(54,113).
att(64,25).
att(66,158).
att(17,180).
att(79,22).
att(80,103).
att(143,14).
att(151,127).
att(196,181).
att(181,118).
att(17,40).
att(27,36).
att(132,15).
att(4,46).
att(149,165).
att(15,181).
att(98,19).
att(193,182).
att(121,137).
att(30,35).
att(144,14).
att(176,156).
att(172,12).
att(190,183).
att(184,185).
att(49,29).
att(71,156).
att(47,116).
att(20,128).
att(43,168).
att(99,145).
att(36,33).
att(147,198).
att(40,119).
att(83,102).
att(70,24).
att(145,14).
att(11,183).
att(76,193).
att(173,157).
att(57,27).
att(31,123).
att(145,129).
att(192,115).
att(81,152).
att(189,72).
att(11,43).
att(115,17).
att(155,163).
att(174,12).
att(170,158).
att(9,44).
att(86,101).
att(113,92).
att(1,188).
att(75,105).
att(158,162).
att(142,130).
att(100,19).
att(167,159).
att(16,130).
att(30,174).
att(144,83).
att(164,160).
att(161,193).
att(175,12).
att(139,131).
att(37,33).
att(50,165).
att(58,27).
att(185,117).
att(178,119).
att(14,131).
att(194,71).
att(45,117).
att(111,179).
att(67,25).
att(14,42).
att(88,21).
att(107,94).
att(148,82).
att(196,114).
att(72,24).
att(28,175).
att(51,29).
att(70,107).
att(199,70).
att(119,176).
att(59,27).
att(38,33).
att(110,18).
att(106,181).
att(199,149).
att(150,14).
att(65,109).
att(186,153).
att(26,176).
att(179,12).
att(86,189).
att(81,103).
att(96,20).
att(155,126).
att(64,26).
att(52,29).
att(45,31).
att(25,126).
att(181,74).
att(90,21).
att(30,36).
att(167,191).
att(97,146).
att(129,16).
att(175,120).
att(62,160).
att(91,187).
att(69,25).
att(120,17).
att(36,34).
att(96,185).
att(104,19).
att(20,40).
att(97,20).
att(49,30).
att(144,167).
att(183,154).
att(11,44).
att(91,21).
att(195,71).
att(114,92).
att(170,190).
att(18,41).
att(57,28).
att(70,25).
att(23,39).
att(1,49).
att(149,128).
att(183,12).
att(200,70).
att(92,148).
att(40,33).
att(37,34).
att(138,85).
att(63,110).
att(184,12).
att(26,38).
att(133,171).
att(125,136).
att(132,16).
att(131,87).
att(14,43).
att(62,27).
att(162,124).
att(143,15).
att(93,99).
att(153,81).
att(76,24).
att(53,164).
att(185,12).
att(65,198).
att(93,21).
att(29,37).
att(105,95).
att(12,44).
att(186,117).
att(72,156).
att(46,117).
att(121,90).
att(157,80).
att(19,41).
att(107,19).
att(99,97).
att(84,190).
att(193,151).
att(24,39).
att(170,13).
att(186,12).
att(71,107).
att(41,33).
att(153,164).
att(8,46).
att(55,29).
att(72,25).
att(4,48).
att(94,21).
att(59,28).
att(157,14).
att(104,182).
att(145,15).
att(156,163).
att(48,31).
att(159,125).
att(191,183).
att(188,184).
att(101,20).
att(128,88).
att(89,188).
att(196,71).
att(51,115).
att(125,17).
att(135,86).
att(66,109).
att(159,162).
att(188,12).
att(162,161).
att(11,133).
att(56,113).
att(64,27).
att(190,152).
att(9,134).
att(148,198).
att(25,39).
att(159,14).
att(156,126).
att(6,186).
att(63,199).
att(26,126).
att(69,26).
att(176,120).
att(174,13).
att(96,21).
att(125,89).
att(90,149).
att(183,118).
att(117,139).
att(23,40).
att(79,24).
att(74,25).
att(46,32).
att(70,157).
att(191,12).
att(139,85).
att(140,201).
att(200,149).
att(31,37).
att(132,87).
att(16,43).
att(69,108).
att(161,14).
att(43,33).
att(166,123).
att(153,127).
att(77,105).
att(119,18).
att(192,12).
att(97,21).
att(85,23).
att(149,15).
att(158,80).
att(42,119).
att(176,13).
att(14,44).
att(194,115).
att(120,138).
att(40,170).
att(193,12).
att(94,99).
att(112,19).
att(47,32).
att(97,98).
att(27,176).
att(194,12).
att(184,154).
att(105,20).
att(80,104).
att(6,48).
att(81,24).
att(131,172).
att(130,17).
att(140,16).
att(51,31).
att(76,25).
att(188,73).
att(17,43).
att(145,167).
att(102,183).
att(40,120).
att(27,39).
att(147,83).
att(179,13).
att(198,114).
att(38,171).
att(55,30).
att(152,15).
att(196,12).
att(68,197).
att(181,155).
att(97,185).
att(48,32).
att(141,16).
att(175,76).
att(83,103).
att(131,17).
att(122,18).
att(18,130).
att(68,158).
att(129,135).
att(114,19).
att(148,166).
att(154,196).
att(42,34).
att(132,17).
att(171,190).
att(123,18).
att(86,102).
att(57,113).
att(170,122).
att(9,47).
att(29,125).
att(151,165).
att(133,87).
att(113,93).
att(21,179).
att(83,24).
att(73,26).
att(191,116).
att(49,32).
att(45,118).
att(143,16).
att(175,157).
att(124,18).
att(89,101).
att(155,15).
att(59,201).
att(46,33).
att(183,13).
att(177,120).
att(115,140).
att(19,180).
att(172,158).
att(123,90).
att(43,34).
att(78,105).
att(27,126).
att(8,135).
att(180,75).
att(198,181).
att(14,45).
att(109,20).
att(37,36).
att(201,12).
att(146,199).
att(4,137).
att(2,138).
att(169,159).
att(189,73).
att(95,99).
att(17,181).
att(96,22).
att(90,23).
att(195,182).
att(170,14).
att(29,39).
att(185,13).
att(43,119).
att(118,139).
att(126,18).
att(25,127).
att(47,33).
att(52,165).
att(120,91).
att(118,19).
att(32,38).
att(66,28).
att(90,188).
att(4,50).
att(80,25).
att(158,15).
att(201,149).
att(17,44).
att(97,22).
att(43,169).
att(73,107).
att(160,194).
att(71,157).
att(34,123).
att(152,82).
att(172,77).
att(111,20).
att(151,128).
att(187,13).
att(22,42).
att(99,146).
att(119,19).
att(71,27).
att(9,185).
att(48,117).
att(76,155).
att(199,114).
att(164,124).
att(7,186).
att(55,31).
att(98,22).
att(129,173).
att(5,187).
att(164,79).
att(3,188).
att(124,137).
att(113,179).
att(20,43).
att(112,20).
att(30,175).
att(105,21).
att(189,13).
att(32,124).
att(76,106).
att(53,115).
att(72,27).
att(185,154).
att(121,176).
att(127,136).
att(161,15).
att(63,111).
att(93,23).
att(82,25).
att(28,40).
att(190,13).
att(139,17).
att(130,135).
att(57,163).
att(23,42).
att(68,28).
att(56,31).
att(90,101).
att(141,201).
att(161,125).
att(16,45).
att(162,15).
att(192,116).
att(31,39).
att(39,121).
att(177,76).
att(100,22).
att(182,155).
att(73,27).
att(94,23).
att(34,38).
att(131,88).
att(105,96).
att(69,158).
att(107,21).
att(43,35).
att(40,36).
att(102,97).
att(99,98).
att(69,28).
att(89,150).
att(88,189).
att(173,77).
att(48,167).
att(193,13).
att(153,82).
att(123,19).
att(74,156).
att(95,23).
att(24,42).
att(74,27).
att(66,110).
att(93,187).
att(169,78).
att(62,200).
att(6,50).
att(79,26).
att(116,140).
att(32,39).
att(47,34).
att(196,115).
att(153,16).
att(176,157).
att(116,20).
att(118,92).
att(179,14).
att(135,171).
att(74,107).
att(144,200).
att(38,37).
att(37,172).
att(195,13).
att(58,31).
att(191,73).
att(173,158).
att(51,33).
att(196,13).
att(13,47).
att(125,19).
att(30,40).
att(192,152).
att(115,93).
att(170,159).
att(20,44).
att(103,22).
att(200,114).
att(144,17).
att(49,117).
att(11,48).
att(25,42).
att(24,128).
att(155,16).
att(69,109).
att(20,180).
att(45,35).
att(77,106).
att(7,50).
att(18,45).
att(86,25).
att(76,27).
att(127,174).
att(199,181).
att(5,51).
att(81,26).
att(156,16).
att(91,101).
att(54,115).
att(178,188).
att(22,129).
att(187,74).
att(100,146).
att(60,162).
att(109,95).
att(174,77).
att(33,124).
att(98,23).
att(201,71).
att(106,182).
att(106,96).
att(146,130).
att(193,183).
att(87,25).
att(184,186).
att(82,26).
att(34,39).
att(187,185).
att(162,125).
att(158,81).
att(40,121).
att(166,79).
att(14,183).
att(12,48).
att(93,24).
att(43,36).
att(101,184).
att(140,132).
att(18,131).
att(10,49).
att(185,14).
att(19,45).
att(88,25).
att(186,118).
att(129,89).
att(161,194).
att(83,104).
att(78,27).
att(50,34).
att(2,53).
att(83,26).
att(136,87).
att(67,110).
att(8,186).
att(61,31).
att(94,24).
att(32,40).
att(144,168).
att(42,170).
att(6,187).
att(159,126).
att(79,193).
att(57,114).
att(62,112).
att(147,84).
att(29,126).
att(14,133).
att(197,72).
att(35,39).
att(75,107).
att(149,17).
att(27,42).
att(139,18).
att(150,198).
att(15,47).
att(130,19).
att(89,25).
att(169,123).
att(122,20).
att(70,29).
att(58,32).
att(147,167).
att(20,45).
att(196,151).
att(11,49).
att(131,19).
att(108,22).
att(109,181).
att(180,156).
att(6,137).
att(90,25).
att(48,35).
att(201,114).
att(78,106).
att(49,167).
att(155,82).
att(50,117).
att(55,33).
att(98,147).
att(18,46).
att(110,95).
att(36,39).
att(132,19).
att(71,29).
att(183,119).
att(116,21).
att(28,42).
att(190,14).
att(109,22).
att(43,120).
att(107,96).
att(163,80).
att(67,30).
att(124,20).
att(55,115).
att(152,17).
att(101,98).
att(91,25).
att(174,158).
att(81,105).
att(136,171).
att(99,185).
att(86,26).
att(21,45).
att(117,21).
att(81,27).
att(177,15).
att(110,22).
att(130,89).
att(34,40).
att(73,108).
att(170,191).
att(72,29).
att(93,149).
att(137,87).
att(120,92).
att(194,116).
att(37,39).
att(68,159).
att(63,200).
att(43,37).
att(10,50).
att(68,30).
att(134,19).
att(126,137).
att(147,130).
att(77,28).
att(84,104).
att(21,130).
att(111,22).
att(2,54).
att(144,18).
att(173,190).
att(129,136).
att(166,16).
att(68,110).
att(17,47).
att(117,93).
att(187,118).
att(32,41).
att(73,29).
att(57,33).
att(180,120).
att(155,17).
att(127,90).
att(135,134).
att(138,133).
att(76,107).
att(87,103).
att(15,48).
att(35,40).
att(145,18).
att(200,181).
att(83,153).
att(78,28).
att(44,37).
att(38,39).
att(41,38).
att(83,27).
att(19,181).
att(54,34).
att(45,169).
att(90,102).
att(179,188).
att(120,21).
att(196,14).
att(94,25).
att(107,182).
att(187,154).
att(15,133).
att(34,174).
att(17,182).
att(51,35).
att(182,187).
att(61,201).
att(87,190).
att(191,184).
att(89,26).
att(79,28).
att(75,195).
att(1,55).
att(15,183).
att(121,21).
att(105,97).
att(148,199).
att(129,20).
att(181,76).
att(131,173).
att(102,98).
att(28,43).
att(92,188).
att(114,22).
att(138,19).
att(177,121).
att(16,48).
att(170,16).
att(59,163).
att(138,87).
att(43,170).
att(7,137).
att(44,120).
att(56,115).
att(121,92).
att(1,140).
att(115,179).
att(3,139).
att(14,49).
att(31,42).
att(197,151).
att(21,46).
att(63,32).
att(167,124).
att(67,31).
att(139,19).
att(162,194).
att(26,44).
att(74,108).
att(96,25).
att(34,41).
att(86,152).
att(1,190).
att(200,14).
att(121,139).
att(76,156).
att(76,29).
att(81,154).
att(123,21).
att(8,52).
att(40,39).
att(134,172).
att(140,19).
att(151,129).
att(128,90).
att(24,129).
att(186,75).
att(6,53).
att(24,45).
att(72,30).
att(50,167).
att(186,15).
att(151,198).
att(169,79).
att(124,138).
att(161,17).
att(68,31).
att(135,88).
att(173,16).
att(174,122).
att(165,193).
att(148,130).
att(32,42).
att(57,164).
att(50,36).
att(110,23).
att(33,125).
att(162,17).
att(174,16).
att(82,28).
att(146,85).
att(59,114).
att(199,115).
att(125,91).
att(172,159).
att(104,24).
att(133,20).
att(102,146).
att(61,33).
att(191,74).
att(152,18).
att(69,159).
att(160,163).
att(65,32).
att(175,16).
att(139,133).
att(54,35).
att(136,134).
att(26,178).
att(90,189).
att(111,23).
att(78,29).
att(113,142).
att(97,100).
att(106,97).
att(48,168).
att(139,87).
att(132,89).
att(150,84).
att(100,99).
att(31,126).
att(18,132).
att(95,187).
att(18,48).
att(126,21).
att(3,55).
att(164,17).
att(122,92).
att(36,41).
att(48,37).
att(16,133).
att(196,73).
att(23,46).
att(112,23).
att(62,33).
att(55,165).
att(154,83).
att(135,20).
att(83,105).
att(187,75).
att(42,39).
att(191,15).
att(116,141).
att(178,121).
att(129,174).
att(64,200).
att(100,25).
att(38,123).
att(57,115).
att(84,28).
att(62,113).
att(143,86).
att(71,197).
att(188,154).
att(21,47).
att(162,81).
att(129,90).
att(166,80).
att(12,51).
att(26,45).
att(75,30).
att(52,36).
att(136,20).
att(155,18).
att(192,15).
att(157,196).
att(136,88).
att(168,124).
att(63,33).
att(8,137).
att(119,140).
att(37,41).
att(193,15).
att(4,139).
att(2,140).
att(35,174).
att(198,182).
att(6,54).
att(156,18).
att(29,44).
att(137,20).
att(36,124).
att(70,110).
att(53,166).
att(194,15).
att(113,95).
att(168,17).
att(32,43).
att(157,18).
att(92,102).
att(88,190).
att(100,147).
att(72,31).
att(175,122).
att(64,33).
att(151,84).
att(110,96).
att(140,87).
att(181,16).
att(115,23).
att(91,27).
att(33,175).
att(86,28).
att(182,156).
att(76,195).
att(60,114).
att(13,51).
att(14,184).
att(34,125).
att(23,130).
att(148,19).
att(104,98).
att(149,167).
att(101,99).
att(20,48).
att(44,39).
att(81,106).
att(155,83).
att(123,22).
att(9,53).
att(171,79).
att(10,186).
att(54,36).
att(48,119).
att(159,82).
att(21,131).
att(65,161).
att(195,152).
att(18,49).
att(131,136).
att(135,172).
att(183,16).
att(6,188).
att(2,190).
att(110,24).
att(130,90).
att(98,26).
att(120,93).
att(58,164).
att(104,25).
att(78,30).
att(132,21).
att(117,23).
att(81,193).
att(184,16).
att(193,74).
att(150,19).
att(53,117).
att(114,142).
att(93,27).
att(29,177).
att(58,115).
att(17,133).
att(66,33).
att(55,36).
att(125,22).
att(185,16).
att(166,193).
att(99,26).
att(159,127).
att(151,19).
att(118,23).
att(127,91).
att(59,35).
att(75,157).
att(8,54).
att(94,27).
att(6,55).
att(2,57).
att(80,155).
att(152,19).
att(98,148).
att(174,17).
att(40,41).
att(156,128).
att(111,96).
att(28,128).
att(91,189).
att(156,83).
att(9,137).
att(141,170).
att(37,124).
att(80,30).
att(108,97).
att(153,19).
att(25,179).
att(32,44).
att(135,21).
att(160,82).
att(5,139).
att(1,141).
att(22,48).
att(105,98).
att(155,197).
att(90,28).
att(56,116).
att(144,20).
att(130,174).
att(164,18).
att(172,191).
att(101,26).
att(176,17).
att(72,32).
att(183,120).
att(93,150).
att(109,144).
att(166,125).
att(189,16).
att(11,53).
att(128,22).
att(186,155).
att(144,169).
att(122,177).
att(138,88).
att(114,24).
att(96,27).
att(81,30).
att(44,40).
att(150,130).
att(25,47).
att(177,17).
att(3,57).
att(18,50).
att(36,174).
att(181,77).
att(199,73).
att(137,21).
att(33,44).
att(42,122).
att(118,94).
att(84,192).
att(133,173).
att(194,117).
att(144,132).
att(173,123).
att(181,188).
att(153,84).
att(103,26).
att(92,28).
att(58,36).
att(48,39).
att(184,187).
att(115,95).
att(12,53).
att(173,79).
att(62,35).
att(180,121).
att(96,149).
att(55,37).
att(10,54).
att(98,27).
att(104,146).
att(74,32).
att(40,123).
att(66,161).
att(15,184).
att(139,21).
att(66,34).
att(83,30).
att(34,44).
att(115,142).
att(18,133).
att(94,188).
att(195,74).
att(104,26).
att(6,56).
att(93,28).
att(52,38).
att(72,110).
att(63,201).
att(97,101).
att(32,176).
att(43,171).
att(49,39).
att(140,21).
att(46,40).
att(132,22).
att(9,187).
att(111,25).
att(63,35).
att(71,159).
att(105,26).
att(118,141).
att(170,18).
att(122,93).
att(94,28).
att(89,29).
att(150,85).
att(107,145).
att(112,181).
att(62,114).
att(35,44).
att(10,137).
att(100,27).
att(112,25).
att(8,138).
att(178,78).
att(38,43).
att(9,55).
att(126,23).
att(25,48).
att(95,28).
att(142,21).
att(44,41).
att(5,57).
att(3,58).
att(57,165).
att(50,119).
att(151,130).
att(196,74).
att(101,27).
att(89,104).
att(110,144).
att(142,170).
att(81,31).
att(78,108).
att(54,38).
att(120,24).
att(28,47).
att(173,18).
att(102,185).
att(55,117).
att(86,30).
att(113,96).
att(69,160).
att(102,147).
att(174,123).
att(126,92).
att(34,126).
att(48,169).
att(21,50).
att(48,40).
att(145,132).
att(153,20).
att(144,21).
att(58,37).
att(128,23).
att(145,169).
att(121,24).
att(26,48).
att(145,201).
att(97,28).
att(73,110).
att(192,75).
att(87,30).
att(34,45).
att(62,36).
att(4,58).
att(80,194).
att(78,32).
att(161,127).
att(32,127).
att(17,52).
att(109,26).
att(52,39).
att(137,22).
att(188,17).
att(97,149).
att(105,146).
att(53,118).
att(116,142).
att(98,28).
att(43,42).
att(146,21).
att(15,53).
att(110,182).
att(73,197).
att(197,74).
att(22,50).
att(88,30).
att(120,94).
att(189,17).
att(144,87).
att(151,167).
att(159,83).
att(130,91).
att(13,54).
att(27,48).
att(104,27).
att(79,32).
att(63,36).
att(158,128).
att(30,128).
att(171,80).
att(35,175).
att(166,19).
att(156,20).
att(163,82).
att(87,105).
att(167,81).
att(194,184).
att(148,200).
att(75,33).
att(178,122).
att(9,56).
att(99,28).
att(131,23).
att(178,18).
att(38,44).
att(139,22).
att(60,164).
att(30,47).
att(90,190).
att(94,29).
att(148,86).
att(184,77).
att(157,165).
att(41,43).
att(111,26).
att(72,159).
att(47,41).
att(148,21).
att(100,186).
att(172,160).
att(79,108).
att(114,96).
att(51,119).
att(57,38).
att(5,140).
att(168,19).
att(76,33).
att(77,157).
att(118,25).
att(158,20).
att(152,130).
att(85,31).
att(66,113).
att(141,88).
att(125,24).
att(134,90).
att(56,117).
att(96,102).
att(95,29).
att(14,54).
att(112,26).
att(36,45).
att(108,98).
att(64,201).
att(61,115).
att(140,171).
att(102,100).
att(71,198).
att(82,107).
att(113,181).
att(198,74).
att(156,84).
att(31,47).
att(128,138).
att(165,194).
att(189,119).
att(65,36).
att(126,24).
att(24,131).
att(189,76).
att(73,34).
att(2,60).
att(131,91).
att(140,134).
att(182,18).
att(55,39).
att(151,21).
att(138,89).
att(69,112).
att(37,45).
att(33,127).
att(54,118).
att(52,40).
att(114,26).
att(108,27).
att(172,124).
att(183,18).
att(88,191).
att(88,105).
att(194,75).
att(49,169).
att(59,116).
att(92,30).
att(74,34).
att(46,42).
att(132,174).
att(75,158).
att(172,19).
att(13,55).
att(27,49).
att(128,92).
att(18,134).
att(184,18).
att(11,56).
att(106,146).
att(20,52).
att(35,46).
att(116,180).
att(124,177).
att(88,31).
att(94,103).
att(25,50).
att(30,48).
att(122,25).
att(185,18).
att(177,79).
att(75,34).
att(169,125).
att(52,119).
att(120,141).
att(156,129).
att(125,93).
att(137,23).
att(154,21).
att(47,170).
att(106,99).
att(100,101).
att(103,100).
att(38,125).
att(173,80).
att(68,161).
att(152,167).
att(164,20).
att(130,24).
att(99,29).
att(123,25).
att(64,37).
att(146,87).
att(109,145).
att(89,31).
att(80,33).
att(146,22).
att(123,140).
att(138,23).
att(176,159).
att(27,130).
att(6,140).
att(122,94).
att(200,17).
att(101,148).
att(165,20).
att(190,119).
att(183,188).
att(195,184).
att(158,165).
att(26,50).
att(86,106).
att(147,22).
att(119,179).
att(189,186).
att(45,43).
att(201,17).
att(106,184).
att(161,164).
att(78,157).
att(201,116).
att(19,53).
att(139,23).
att(90,31).
att(25,131).
att(164,163).
att(119,95).
att(112,144).
att(70,112).
att(17,184).
att(118,26).
att(58,39).
att(77,34).
att(132,24).
att(148,22).
att(55,118).
att(15,185).
att(37,46).
att(55,40).
att(23,132).
att(143,88).
att(167,20).
att(163,127).
att(66,162).
att(15,55).
att(136,90).
att(178,19).
att(141,171).
att(92,104).
att(173,124).
att(13,186).
att(113,97).
att(43,44).
att(133,24).
att(59,165).
att(11,187).
att(27,50).
att(95,103).
att(170,81).
att(9,188).
att(166,82).
att(73,111).
att(70,36).
att(191,18).
att(20,53).
att(102,29).
att(35,47).
att(196,75).
att(7,59).
att(159,21).
att(97,30).
att(134,24).
att(166,194).
att(118,142).
att(114,27).
att(38,46).
att(140,89).
att(76,158).
att(84,193).
att(17,135).
att(123,94).
att(109,183).
att(41,173).
att(198,117).
att(50,169).
att(99,149).
att(50,42).
att(160,21).
att(79,34).
att(183,78).
att(47,43).
att(63,115).
att(121,26).
att(71,36).
att(60,39).
att(15,136).
att(64,163).
att(28,50).
att(121,141).
att(169,193).
att(89,191).
att(171,20).
att(191,119).
att(117,180).
att(136,24).
att(94,189).
att(104,29).
att(122,26).
att(9,139).
att(26,51).
att(80,34).
att(94,151).
att(129,25).
att(71,112).
att(175,80).
att(5,141).
att(69,161).
att(76,35).
att(42,45).
att(51,42).
att(183,19).
att(94,31).
att(45,44).
att(102,148).
att(167,82).
att(34,48).
att(56,118).
att(24,181).
att(177,159).
att(85,33).
att(61,116).
att(173,20).
att(96,103).
att(62,164).
att(145,133).
att(158,197).
att(37,175).
att(35,127).
att(82,194).
att(69,37).
att(178,190).
att(55,41).
att(77,35).
att(105,100).
att(102,101).
att(139,135).
att(162,164).
att(174,20).
att(124,26).
att(165,163).
att(139,172).
att(27,51).
att(11,58).
att(86,33).
att(181,189).
att(181,122).
att(20,183).
att(20,54).
att(186,19).
att(85,107).
att(116,143).
att(107,184).
att(75,197).
att(82,34).
att(5,61).
att(165,21).
att(156,85).
att(70,37).
att(18,55).
att(30,50).
att(20,134).
att(156,22).
att(199,18).
att(145,88).
att(176,80).
att(59,117).
att(187,19).
att(102,186).
att(160,84).
att(88,106).
att(41,46).
att(53,42).
att(92,152).
att(140,24).
att(47,122).
att(164,83).
att(168,82).
att(200,18).
att(33,49).
att(118,96).
att(97,31).
att(133,25).
att(14,57).
att(83,34).
att(164,195).
att(87,154).
att(192,119).
att(167,21).
att(12,58).
att(100,149).
att(178,123).
att(120,27).
att(36,48).
att(77,158).
att(187,156).
att(80,195).
att(128,93).
att(155,130).
att(114,28).
att(14,137).
att(10,59).
att(189,19).
att(8,189).
att(64,39).
att(127,26).
att(39,47).
att(12,138).
att(6,61).
att(4,191).
att(2,192).
att(51,169).
att(54,42).
att(65,163).
att(142,89).
att(125,140).
att(152,131).
att(73,198).
att(66,201).
att(167,194).
att(153,199).
att(62,116).
att(8,140).
att(111,145).
att(103,101).
att(110,183).
att(58,166).
att(61,40).
att(6,141).
att(4,142).
att(85,193).
att(135,25).
att(95,151).
att(128,26).
att(75,111).
att(104,30).
att(196,118).
att(181,158).
att(99,31).
att(65,39).
att(197,153).
att(131,138).
att(146,133).
att(22,54).
att(85,34).
att(50,121).
att(146,88).
att(173,81).
att(116,28).
att(40,47).
att(55,42).
att(118,180).
att(32,50).
att(90,153).
att(137,136).
att(129,26).
att(49,170).
att(192,19).
att(11,59).
att(52,43).
att(152,23).
att(137,173).
att(73,37).
att(62,40).
att(46,45).
att(144,24).
att(161,22).
att(181,20).
att(75,159).
att(156,198).
att(55,119).
att(23,133).
att(78,110).
att(175,160).
att(157,166).
att(63,164).
att(35,49).
att(171,21).
att(65,115).
att(60,117).
att(25,53).
att(137,25).
att(30,51).
att(194,154).
att(172,161).
att(130,26).
att(71,199).
att(106,147).
att(38,175).
att(38,48).
att(166,163).
att(106,30).
att(82,35).
att(70,38).
att(41,125).
att(91,33).
att(143,89).
att(101,31).
att(53,43).
att(129,176).
att(136,91).
att(138,25).
att(14,58).
att(44,46).
att(200,183).
att(193,119).
att(50,44).
att(47,45).
att(159,197).
att(148,201).
att(120,142).
att(98,103).
att(121,179).
att(12,59).
att(126,94).
att(182,189).
att(197,184).
att(186,121).
att(93,152).
att(36,176).
att(36,49).
att(60,41).
att(184,20).
att(191,77).
att(68,114).
att(185,188).
att(109,146).
att(30,130).
att(164,22).
att(188,187).
att(191,186).
att(61,165).
att(71,38).
att(39,126).
att(15,137).
att(143,171).
att(132,26).
att(113,29).
att(119,28).
att(97,32).
att(147,24).
att(73,160).
att(75,37).
att(170,82).
att(133,92).
att(123,95).
att(88,34).
att(197,118).
att(51,44).
att(132,175).
att(156,23).
att(48,45).
att(126,140).
att(28,131).
att(175,21).
att(133,26).
att(148,24).
att(61,41).
att(186,20).
att(151,87).
att(116,181).
att(3,143).
att(129,139).
att(147,133).
att(90,106).
att(52,169).
att(141,25).
att(183,122).
att(132,138).
att(32,178).
att(165,195).
att(149,24).
att(11,188).
att(27,53).
att(43,173).
att(144,134).
att(117,97).
att(104,148).
att(56,119).
att(135,137).
att(20,56).
att(121,28).
att(115,29).
att(198,153).
att(52,44).
att(167,22).
att(158,23).
att(49,45).
att(5,191).
att(1,193).
att(163,128).
att(35,128).
att(179,80).
att(3,192).
att(114,98).
att(192,77).
att(35,50).
att(62,41).
att(71,161).
att(25,54).
att(73,38).
att(152,168).
att(128,27).
att(150,24).
att(30,179).
att(77,37).
att(30,52).
att(127,94).
att(135,26).
att(111,99).
att(163,84).
att(99,103).
att(122,28).
att(178,21).
att(16,58).
att(116,29).
att(22,134).
att(105,101).
att(76,159).
att(41,174).
att(155,167).
att(194,119).
att(201,19).
att(95,33).
att(160,129).
att(100,32).
att(41,48).
att(151,24).
att(180,123).
att(99,150).
att(138,173).
att(28,180).
att(28,53).
att(53,44).
att(85,108).
att(173,161).
att(82,36).
att(167,163).
att(144,25).
att(77,111).
att(157,130).
att(18,136).
att(8,62).
att(31,130).
att(6,63).
att(26,54).
att(170,22).
att(31,52).
att(161,23).
att(87,35).
att(192,155).
att(112,30).
att(156,86).
att(124,141).
att(145,89).
att(145,25).
att(193,77).
att(83,36).
att(24,182).
att(181,21).
att(177,191).
att(118,97).
att(171,22).
att(72,199).
att(34,51).
att(29,131).
att(102,149).
att(131,27).
att(48,46).
att(162,23).
att(38,127).
att(176,81).
att(102,32).
att(89,154).
att(191,120).
att(62,165).
att(37,176).
att(184,122).
att(144,171).
att(68,40).
att(61,42).
att(189,156).
att(67,115).
att(6,142).
att(109,184).
att(195,185).
att(186,188).
att(27,54).
att(132,27).
att(139,26).
att(46,172).
att(9,62).
att(93,34).
att(109,100).
att(106,101).
att(65,41).
att(5,64).
att(139,136).
att(55,44).
att(164,128).
att(155,24).
att(89,192).
att(35,177).
att(142,90).
att(105,148).
att(67,163).
att(18,58).
att(120,29).
att(89,35).
att(185,79).
att(163,196).
att(133,27).
att(30,53).
att(184,21).
att(53,169).
att(86,108).
att(16,186).
att(109,31).
att(16,59).
att(85,36).
att(125,178).
att(94,34).
att(73,39).
att(81,37).
att(181,123).
att(23,56).
att(104,32).
att(77,38).
att(157,86).
att(122,96).
att(34,129).
att(33,178).
att(59,43).
att(14,60).
att(115,30).
att(132,93).
att(33,52).
att(141,26).
att(60,118).
att(134,27).
att(136,174).
att(90,35).
att(161,85).
att(44,48).
att(153,168).
att(180,159).
att(21,57).
att(53,45).
att(149,25).
att(171,126).
att(166,23).
att(82,195).
att(48,123).
att(41,126).
att(173,82).
att(100,150).
att(169,83).
att(8,63).
att(36,51).
att(6,191).
att(105,32).
att(177,160).
att(2,193).
att(2,66).
att(100,33).
att(31,53).
att(42,174).
att(81,110).
att(39,50).
att(150,25).
att(128,177).
att(91,35).
att(139,173).
att(58,167).
att(113,99).
att(178,124).
att(162,165).
att(75,198).
att(87,193).
att(192,120).
att(42,49).
att(57,44).
att(168,163).
att(29,180).
att(107,185).
att(30,131).
att(125,141).
att(143,90).
att(168,127).
att(15,60).
att(106,32).
att(54,45).
att(95,152).
att(107,101).
att(123,29).
att(104,102).
att(46,124).
att(168,23).
att(126,95).
att(84,109).
att(188,21).
att(13,139).
att(92,191).
att(102,187).
att(70,162).
att(13,61).
att(79,38).
att(103,149).
att(178,22).
att(97,189).
att(49,171).
att(112,31).
att(158,86).
att(61,43).
att(32,53).
att(146,134).
att(124,29).
att(5,143).
att(1,145).
att(107,32).
att(123,96).
att(75,160).
att(1,67).
att(102,33).
att(58,44).
att(179,22).
att(143,135).
att(175,125).
att(140,136).
att(72,40).
att(56,168).
att(201,20).
att(71,114).
att(140,91).
att(166,84).
att(25,56).
att(65,42).
att(145,26).
att(38,176).
att(123,179).
att(80,38).
att(52,46).
att(170,23).
att(49,47).
att(30,54).
att(93,35).
att(153,25).
att(180,22).
att(66,116).
att(181,190).
att(61,118).
att(47,172).
att(35,129).
att(98,34).
att(110,184).
att(162,24).
att(184,189).
att(68,163).
att(200,153).
att(33,53).
att(181,22).
att(114,31).
att(36,177).
att(85,37).
att(82,110).
att(22,135).
att(77,39).
att(137,92).
att(74,113).
att(155,87).
att(120,30).
att(44,49).
att(93,153).
att(150,201).
att(53,46).
att(33,130).
att(183,80).
att(50,47).
att(104,33).
att(102,103).
att(182,22).
att(133,28).
att(181,159).
att(69,115).
att(193,120).
att(88,155).
att(101,150).
att(179,124).
att(78,197).
att(34,178).
att(164,196).
att(127,29).
att(197,154).
att(74,40).
att(18,137).
att(148,89).
att(95,35).
att(82,38).
att(148,26).
att(77,112).
att(134,93).
att(34,53).
att(134,28).
att(100,34).
att(16,138).
att(57,45).
att(66,164).
att(175,161).
att(22,58).
att(160,166).
att(128,29).
att(14,139).
att(184,22).
att(167,195).
att(122,30).
att(37,52).
att(129,140).
att(188,79).
att(157,25).
att(166,164).
att(194,155).
att(9,64).
att(166,128).
att(38,128).
att(32,54).
att(104,149).
att(197,77).
att(20,59).
att(166,24).
att(185,22).
att(135,138).
att(6,143).
att(196,21).
att(129,29).
att(138,137).
att(184,80).
att(2,145).
att(115,145).
att(150,26).
att(91,154).
att(92,36).
att(58,45).
att(123,30).
att(158,25).
att(183,123).
att(25,57).
att(35,53).
att(55,46).
att(136,28).
att(176,23).
att(143,27).
att(186,22).
att(143,172).
att(112,32).
att(52,47).
att(167,24).
att(160,86).
att(88,37).
att(36,129).
att(69,201).
att(93,191).
att(76,40).
att(100,104).
att(193,78).
att(201,118).
att(75,113).
att(64,165).
att(109,101).
att(98,189).
att(80,39).
att(173,193).
att(50,123).
att(124,30).
att(177,23).
att(28,56).
att(93,36).
att(144,27).
att(198,21).
att(146,171).
att(188,157).
att(10,64).
att(86,109).
att(34,130).
att(152,26).
att(160,25).
att(89,37).
att(73,41).
att(194,120).
att(6,66).
att(56,46).
att(121,143).
att(53,47).
att(125,30).
att(198,77).
att(179,191).
att(145,27).
att(94,153).
att(138,28).
att(185,158).
att(89,108).
att(149,170).
att(110,147).
att(94,36).
att(111,184).
att(179,23).
att(70,42).
att(124,142).
att(74,199).
att(197,185).
att(102,150).
att(132,29).
att(86,194).
att(89,155).
att(90,37).
att(119,98).
att(191,187).
att(146,27).
att(17,138).
att(198,154).
att(79,159).
att(198,119).
att(45,50).
att(53,122).
att(162,25).
att(67,43).
att(106,186).
att(20,185).
att(15,139).
att(48,49).
att(177,125).
att(177,82).
att(167,128).
att(37,53).
att(68,116).
att(58,120).
att(101,188).
att(147,27).
att(18,186).
att(63,118).
att(191,22).
att(158,167).
att(5,67).
att(181,23).
att(101,104).
att(84,110).
att(136,138).
att(190,79).
att(161,166).
att(195,155).
att(139,137).
att(136,93).
att(87,38).
att(199,77).
att(164,165).
att(25,58).
att(83,39).
att(43,51).
att(3,145).
att(164,129).
att(33,179).
att(96,36).
att(68,43).
att(14,188).
att(182,23).
att(30,56).
att(16,62).
att(122,31).
att(141,173).
att(174,126).
att(156,26).
att(12,189).
att(52,48).
att(173,24).
att(186,80).
att(168,195).
att(38,53).
att(193,22).
att(122,180).
att(135,29).
att(158,87).
att(133,94).
att(195,120).
att(77,160).
att(6,192).
att(88,38).
att(35,130).
att(182,81).
att(195,78).
att(61,119).
att(10,65).
att(157,26).
att(194,22).
att(6,67).
att(178,82).
att(171,194).
att(2,69).
att(49,124).
att(158,131).
att(150,27).
att(93,37).
att(29,181).
att(56,47).
att(166,25).
att(170,84).
att(50,49).
att(175,24).
att(130,95).
att(158,26).
att(66,44).
att(151,89).
att(191,79).
att(17,62).
att(200,77).
att(185,23).
att(98,36).
att(111,147).
att(113,33).
att(155,132).
att(125,142).
att(40,176).
att(99,105).
att(70,163).
att(167,25).
att(108,34).
att(137,29).
att(144,91).
att(70,43).
att(85,110).
att(150,170).
att(192,121).
att(45,51).
att(125,31).
att(16,139).
att(131,140).
att(197,22).
att(160,198).
att(86,39).
att(160,26).
att(1,70).
att(32,56).
att(82,40).
att(145,28).
att(3,69).
att(134,139).
att(88,109).
att(134,94).
att(180,160).
att(23,184).
att(140,137).
att(165,129).
att(163,86).
att(72,115).
att(75,199).
att(153,27).
att(8,143).
att(87,194).
att(80,112).
att(161,26).
att(2,146).
att(107,186).
att(68,164).
att(67,117).
att(199,22).
att(87,39).
att(83,40).
att(179,24).
att(92,192).
att(171,163).
att(118,99).
att(182,124).
att(127,31).
att(36,130).
att(61,167).
att(189,23).
att(152,201).
att(28,58).
att(83,111).
att(200,22).
att(41,53).
att(142,173).
att(156,88).
att(193,156).
att(180,24).
att(171,25).
att(112,101).
att(80,197).
att(111,34).
att(2,70).
att(128,96).
att(103,104).
att(19,62).
att(88,39).
att(163,26).
att(84,40).
att(160,87).
att(70,116).
att(55,122).
att(148,28).
att(31,57).
att(86,110).
att(97,37).
att(172,25).
att(117,33).
att(53,49).
att(156,132).
att(11,190).
att(60,120).
att(179,125).
att(125,97).
att(73,43).
att(135,30).
att(155,200).
att(123,32).
att(107,35).
att(129,31).
att(5,193).
att(1,195).
att(32,132).
att(29,58).
att(142,29).
att(13,65).
att(81,41).
att(70,44).
att(187,158).
att(71,163).
att(165,26).
att(9,67).
att(73,115).
att(53,123).
att(132,95).
att(30,133).
att(41,176).
att(183,24).
att(3,70).
att(166,129).
att(54,49).
att(115,146).
att(143,29).
att(32,57).
att(200,154).
att(78,198).
att(67,45).
att(28,182).
att(184,159).
att(151,170).
att(95,107).
att(158,199).
att(68,117).
att(146,91).
att(175,193).
att(157,88).
att(18,63).
att(158,27).
att(81,159).
att(119,33).
att(185,81).
att(25,60).
att(82,41).
att(184,24).
att(175,25).
att(99,152).
att(71,44).
att(181,160).
att(84,111).
att(151,28).
att(107,149).
att(190,122).
att(1,147).
att(161,87).
att(3,146).
att(163,130).
att(109,35).
att(51,124).
att(113,184).
att(178,161).
att(165,86).
att(185,24).
att(177,83).
att(12,66).
att(199,185).
att(176,25).
att(169,85).
att(173,84).
att(184,190).
att(196,186).
att(10,67).
att(143,92).
att(87,40).
att(160,131).
att(187,189).
att(190,188).
att(8,68).
att(172,163).
att(166,165).
att(37,178).
att(4,70).
att(110,148).
att(55,170).
att(177,25).
att(61,120).
att(19,63).
att(96,38).
att(139,30).
att(62,47).
att(36,56).
att(46,174).
att(133,95).
att(133,31).
att(92,39).
att(79,160).
att(116,34).
att(56,49).
att(120,99).
att(33,132).
att(178,25).
att(186,81).
att(147,91).
att(35,179).
att(106,36).
att(15,65).
att(111,35).
att(18,187).
att(132,177).
att(154,28).
att(198,23).
att(73,44).
att(188,24).
att(54,123).
att(182,82).
att(22,62).
att(195,79).
att(146,172).
att(133,140).
att(117,34).
att(105,150).
att(177,126).
att(33,180).
att(198,120).
att(59,121).
att(64,119).
att(102,105).
att(111,102).
att(170,85).
att(7,69).
att(199,23).
att(85,111).
att(145,136).
att(5,70).
att(112,35).
att(107,36).
att(60,48).
att(108,103).
att(155,28).
att(85,41).
att(139,138).
att(171,26).
att(57,49).
att(137,94).
att(77,114).
att(123,33).
att(54,50).
att(180,25).
att(92,155).
att(98,38).
att(149,171).
att(29,134).
att(201,154).
att(12,142).
att(86,195).
att(67,46).
att(2,195).
att(190,24).
att(38,130).
att(10,143).
att(52,124).
att(87,157).
att(142,30).
att(51,172).
att(30,59).
att(78,43).
att(149,29).
att(181,25).
att(43,54).
att(119,145).
att(152,170).
att(108,149).
att(45,127).
att(90,40).
att(65,166).
att(91,193).
att(57,122).
att(159,88).
att(191,24).
att(101,189).
att(99,38).
att(148,91).
att(96,191).
att(38,56).
att(58,49).
att(119,34).
att(176,193).
att(75,44).
att(8,69).
att(94,108).
att(95,39).
att(159,199).
att(158,168).
att(192,24).
att(27,183).
att(188,123).
att(167,86).
att(49,173).
att(91,40).
att(131,32).
att(174,26).
att(65,47).
att(161,167).
att(183,25).
att(36,57).
att(44,54).
att(170,164).
att(31,59).
att(103,151).
att(200,185).
att(151,29).
att(17,65).
att(195,156).
att(25,184).
att(192,80).
att(193,24).
att(155,133).
att(130,178).
att(84,196).
att(103,105).
att(185,190).
att(105,37).
att(106,104).
att(15,66).
att(50,52).
att(126,33).
att(56,50).
att(159,28).
att(156,89).
att(65,119).
att(92,40).
att(145,30).
att(109,186).
att(78,114).
att(22,63).
att(149,135).
att(101,38).
att(192,157).
att(66,47).
att(192,122).
att(185,25).
att(146,136).
att(17,140).
att(185,124).
att(106,37).
att(140,138).
att(68,165).
att(1,73).
att(197,79).
att(20,64).
att(111,36).
att(63,48).
att(94,192).
att(195,24).
att(133,177).
att(97,39).
att(165,197).
att(30,134).
att(146,30).
att(153,29).
att(142,93).
att(165,130).
att(164,87).
att(54,171).
att(81,113).
att(13,142).
att(61,168).
att(177,26).
att(186,25).
att(122,34).
att(176,84).
att(175,127).
att(93,155).
att(58,122).
att(169,27).
att(132,96).
att(63,120).
att(67,47).
att(35,58).
att(147,30).
att(5,146).
att(43,55).
att(196,121).
att(150,171).
att(186,159).
att(109,149).
att(23,63).
att(116,101).
att(182,125).
att(78,44).
att(139,94).
att(46,54).
att(141,31).
att(26,136).
att(157,89).
att(103,38).
att(71,46).
att(28,61).
att(66,166).
att(172,128).
att(153,170).
att(43,176).
att(75,200).
att(155,29).
att(58,50).
att(171,195).
att(33,59).
att(55,51).
att(7,193).
att(87,195).
att(108,37).
att(5,194).
att(59,169).
att(3,195).
att(71,117).
att(24,137).
att(198,79).
att(68,47).
att(120,182).
att(112,148).
att(26,62).
att(126,143).
att(124,34).
att(142,31).
att(174,194).
att(139,175).
att(126,98).
att(189,25).
att(136,95).
att(79,114).
att(180,26).
att(165,87).
att(181,83).
att(17,66).
att(65,48).
att(199,24).
att(22,138).
att(97,191).
att(104,151).
att(143,93).
att(41,177).
att(153,134).
att(177,84).
att(72,46).
att(109,37).
att(173,85).
att(114,36).
att(87,42).
att(172,27).
att(28,183).
att(190,25).
att(13,68).
att(53,52).
att(200,24).
att(74,116).
att(135,140).
att(57,170).
att(11,69).
att(131,33).
att(173,27).
att(120,35).
att(165,28).
att(166,130).
att(40,130).
att(1,74).
att(99,153).
att(140,94).
att(92,41).
att(182,26).
att(117,101).
att(59,122).
att(144,31).
att(158,89).
att(176,127).
att(47,127).
att(64,120).
att(48,174).
att(32,60).
att(199,79).
att(114,102).
att(130,97).
att(18,66).
att(174,27).
att(163,198).
att(197,121).
att(77,115).
att(162,88).
att(25,63).
att(77,45).
att(57,51).
att(106,38).
att(16,67).
att(97,40).
att(10,144).
att(94,155).
att(38,131).
att(182,83).
att(90,194).
att(145,31).
att(55,171).
att(93,41).
att(127,98).
att(127,34).
att(2,148).
att(178,84).
att(175,27).
att(74,163).
att(78,199).
att(43,56).
att(174,85).
att(173,128).
att(27,136).
att(139,32).
att(187,159).
att(10,70).
att(64,49).
att(122,35).
att(84,159).
att(67,119).
att(160,29).
att(155,90).
att(91,110).
att(33,60).
att(117,36).
att(2,74).
att(4,73).
att(168,28).
att(55,52).
att(19,66).
att(82,44).
att(134,33).
att(67,166).
att(127,143).
att(169,196).
att(83,197).
att(26,63).
att(90,42).
att(155,201).
att(200,79).
att(154,134).
att(68,48).
att(17,67).
att(36,59).
att(157,169).
att(105,151).
att(163,88).
att(55,124).
att(99,40).
att(10,192).
att(131,97).
att(172,195).
att(100,107).
att(183,83).
att(70,118).
att(140,175).
att(88,195).
att(76,200).
att(72,47).
att(112,103).
att(167,87).
att(29,62).
att(65,120).
att(109,104).
att(41,130).
att(148,31).
att(32,134).
att(11,70).
att(34,60).
att(56,52).
att(124,35).
att(48,127).
att(172,164).
att(170,28).
att(87,43).
att(158,200).
att(77,162).
att(51,173).
att(138,95).
att(17,141).
att(7,72).
att(42,57).
att(76,46).
att(197,25).
att(3,74).
att(136,33).
att(179,27).
att(143,174).
att(15,142).
att(119,146).
att(178,193).
att(149,31).
att(171,28).
att(156,30).
att(18,67).
att(96,41).
att(132,178).
att(125,99).
att(125,35).
att(105,39).
att(40,178).
att(174,128).
att(135,96).
att(81,114).
att(11,144).
att(92,110).
att(16,68).
att(51,54).
att(60,51).
att(161,199).
att(40,58).
att(160,89).
att(124,181).
att(149,92).
att(115,37).
att(30,62).
att(35,60).
att(70,48).
att(199,25).
att(190,189).
att(181,126).
att(63,168).
att(56,171).
att(84,113).
att(135,177).
att(132,34).
att(93,42).
att(149,172).
att(116,102).
att(23,186).
att(151,31).
att(4,74).
att(116,37).
att(64,50).
att(158,30).
att(85,159).
att(106,188).
att(182,27).
att(58,52).
att(21,187).
att(129,98).
att(71,48).
att(87,112).
att(131,142).
att(36,180).
att(98,41).
att(133,34).
att(107,39).
att(31,62).
att(152,31).
att(79,115).
att(167,197).
att(168,130).
att(134,141).
att(149,136).
att(19,188).
att(178,127).
att(112,38).
att(68,49).
att(42,130).
att(106,151).
att(90,43).
att(75,47).
att(61,169).
att(140,139).
att(143,138).
att(20,140).
att(167,29).
att(161,89).
att(136,96).
att(185,125).
att(93,156).
att(114,185).
att(73,164).
att(11,71).
att(50,55).
att(153,31).
att(185,83).
att(15,190).
att(161,168).
att(72,48).
att(165,88).
att(176,163).
att(93,110).
att(123,36).
att(198,80).
att(156,201).
att(56,53).
att(7,73).
att(31,135).
att(130,179).
att(141,175).
att(118,37).
att(181,84).
att(16,142).
att(169,87).
att(176,28).
att(83,160).
att(96,109).
att(101,153).
att(69,49).
att(52,173).
att(32,62).
att(66,167).
att(194,26).
att(141,33).
att(7,194).
att(5,195).
att(1,197).
att(117,102).
att(29,136).
att(3,196).
att(85,113).
att(48,56).
att(100,41).
att(80,46).
att(94,193).
att(176,194).
att(40,59).
att(111,104).
att(148,32).
att(99,191).
att(52,126).
att(14,70).
att(84,45).
att(96,155).
att(133,178).
att(35,61).
att(192,158).
att(190,82).
att(142,33).
att(179,193).
att(72,118).
att(43,58).
att(70,49).
att(170,29).
att(110,39).
att(36,133).
att(186,83).
att(182,192).
att(28,64).
att(151,92).
att(4,75).
att(46,57).
att(163,30).
att(200,186).
att(189,159).
att(64,168).
att(162,199).
att(57,171).
att(86,159).
att(200,121).
att(19,68).
att(197,187).
att(179,28).
att(85,45).
att(43,130).
att(178,85).
att(39,179).
att(136,177).
att(174,86).
att(89,44).
att(75,201).
att(55,54).
att(188,27).
att(17,69).
att(186,160).
att(195,81).
att(164,30).
att(193,123).
att(99,154).
att(31,63).
att(111,39).
att(144,138).
att(36,61).
att(78,47).
att(121,37).
att(132,35).
att(24,66).
att(166,131).
att(198,26).
att(128,180).
att(183,161).
att(70,119).
att(118,102).
att(148,93).
att(141,95).
att(37,180).
att(19,141).
att(22,187).
att(41,131).
att(159,90).
att(191,82).
att(47,57).
att(75,48).
att(199,156).
att(48,128).
att(151,32).
att(139,176).
att(115,103).
att(94,43).
att(94,156).
att(34,62).
att(17,142).
att(181,28).
att(109,105).
att(112,39).
att(78,116).
att(80,199).
att(3,76).
att(117,38).
att(56,54).
att(20,68).
att(103,41).
att(110,150).
att(162,168).
att(18,189).
att(167,88).
att(128,99).
att(152,32).
att(83,46).
att(128,36).
att(142,175).
att(69,50).
att(16,190).
att(95,43).
att(25,66).
att(123,37).
att(16,70).
att(134,35).
att(28,137).
att(85,197).
att(123,182).
att(7,147).
att(48,57).
att(140,34).
att(5,148).
att(1,150).
att(3,149).
att(44,177).
att(63,122).
att(40,60).
att(167,30).
att(157,201).
att(60,170).
att(30,64).
att(63,52).
att(37,133).
att(160,31).
att(60,53).
att(73,49).
att(57,54).
att(193,158).
att(10,193).
att(174,195).
att(122,101).
att(90,195).
att(10,73).
att(109,40).
att(105,152).
att(130,143).
att(6,195).
att(135,35).
att(31,183).
att(160,90).
att(96,43).
att(28,65).
att(88,45).
att(168,30).
att(2,77).
att(4,76).
att(119,38).
att(133,142).
att(24,139).
att(154,32).
att(187,125).
att(116,148).
att(148,173).
att(105,41).
att(71,119).
att(104,107).
att(65,168).
att(180,193).
att(81,47).
att(64,52).
att(110,105).
att(107,106).
att(61,123).
att(110,40).
att(168,88).
att(66,121).
att(169,30).
att(142,34).
att(125,37).
att(180,85).
att(194,27).
att(201,186).
att(139,96).
att(31,64).
att(108,151).
att(85,46).
att(79,116).
att(155,32).
att(172,87).
att(33,135).
att(197,81).
att(119,147).
att(20,141).
att(24,67).
att(40,179).
att(27,185).
att(44,59).
att(106,41).
att(131,36).
att(192,189).
att(198,122).
att(163,199).
att(149,33).
att(186,28).
att(70,166).
att(170,30).
att(47,58).
att(126,100).
att(200,156).
att(178,29).
att(191,124).
att(82,47).
att(76,201).
att(7,75).
att(82,115).
att(93,111).
att(116,39).
att(50,57).
att(65,52).
att(157,170).
att(3,77).
att(121,183).
att(59,124).
att(69,120).
att(123,101).
att(90,45).
att(150,33).
att(103,153).
att(166,198).
att(23,187).
att(90,158).
att(12,145).
att(103,190).
att(98,192).
att(175,164).
att(164,31).
att(47,176).
att(158,134).
att(45,59).
att(8,147).
att(99,109).
att(122,38).
att(2,150).
att(117,39).
att(69,51).
att(117,103).
att(181,127).
att(197,27).
att(52,127).
att(83,47).
att(114,149).
att(154,92).
att(198,81).
att(151,33).
att(14,72).
att(169,197).
att(114,104).
att(45,130).
att(177,86).
att(76,49).
att(87,46).
att(111,105).
att(188,125).
att(108,106).
att(165,31).
att(95,44).
att(140,96).
att(131,143).
att(12,73).
att(108,41).
att(88,113).
att(194,158).
att(60,54).
att(25,139).
att(45,177).
att(134,142).
att(113,40).
att(43,60).
att(80,48).
att(173,30).
att(62,123).
att(158,91).
att(21,69).
att(149,137).
att(6,76).
att(118,39).
att(168,131).
att(93,157).
att(143,139).
att(38,62).
att(91,112).
att(50,128).
att(13,192).
att(70,51).
att(158,201).
att(140,35).
att(191,159).
att(11,193).
att(34,135).
att(190,83).
att(109,41).
att(135,178).
att(199,122).
att(32,183).
att(151,93).
att(26,67).
att(92,45).
att(129,37).
att(9,194).
att(52,174).
att(149,173).
att(144,95).
att(94,111).
att(109,151).
att(153,33).
att(120,147).
att(165,132).
att(3,197).
att(64,53).
att(124,38).
att(55,126).
att(96,193).
att(15,72).
att(61,54).
att(55,56).
att(119,184).
att(178,194).
att(24,68).
att(19,142).
att(199,81).
att(70,120).
att(121,102).
att(32,136).
att(182,85).
att(30,184).
att(44,60).
att(60,124).
att(175,129).
att(174,87).
att(17,143).
att(11,74).
att(181,193).
att(130,37).
att(71,51).
att(96,156).
att(47,59).
att(184,192).
att(115,40).
att(161,32).
att(155,171).
att(30,137).
att(142,35).
att(184,29).
att(13,145).
att(65,53).
att(53,127).
att(193,189).
att(27,67).
att(53,57).
att(172,130).
att(57,172).
att(155,33).
att(26,186).
att(9,147).
att(169,31).
att(130,180).
att(111,41).
att(191,83).
att(161,169).
att(37,63).
att(39,180).
att(1,151).
att(128,100).
att(98,44).
att(58,125).
att(90,46).
att(126,38).
att(185,29).
att(16,72).
att(81,116).
att(137,36).
att(109,188).
att(68,121).
att(173,165).
att(77,201).
att(63,123).
att(143,35).
att(37,134).
att(132,143).
att(48,176).
att(194,28).
att(167,89).
att(30,66).
att(104,190).
att(94,194).
att(169,131).
att(167,198).
att(135,142).
att(23,69).
att(132,37).
att(35,64).
att(107,152).
att(179,128).
att(103,43).
att(95,111).
att(10,75).
att(112,41).
att(178,30).
att(76,118).
att(8,76).
att(135,98).
att(55,173).
att(133,179).
att(21,70).
att(99,44).
att(60,55).
att(2,79).
att(28,67).
att(91,46).
att(94,157).
att(193,124).
att(157,33).
att(166,132).
att(149,94).
att(22,141).
att(164,32).
att(46,60).
att(35,182).
att(26,68).
att(84,48).
att(139,36).
att(110,106).
att(20,142).
att(84,161).
att(79,117).
att(112,187).
att(172,31).
att(67,53).
att(123,39).
att(100,44).
att(158,33).
att(164,90).
att(136,178).
att(188,29).
att(150,173).
att(36,64).
att(165,32).
att(67,168).
att(53,174).
att(44,178).
att(201,81).
att(197,28).
att(60,171).
att(168,89).
att(54,127).
att(107,189).
att(184,85).
att(92,195).
att(22,70).
att(97,156).
att(120,184).
att(186,161).
att(8,195).
att(180,86).
att(105,43).
att(189,29).
att(176,87).
att(7,77).
att(159,33).
att(102,191).
att(1,80).
att(34,65).
att(181,30).
att(69,121).
att(198,28).
att(12,146).
att(157,135).
att(183,162).
att(68,53).
att(27,68).
att(93,46).
att(153,34).
att(42,62).
att(38,134).
att(18,72).
att(53,58).
att(180,163).
att(199,157).
att(32,66).
att(150,94).
att(77,118).
att(167,32).
att(75,51).
att(27,139).
att(82,162).
att(161,91).
att(193,83).
att(115,186).
att(99,110).
att(58,172).
att(151,137).
att(125,39).
att(45,131).
att(177,164).
att(136,142).
att(45,61).
att(194,189).
att(133,99).
att(142,176).
att(85,198).
att(139,141).
att(154,34).
att(102,44).
att(171,166).
att(187,126).
att(27,186).
att(191,29).
att(57,126).
att(108,152).
att(105,108).
att(114,105).
att(36,135).
att(25,140).
att(189,84).
att(148,35).
att(49,176).
att(35,65).
att(10,76).
att(67,122).
att(70,167).
att(169,89).
att(185,85).
att(116,41).
att(25,187).
att(90,196).
att(6,78).
att(173,88).
att(50,129).
att(54,58).
att(177,87).
att(176,31).
att(95,157).
att(137,37).
att(63,170).
att(164,133).
att(19,72).
att(38,64).
att(143,36).
att(162,33).
att(23,188).
att(168,198).
att(193,159).
att(127,101).
att(132,38).
att(198,123).
att(184,127).
att(47,177).
att(80,50).
att(193,29).
att(94,112).
att(148,174).
att(177,31).
att(21,189).
att(32,137).
att(194,83).
att(125,146).
att(49,60).
att(161,134).
att(185,30).
att(70,121).
att(138,37).
att(97,111).
att(65,123).
att(19,190).
att(77,51).
att(68,168).
att(121,103).
att(55,58).
att(194,29).
att(114,150).
att(61,56).
att(134,99).
att(78,118).
att(186,30).
att(9,77).
att(92,47).
att(13,146).
att(157,34).
att(34,183).
att(7,78).
att(128,39).
att(39,134).
att(186,85).
att(103,109).
att(1,81).
att(3,80).
att(81,50).
att(181,128).
att(115,105).
att(139,37).
att(112,106).
att(182,86).
att(174,88).
att(108,189).
att(184,162).
att(93,158).
att(5,150).
att(27,69).
att(188,126).
att(42,63).
att(9,195).
att(81,117).
att(32,67).
att(159,92).
att(98,193).
att(37,65).
att(129,39).
att(26,140).
att(119,41).
att(16,74).
att(160,170).
att(56,58).
att(97,46).
att(62,56).
att(124,40).
att(152,35).
att(66,169).
att(195,83).
att(146,36).
att(180,31).
att(138,98).
att(110,43).
att(188,30).
att(120,148).
att(44,132).
att(172,166).
att(24,141).
att(152,94).
att(135,38).
att(201,187).
att(116,186).
att(186,192).
att(95,112).
att(165,133).
att(132,180).
att(189,191).
att(192,190).
att(2,81).
att(125,40).
att(124,183).
att(50,176).
att(189,30).
att(123,147).
att(96,157).
att(98,111).
att(54,59).
att(112,151).
att(42,133).
att(183,86).
att(162,134).
att(175,88).
att(179,87).
att(146,175).
att(194,159).
att(38,65).
att(166,199).
att(64,170).
att(91,159).
att(126,146).
att(154,35).
att(182,31).
att(17,74).
att(107,108).
att(131,39).
att(86,161).
att(135,179).
att(87,49).
att(126,40).
att(31,138).
att(199,29).
att(79,201).
att(41,64).
att(91,48).
att(191,160).
att(175,32).
att(115,150).
att(99,46).
att(36,66).
att(168,33).
att(52,60).
att(129,101).
att(22,189).
att(55,59).
att(132,39).
att(149,36).
att(107,153).
att(200,29).
att(29,69).
att(1,82).
att(146,96).
att(8,149).
att(20,190).
att(126,102).
att(88,49).
att(138,142).
att(188,85).
att(169,132).
att(2,152).
att(46,178).
att(184,31).
att(138,38).
att(113,43).
att(156,35).
att(180,87).
att(150,36).
att(133,39).
att(42,64).
att(16,192).
att(182,163).
att(158,171).
att(37,66).
att(109,44).
att(85,50).
att(128,40).
att(36,136).
att(170,33).
att(193,30).
att(102,155).
att(25,71).
att(141,177).
att(14,193).
att(143,97).
att(102,110).
att(150,95).
att(53,175).
att(56,59).
att(161,170).
att(67,169).
att(117,105).
att(139,38).
att(44,179).
att(62,125).
att(161,92).
att(164,169).
att(114,106).
att(104,191).
att(60,172).
att(176,130).
att(10,195).
att(23,72).
att(101,46).
att(167,168).
att(161,201).
att(75,53).
att(43,133).
att(80,118).
att(97,47).
att(163,134).
att(164,34).
att(181,194).
att(34,137).
att(2,199).
att(165,91).
att(6,80).
att(129,40).
att(2,82).
att(124,41).
att(91,114).
att(184,193).
att(51,61).
att(140,38).
att(187,192).
att(105,154).
att(75,120).
att(183,128).
att(19,144).
att(51,176).
att(19,74).
att(152,36).
att(195,30).
att(190,191).
att(32,138).
att(125,183).
att(33,68).
att(29,186).
att(83,117).
att(57,59).
att(77,165).
att(63,57).
att(190,126).
att(102,46).
att(60,58).
att(17,145).
att(130,145).
att(48,131).
att(26,71).
att(58,173).
att(120,42).
att(137,99).
att(112,188).
att(87,198).
att(133,144).
att(124,103).
att(111,44).
att(97,112).
att(141,38).
att(180,32).
att(196,30).
att(198,83).
att(147,37).
att(166,34).
att(173,33).
att(87,50).
att(100,156).
att(78,119).
att(100,111).
att(108,153).
att(53,129).
att(116,43).
att(162,92).
att(92,196).
att(145,140).
att(70,168).
att(201,123).
att(28,140).
att(1,153).
att(7,80).
att(121,42).
att(44,64).
att(102,192).
att(181,32).
att(3,82).
att(38,182).
att(80,201).
att(61,58).
att(112,107).
att(58,127).
att(56,174).
att(77,53).
att(194,125).
att(154,36).
att(167,133).
att(20,74).
att(190,85).
att(186,162).
att(63,125).
att(131,101).
att(122,148).
att(186,86).
att(117,43).
att(148,96).
att(111,152).
att(177,130).
att(182,32).
att(80,164).
att(50,62).
att(44,133).
att(85,162).
att(132,40).
att(178,88).
att(36,183).
att(115,187).
att(32,69).
att(92,49).
att(173,197).
att(159,171).
att(37,67).
att(85,199).
att(35,137).
att(53,61).
att(149,37).
att(113,44).
att(162,170).
att(84,117).
att(54,175).
att(65,57).
att(78,53).
att(123,184).
att(17,192).
att(161,135).
att(34,184).
att(174,131).
att(98,157).
att(71,122).
att(42,134).
att(163,92).
att(89,50).
att(98,112).
att(133,40).
att(75,54).
att(123,42).
att(4,82).
att(128,41).
att(158,136).
att(13,194).
att(93,49).
att(196,159).
att(114,44).
att(72,55).
att(192,31).
att(79,119).
att(119,105).
att(191,85).
att(93,159).
att(162,201).
att(19,75).
att(43,65).
att(104,110).
att(7,197).
att(116,106).
att(177,33).
att(181,129).
att(171,90).
att(54,129).
att(88,161).
att(17,76).
att(57,60).
att(66,57).
att(134,40).
att(83,163).
att(124,42).
att(129,41).
att(46,64).
att(47,132).
att(179,88).
att(185,32).
att(90,50).
att(146,140).
att(197,189).
att(106,46).
att(195,125).
att(109,153).
att(94,49).
att(10,149).
att(102,47).
att(82,118).
att(69,123).
att(115,44).
att(83,52).
att(8,150).
att(49,63).
att(129,102).
att(2,153).
att(11,79).
att(73,55).
att(158,36).
att(9,80).
att(135,40).
att(50,177).
att(27,141).
att(111,45).
att(80,53).
att(153,95).
att(55,61).
att(67,57).
att(168,199).
att(34,69).
att(107,46).
att(91,50).
att(26,188).
att(39,67).
att(129,182).
att(76,166).
att(192,85).
att(39,182).
att(95,49).
att(123,104).
att(185,128).
att(168,91).
att(104,155).
att(199,124).
att(84,52).
att(157,172).
att(81,164).
att(126,147).
att(188,86).
att(175,131).
att(23,143).
att(62,126).
att(48,178).
att(67,124).
att(42,66).
att(184,87).
att(50,131).
att(88,51).
att(160,171).
att(143,98).
att(129,146).
att(115,151).
att(108,46).
att(133,101).
att(163,170).
att(178,165).
att(12,79).
att(45,65).
att(166,169).
att(30,71).
att(96,49).
att(161,93).
att(169,168).
att(100,48).
att(20,191).
att(19,145).
att(172,132).
att(167,35).
att(122,43).
att(86,199).
att(40,67).
att(197,84).
att(41,135).
att(2,84).
att(4,83).
att(130,102).
att(48,64).
att(18,192).
att(74,167).
att(48,132).
att(143,39).
att(94,159).
att(196,125).
att(118,150).
att(60,127).
att(154,95).
att(89,51).
att(19,76).
att(149,38).
att(51,63).
att(91,197).
att(144,141).
att(43,66).
att(82,53).
att(33,70).
att(105,47).
att(38,68).
att(175,34).
att(54,62).
att(198,31).
att(135,180).
att(96,195).
att(39,136).
att(53,176).
att(190,32).
att(133,41).
att(101,193).
att(110,153).
att(121,149).
att(46,65).
att(119,186).
att(10,196).
att(63,59).
att(158,94).
att(127,183).
att(183,33).
att(156,37).
att(121,105).
att(4,199).
att(41,67).
att(31,186).
att(103,111).
att(199,31).
att(90,51).
att(176,34).
att(73,122).
att(151,96).
att(76,55).
att(186,128).
att(118,106).
att(26,142).
att(134,101).
att(115,107).
att(106,47).
att(152,174).
att(7,82).
att(68,124).
att(112,108).
att(134,41).
att(3,84).
att(176,131).
att(129,42).
att(163,135).
att(81,119).
att(184,33).
att(166,200).
att(29,187).
att(115,45).
att(44,134).
att(105,155).
att(157,37).
att(55,62).
att(24,143).
att(34,70).
att(92,160).
att(155,173).
att(80,54).
att(67,58).
att(131,102).
att(35,138).
att(166,92).
att(194,85).
att(141,99).
att(64,59).
att(155,95).
att(185,163).
att(82,164).
att(111,46).
att(87,162).
att(122,185).
att(91,51).
att(56,129).
att(170,91).
att(190,86).
att(185,33).
att(173,132).
att(107,47).
att(16,78).
att(146,39).
att(201,31).
att(32,71).
att(95,114).
att(169,199).
att(94,196).
att(104,192).
att(103,48).
att(49,178).
att(174,90).
att(152,38).
att(71,123).
att(190,127).
att(100,157).
att(116,45).
att(61,127).
att(49,132).
att(178,89).
att(136,144).
att(98,113).
att(141,40).
att(23,75).
att(71,57).
att(10,81).
att(170,168).
att(121,44).
att(82,201).
att(172,198).
att(56,175).
att(8,82).
att(68,58).
att(198,159).
att(136,41).
att(117,187).
att(145,98).
att(152,96).
att(79,120).
att(31,140).
att(16,147).
att(199,84).
att(126,43).
att(65,59).
att(92,51).
att(163,93).
att(54,130).
att(14,148).
att(122,149).
att(51,64).
att(59,128).
att(112,189).
att(33,71).
att(122,44).
att(180,34).
att(137,41).
att(156,95).
att(64,126).
att(82,119).
att(142,99).
att(191,86).
att(127,43).
att(82,54).
att(154,38).
att(68,170).
att(136,180).
att(15,79).
att(109,47).
att(125,148).
att(69,58).
att(107,191).
att(175,90).
att(24,75).
att(97,50).
att(63,60).
att(196,32).
att(179,89).
att(97,195).
att(101,49).
att(98,158).
att(41,68).
att(160,94).
att(77,121).
att(49,65).
att(138,41).
att(11,196).
att(32,186).
att(9,197).
att(1,86).
att(76,56).
att(128,43).
att(189,33).
att(199,189).
att(1,201).
att(93,160).
att(146,98).
att(52,177).
att(158,137).
att(131,146).
att(193,191).
att(191,127).
att(20,77).
att(73,57).
att(123,105).
att(43,135).
att(34,71).
att(182,34).
att(39,69).
att(34,139).
att(66,171).
att(102,112).
att(85,200).
att(98,50).
att(70,58).
att(88,117).
att(102,49).
att(59,174).
att(58,62).
att(156,38).
att(80,55).
att(64,60).
att(167,200).
att(117,107).
att(137,144).
att(101,157).
att(115,46).
att(19,146).
att(149,140).
att(123,185).
att(142,178).
att(42,68).
att(143,99).
att(180,165).
att(110,190).
att(162,171).
att(50,65).
att(91,52).
att(77,56).
att(176,35).
att(75,122).
att(111,47).
att(120,45).
att(48,133).
att(15,148).
att(95,196).
att(199,32).
att(168,134).
att(30,73).
att(30,141).
att(130,103).
att(94,115).
att(57,175).
att(56,63).
att(135,42).
att(64,172).
att(140,100).
att(11,150).
att(39,137).
att(178,131).
att(48,66).
att(165,135).
att(97,114).
att(83,201).
att(28,142).
att(19,78).
att(78,121).
att(86,118).
att(78,56).
att(126,148).
att(33,72).
att(96,51).
att(171,36).
att(185,34).
att(51,65).
att(26,75).
att(100,50).
att(193,86).
att(199,125).
att(113,189).
att(193,33).
att(54,64).
att(55,176).
att(165,37).
att(192,127).
att(63,127).
att(158,95).
att(72,58).
att(137,180).
att(13,81).
att(153,39).
att(46,180).
att(31,73).
att(159,137).
att(69,59).
att(115,108).
att(18,193).
att(181,89).
att(63,61).
att(41,69).
att(9,83).
att(16,194).
att(22,77).
att(109,48).
att(194,33).
att(1,87).
att(129,183).
att(132,43).
att(118,151).
att(86,54).
att(105,49).
att(101,50).
att(166,37).
att(153,139).
att(185,194).
att(89,162).
att(33,186).
att(76,57).
att(84,164).
att(187,34).
att(20,146).
att(141,143).
att(141,100).
att(34,72).
att(84,119).
att(90,53).
att(143,41).
att(191,192).
att(49,133).
att(73,58).
att(61,128).
att(166,93).
att(18,79).
att(110,154).
att(8,198).
att(169,134).
att(94,52).
att(167,37).
att(149,40).
att(181,165).
att(16,148).
att(32,73).
att(188,34).
att(106,49).
att(155,39).
att(125,105).
att(138,101).
att(200,159).
att(42,69).
att(79,121).
att(72,169).
att(14,149).
att(166,170).
att(54,131).
att(101,113).
att(12,82).
att(172,168).
att(122,106).
att(23,77).
att(8,84).
att(45,68).
att(84,55).
att(129,44).
att(4,86).
att(58,175).
att(116,108).
att(35,72).
att(111,48).
att(175,36).
att(176,132).
att(82,165).
att(82,120).
att(101,194).
att(99,51).
att(171,199).
att(103,50).
att(65,61).
att(48,67).
att(49,179).
att(119,187).
att(93,116).
att(116,152).
att(125,45).
att(151,40).
att(100,158).
att(70,170).
att(26,76).
att(130,44).
att(163,38).
att(157,138).
att(149,98).
att(38,184).
att(84,201).
att(23,191).
att(112,48).
att(171,92).
att(54,65).
att(138,180).
att(46,68).
att(170,37).
att(191,34).
att(119,151).
att(104,50).
att(57,64).
att(72,59).
att(126,105).
att(160,95).
att(99,114).
att(179,90).
att(142,143).
att(148,141).
att(9,84).
att(36,72).
att(41,70).
att(145,142).
att(82,56).
att(89,199).
att(158,39).
att(117,47).
att(1,88).
att(5,86).
att(49,67).
att(102,113).
att(188,163).
att(80,121).
att(109,191).
att(180,131).
att(111,154).
att(192,34).
att(94,197).
att(136,102).
att(32,141).
att(54,177).
att(99,195).
att(109,49).
att(111,110).
att(15,195).
att(76,58).
att(18,80).
att(153,40).
att(55,65).
att(182,165).
att(201,189).
att(168,93).
att(60,129).
att(196,86).
att(125,149).
att(118,47).
att(13,150).
att(194,127).
att(195,191).
att(73,169).
att(201,33).
att(164,136).
att(32,187).
att(67,61).
att(64,62).
att(166,201).
att(167,170).
att(176,167).
att(94,116).
att(172,92).
att(192,87).
att(186,35).
att(5,200).
att(123,46).
att(50,67).
att(52,178).
att(143,42).
att(160,39).
att(97,115).
att(6,86).
att(140,101).
att(138,43).
att(2,88).
att(4,87).
att(53,66).
att(184,130).
att(117,152).
att(26,144).
att(187,35).
att(40,71).
att(91,54).
att(201,85).
att(73,124).
att(154,97).
att(147,99).
att(92,198).
att(101,158).
att(63,128).
att(155,139).
att(136,181).
att(62,63).
att(89,118).
att(51,133).
att(33,74).
att(120,187).
att(174,37).
att(139,43).
att(120,151).
att(118,108).
att(169,93).
att(109,111).
att(51,67).
att(192,162).
att(181,131).
att(158,96).
att(134,103).
att(92,117).
att(173,92).
att(56,131).
att(76,168).
att(24,78).
att(162,39).
att(175,198).
att(151,98).
att(20,147).
att(145,42).
att(139,180).
att(75,59).
att(91,162).
att(112,154).
att(9,85).
att(185,89).
att(189,35).
att(181,90).
att(115,189).
att(188,129).
att(7,86).
att(140,43).
att(18,148).
att(182,36).
att(1,89).
att(3,88).
att(135,44).
att(162,95).
att(69,61).
att(37,185).
att(108,50).
att(169,38).
att(16,149).
att(121,47).
att(157,40).
att(131,183).
att(163,39).
att(20,193).
att(155,97).
att(146,42).
att(148,99).
att(52,67).
att(79,58).
att(87,119).
att(183,165).
att(166,94).
att(62,174).
att(18,81).
att(115,153).
att(99,159).
att(198,86).
att(141,43).
att(86,56).
att(129,148).
att(198,34).
att(55,66).
att(136,44).
att(170,38).
att(165,171).
att(113,49).
att(107,156).
att(74,169).
att(187,194).
att(59,130).
att(4,155).
att(170,93).
att(175,133).
att(47,69).
att(104,113).
att(32,75).
att(109,50).
att(58,65).
att(199,190).
att(190,193).
att(132,147).
att(94,161).
att(90,118).
att(199,160).
att(61,64).
att(33,187).
att(64,63).
att(147,42).
att(184,36).
att(116,109).
att(12,197).
att(113,110).
att(82,121).
att(145,100).
att(53,178).
att(89,163).
att(10,85).
att(127,46).
att(84,165).
att(178,91).
att(118,48).
att(45,136).
att(30,76).
att(153,41).
att(137,44).
att(60,175).
att(36,140).
att(150,141).
att(45,70).
att(114,49).
att(196,161).
att(35,74).
att(132,104).
att(121,151).
att(57,131).
att(56,66).
att(72,170).
att(170,200).
att(137,181).
att(72,125).
att(172,38).
att(169,135).
att(34,141).
att(129,105).
att(21,147).
att(193,162).
att(17,82).
att(151,176).
att(133,45).
att(166,39).
att(43,71).
att(179,37).
att(98,196).
att(15,83).
att(129,184).
att(113,154).
att(77,168).
att(58,176).
att(139,102).
att(80,122).
att(173,199).
att(166,136).
att(149,42).
att(31,76).
att(175,92).
att(55,132).
att(123,107).
att(54,67).
att(140,180).
att(127,149).
att(9,86).
att(144,43).
att(155,41).
att(187,89).
att(48,135).
att(167,39).
att(22,80).
att(75,60).
att(187,164).
att(134,45).
att(139,44).
att(85,57).
att(91,118).
att(116,189).
att(13,151).
att(116,153).
att(200,126).
att(29,77).
att(86,201).
att(65,128).
att(193,128).
att(23,192).
att(83,121).
att(132,183).
att(195,35).
att(7,154).
att(100,53).
att(1,157).
att(94,117).
att(28,144).
att(18,82).
att(181,37).
att(21,193).
att(52,68).
att(188,36).
att(47,181).
att(111,191).
att(75,169).
att(79,59).
att(78,123).
att(172,169).
att(154,140).
att(130,105).
att(106,193).
att(196,87).
att(32,76).
att(80,167).
att(151,141).
att(172,93).
att(145,143).
att(85,165).
att(12,85).
att(126,47).
att(73,125).
att(37,74).
att(182,37).
att(192,88).
att(140,102).
att(103,158).
att(100,115).
att(127,106).
att(24,146).
att(146,43).
att(113,50).
att(45,182).
att(15,196).
att(180,91).
att(109,51).
att(30,77).
att(35,141).
att(89,119).
att(103,114).
att(152,42).
att(80,59).
att(35,75).
att(9,199).
att(183,37).
att(109,112).
att(118,109).
att(7,200).
att(170,39).
att(19,82).
att(20,148).
att(56,67).
att(43,183).
att(42,138).
att(138,181).
att(98,54).
att(152,176).
att(132,46).
att(106,157).
att(18,149).
att(137,45).
att(169,94).
att(93,162).
att(102,53).
att(177,38).
att(84,121).
att(158,97).
att(62,65).
att(191,163).
att(66,128).
att(109,192).
att(59,176).
att(194,128).
att(16,150).
att(151,99).
att(31,143).
att(94,198).
att(171,39).
att(159,41).
att(14,151).
att(104,194).
att(131,148).
att(24,80).
att(40,139).
att(28,190).
att(128,47).
att(54,133).
att(12,152).
att(189,89).
att(54,68).
att(98,116).
att(50,180).
att(174,199).
att(178,38).
att(87,120).
att(141,102).
att(185,90).
att(22,81).
att(192,36).
att(185,165).
att(109,156).
att(26,191).
att(4,156).
att(103,53).
att(101,115).
att(137,146).
att(172,39).
att(117,189).
att(155,98).
att(74,125).
att(148,100).
att(39,185).
att(20,82).
att(177,198).
att(120,152).
att(200,35).
att(152,141).
att(198,127).
att(133,183).
att(149,43).
att(143,144).
att(76,169).
att(129,47).
att(179,38).
att(167,171).
att(120,49).
att(44,72).
att(107,113).
att(82,122).
att(173,169).
att(96,55).
att(134,46).
att(113,111).
att(116,50).
att(170,94).
att(89,57).
att(181,132).
att(112,155).
att(37,186).
att(123,151).
att(159,97).
att(135,104).
att(92,199).
att(147,178).
att(198,161).
att(69,172).
att(107,193).
att(186,195).
att(136,182).
att(102,195).
att(178,92).
att(23,81).
att(188,130).
att(46,182).
att(201,190).
att(145,44).
att(6,89).
att(120,188).
att(192,193).
att(50,70).
att(70,63).
att(140,45).
att(174,39).
att(97,55).
att(83,59).
att(19,149).
att(45,72).
att(90,57).
att(181,38).
att(151,43).
att(188,37).
att(12,198).
att(41,139).
att(53,179).
att(44,183).
att(126,107).
att(10,199).
att(56,68).
att(89,164).
att(122,49).
att(8,200).
att(136,46).
att(199,87).
att(123,108).
att(60,176).
att(75,125).
att(171,94).
att(135,147).
att(74,62).
att(189,164).
att(91,119).
att(189,37).
att(102,159).
att(160,97).
att(70,127).
att(13,86).
att(131,184).
att(123,187).
att(153,141).
att(1,158).
att(42,184).
att(11,87).
att(91,57).
att(141,145).
att(31,78).
att(142,180).
att(110,52).
att(186,165).
att(176,39).
att(9,88).
att(29,190).
att(105,194).
att(187,90).
att(142,45).
att(197,36).
att(3,91).
att(182,132).
att(164,96).
att(190,37).
att(26,146).
att(133,105).
att(88,58).
att(57,68).
att(165,172).
att(65,174).
att(27,191).
att(77,169).
att(118,189).
att(49,71).
att(171,170).
att(60,67).
att(189,130).
att(73,126).
att(130,106).
att(103,54).
att(148,44).
att(198,36).
att(44,138).
att(27,80).
att(111,52).
att(25,192).
att(165,41).
att(100,116).
att(39,75).
att(16,85).
att(127,150).
att(166,137).
att(127,107).
att(113,191).
att(181,197).
att(82,60).
att(23,193).
att(154,43).
att(196,88).
att(55,69).
att(20,149).
att(56,178).
att(161,97).
att(10,88).
att(100,55).
att(149,44).
att(172,40).
att(147,101).
att(8,89).
att(76,125).
att(186,131).
att(134,47).
att(18,150).
att(92,119).
att(6,90).
att(112,52).
att(103,195).
att(30,79).
att(19,195).
att(86,59).
att(73,63).
att(125,49).
att(16,151).
att(199,191).
att(193,129).
att(129,185).
att(165,96).
att(66,129).
att(136,147).
att(157,140).
att(80,168).
att(17,196).
att(134,105).
att(95,118).
att(186,38).
att(40,75).
att(130,48).
att(154,141).
att(68,173).
att(173,135).
att(45,183).
att(29,145).
att(190,164).
att(47,137).
att(117,51).
att(151,100).
att(13,198).
att(56,69).
att(80,61).
att(116,190).
att(98,117).
att(2,158).
att(105,54).
att(122,152).
att(11,199).
att(15,86).
att(197,88).
att(9,200).
att(187,165).
att(32,189).
att(170,136).
att(174,40).
att(160,174).
att(64,130).
att(168,41).
att(177,93).
att(43,184).
att(91,200).
att(184,166).
att(68,65).
att(9,89).
att(98,56).
att(104,115).
att(25,147).
att(7,90).
att(136,47).
att(146,45).
att(82,123).
att(141,46).
att(155,99).
att(22,83).
att(91,58).
att(107,114).
att(36,77).
att(66,174).
att(41,75).
att(169,171).
att(114,52).
att(175,169).
att(106,54).
att(81,61).
att(113,112).
att(110,53).
att(23,148).
att(163,42).
att(146,179).
att(57,69).
att(28,191).
att(135,183).
att(78,62).
att(164,138).
att(49,72).
att(21,149).
att(18,85).
att(50,136).
att(147,45).
att(62,131).
att(201,127).
att(127,186).
att(142,46).
att(72,64).
att(189,38).
att(26,192).
att(16,86).
att(158,43).
att(85,60).
att(197,162).
att(149,178).
att(198,88).
att(39,186).
att(128,49).
att(115,52).
att(111,53).
att(137,147).
att(80,124).
att(47,73).
att(183,39).
att(120,153).
att(76,170).
att(129,107).
att(184,132).
att(182,92).
att(96,57).
att(124,50).
att(185,196).
att(6,91).
att(138,47).
att(89,59).
att(109,193).
att(2,93).
att(4,92).
att(143,46).
att(37,187).
att(146,144).
att(81,168).
att(122,188).
att(11,154).
att(86,166).
att(50,72).
att(76,63).
att(165,42).
att(171,41).
att(191,194).
att(200,191).
att(9,155).
att(112,156).
att(20,195).
att(39,141).
att(70,128).
att(139,104).
att(191,164).
att(5,157).
att(1,159).
att(35,78).
att(154,44).
att(28,146).
att(45,74).
att(19,85).
att(83,123).
att(120,110).
att(28,81).
att(108,54).
att(141,181).
att(191,38).
att(18,196).
att(117,111).
att(53,135).
att(114,112).
att(134,48).
att(158,175).
att(125,50).
att(144,46).
att(94,119).
att(26,147).
att(37,142).
att(56,70).
att(166,42).
att(48,73).
att(90,59).
att(74,171).
att(153,100).
att(161,174).
att(80,62).
att(121,51).
att(12,199).
att(195,89).
att(192,38).
att(144,180).
att(182,167).
att(164,173).
att(165,138).
att(44,184).
att(179,93).
att(178,134).
att(112,192).
att(31,80).
att(87,60).
att(143,103).
att(68,66).
att(173,170).
att(22,149).
att(126,50).
att(60,177).
att(100,117).
att(36,78).
att(118,154).
att(46,74).
att(29,81).
att(102,196).
att(156,44).
att(102,160).
att(103,116).
att(42,185).
att(140,104).
att(57,70).
att(180,40).
att(198,162).
att(118,52).
att(124,109).
att(138,147).
att(106,115).
att(156,141).
att(106,55).
att(27,82).
att(114,53).
att(177,199).
att(78,63).
att(201,37).
att(109,114).
att(200,88).
att(187,39).
att(150,178).
att(118,111).
att(150,143).
att(194,38).
att(71,128).
att(75,64).
att(58,178).
att(84,123).
att(137,105).
att(14,88).
att(172,136).
att(25,83).
att(32,80).
att(180,93).
att(192,90).
att(182,133).
att(29,146).
att(163,43).
att(47,74).
att(184,92).
att(8,156).
att(87,166).
att(137,48).
att(90,201).
att(134,106).
att(4,158).
att(79,125).
att(2,94).
att(107,55).
att(38,187).
att(87,122).
att(144,103).
att(111,54).
att(23,194).
att(59,133).
att(131,185).
att(158,44).
att(189,131).
att(89,60).
att(189,195).
att(182,40).
att(131,107).
att(189,165).
att(198,192).
att(35,79).
att(196,129).
att(100,161).
att(64,68).
att(45,139).
att(52,136).
att(25,148).
att(19,196).
att(82,124).
att(120,52).
att(173,95).
att(116,53).
att(162,98).
att(133,149).
att(56,71).
att(122,110).
att(57,134).
att(110,114).
att(90,165).
att(176,135).
att(34,189).
att(119,111).
att(38,78).
att(190,39).
att(85,167).
att(77,126).
att(155,100).
att(193,90).
att(197,38).
att(136,148).
att(59,70).
att(171,42).
att(125,51).
att(50,137).
att(113,192).
att(62,69).
att(77,64).
att(139,48).
att(5,93).
att(101,57).
att(3,94).
att(67,130).
att(111,157).
att(154,142).
att(121,52).
att(184,40).
att(142,146).
att(96,119).
att(160,44).
att(32,145).
att(105,56).
att(130,50).
att(108,194).
att(73,172).
att(178,41).
att(166,43).
att(15,153).
att(172,42).
att(155,45).
att(80,125).
att(135,49).
att(88,122).
att(48,138).
att(30,191).
att(121,189).
att(126,51).
att(150,46).
att(49,74).
att(129,186).
att(185,40).
att(78,170).
att(81,63).
att(129,108).
att(60,70).
att(44,76).
att(122,52).
att(199,38).
att(28,192).
att(179,41).
att(88,166).
att(70,129).
att(106,56).
att(193,164).
att(105,116).
att(91,121).
att(180,134).
att(114,54).
att(50,182).
att(136,49).
att(8,92).
att(151,46).
att(127,51).
att(71,173).
att(37,79).
att(37,143).
att(114,113).
att(4,94).
att(101,161).
att(131,150).
att(42,77).
att(99,58).
att(164,139).
att(162,44).
att(167,97).
att(180,41).
att(92,60).
att(58,134).
att(123,52).
att(103,57).
att(134,149).
att(50,74).
att(44,140).
att(96,199).
att(199,192).
att(35,80).
att(73,128).
att(61,70).
att(96,163).
att(35,144).
att(187,40).
att(196,193).
att(194,130).
att(22,195).
att(97,119).
att(184,167).
att(137,49).
att(45,76).
att(40,78).
att(76,65).
att(152,46).
att(133,107).
att(81,169).
att(67,68).
att(128,51).
att(147,47).
att(181,41).
att(20,196).
att(178,169).
att(20,151).
att(152,143).
att(26,84).
att(146,180).
att(15,89).
att(100,58).
att(81,125).
att(33,81).
att(33,145).
att(89,122).
att(130,108).
att(42,141).
att(56,72).
att(93,60).
att(158,45).
att(46,184).
att(62,177).
att(183,93).
att(127,187).
att(191,91).
att(200,162).
att(49,138).
att(11,91).
att(120,53).
att(76,127).
att(59,71).
att(116,54).
att(31,82).
att(31,146).
att(164,44).
att(191,131).
att(149,179).
att(5,94).
att(80,64).
att(148,47).
att(124,110).
att(129,51).
att(90,61).
att(176,42).
att(33,190).
att(12,200).
att(77,65).
att(84,124).
att(65,69).
att(181,134).
att(36,80).
att(118,112).
att(53,181).
att(10,156).
att(41,78).
att(101,58).
att(94,200).
att(8,157).
att(54,73).
att(47,139).
att(137,106).
att(95,120).
att(147,103).
att(161,99).
att(99,198).
att(154,46).
att(121,53).
att(176,200).
att(89,166).
att(130,186).
att(154,101).
att(200,89).
att(165,139).
att(149,47).
att(27,84).
att(177,42).
att(49,75).
att(59,134).
att(130,51).
att(132,150).
att(118,155).
att(44,77).
att(81,64).
att(102,161).
att(51,182).
att(25,85).
att(184,93).
att(72,173).
att(135,50).
att(52,74).
att(131,108).
att(66,69).
att(155,46).
att(27,193).
att(90,122).
att(138,148).
att(172,43).
att(150,47).
att(58,179).
att(2,96).
att(4,95).
att(121,154).
att(37,80).
att(95,60).
att(175,136).
att(141,147).
att(77,171).
att(131,51).
att(21,87).
att(85,63).
att(161,45).
att(25,194).
att(147,145).
att(92,165).
att(77,127).
att(167,173).
att(50,75).
att(113,157).
att(19,88).
att(82,64).
att(105,160).
att(167,44).
att(35,81).
att(170,172).
att(179,42).
att(38,188).
att(23,195).
att(141,49).
att(32,146).
att(17,153).
att(147,180).
att(146,48).
att(64,70).
att(177,95).
att(76,66).
att(89,62).
att(41,142).
att(73,67).
att(162,45).
att(33,82).
att(111,56).
att(127,152).
att(55,136).
att(47,184).
att(100,162).
att(185,93).
att(128,187).
att(189,92).
att(19,197).
att(166,98).
att(168,44).
att(11,156).
att(75,172).
att(99,119).
att(24,86).
att(174,43).
att(9,157).
att(108,159).
att(166,139).
att(93,61).
att(5,159).
att(1,161).
att(75,128).
att(83,64).
att(159,100).
att(147,48).
att(152,102).
att(124,53).
att(54,181).
att(139,183).
att(70,130).
att(85,168).
att(36,81).
att(120,54).
att(108,57).
att(174,201).
att(91,122).
att(46,77).
att(65,70).
att(169,44).
att(181,42).
att(83,125).
att(175,43).
att(158,46).
att(174,96).
att(95,200).
att(123,189).
att(160,141).
att(18,89).
att(105,196).
att(129,52).
att(163,99).
att(192,165).
att(111,158).
att(186,133).
att(111,115).
att(101,59).
att(177,200).
att(157,142).
att(27,85).
att(188,41).
att(198,90).
att(139,106).
att(94,121).
att(43,186).
att(78,127).
att(164,45).
att(154,143).
att(52,182).
att(125,53).
att(44,141).
att(182,94).
att(189,166).
att(145,146).
att(30,192).
att(35,145).
att(134,51).
att(182,42).
att(193,131).
att(186,93).
att(190,92).
att(98,163).
att(73,129).
att(60,72).
att(12,92).
att(118,191).
att(81,65).
att(186,167).
att(162,175).
att(28,193).
att(183,198).
att(93,165).
att(125,153).
att(41,187).
att(189,41).
att(114,157).
att(6,95).
att(66,70).
att(144,49).
att(145,181).
att(2,97).
att(72,68).
att(47,77).
att(42,142).
att(133,108).
att(153,102).
att(100,119).
att(18,153).
att(180,169).
att(168,173).
att(42,79).
att(102,59).
att(89,123).
att(30,84).
att(55,74).
att(88,63).
att(177,170).
att(171,44).
att(49,139).
att(135,51).
att(106,58).
att(130,109).
att(103,118).
att(71,174).
att(201,192).
att(85,64).
att(50,76).
att(108,195).
att(110,57).
att(167,139).
att(28,85).
att(117,156).
att(101,162).
att(57,180).
att(199,90).
att(103,197).
att(17,90).
att(61,72).
att(137,184).
att(150,103).
att(124,111).
att(183,94).
att(54,137).
att(76,172).
att(121,112).
att(47,140).
att(129,187).
att(115,114).
att(20,197).
att(38,144).
att(27,149).
att(48,77).
att(91,166).
att(79,127).
att(141,50).
att(156,47).
att(59,135).
att(111,57).
att(18,198).
att(1,98).
att(147,104).
att(140,183).
att(86,64).
att(146,49).
att(151,48).
att(3,97).
att(132,52).
att(35,190).
att(98,120).
att(59,73).
att(179,43).
att(112,158).
att(62,178).
att(45,141).
att(16,199).
att(143,147).
att(52,138).
att(51,76).
att(93,62).
att(83,65).
att(36,145).
att(162,46).
att(20,89).
att(157,177).
att(184,134).
att(33,191).
att(144,105).
att(190,166).
att(142,50).
att(186,42).
att(44,186).
att(21,152).
att(104,118).
att(126,153).
att(120,55).
att(43,142).
att(180,43).
att(187,167).
att(128,110).
att(184,94).
att(49,77).
att(87,64).
att(163,175).
att(60,179).
att(39,81).
att(62,134).
att(200,40).
att(198,130).
att(84,169).
att(12,93).
att(72,130).
att(138,51).
att(84,65).
att(32,84).
att(187,42).
att(119,113).
att(175,171).
att(125,54).
att(153,48).
att(37,82).
att(109,58).
att(13,156).
att(66,71).
att(134,52).
att(30,85).
att(201,40).
att(11,157).
att(200,163).
att(9,158).
att(135,150).
att(40,188).
att(177,96).
att(88,64).
att(39,144).
att(5,160).
att(130,53).
att(94,201).
att(138,184).
att(58,74).
att(138,149).
att(50,77).
att(176,44).
att(65,133).
att(195,41).
att(70,131).
att(166,99).
att(106,59).
att(45,79).
att(152,179).
att(185,94).
att(61,73).
att(175,137).
att(130,187).
att(87,168).
att(144,147).
att(165,46).
att(23,196).
att(91,123).
att(26,87).
att(82,66).
att(150,145).
att(152,103).
att(159,101).
att(129,110).
att(185,134).
att(53,76).
att(99,61).
att(79,67).
att(124,154).
att(70,175).
att(171,45).
att(142,106).
att(11,94).
att(155,178).
att(73,69).
att(141,183).
att(58,136).
att(9,95).
att(172,138).
att(43,80).
att(56,75).
att(145,50).
att(117,192).
att(155,48).
att(36,190).
att(1,99).
att(5,97).
att(117,114).
att(22,152).
att(51,139).
att(22,89).
att(100,163).
att(158,177).
att(63,134).
att(191,166).
att(107,59).
att(139,107).
att(86,65).
att(156,102).
att(111,58).
att(112,194).
att(97,121).
att(29,86).
att(33,147).
att(197,41).
att(62,73).
att(95,165).
att(136,108).
att(80,67).
att(107,196).
att(68,176).
att(151,49).
att(102,198).
att(89,124).
att(190,93).
att(167,174).
att(74,69).
att(71,70).
att(191,42).
att(179,136).
att(14,93).
att(173,172).
att(163,141).
att(160,101).
att(173,45).
att(196,131).
att(198,41).
att(136,185).
att(44,80).
att(40,144).
att(12,94).
att(136,150).
att(71,131).
att(87,65).
att(130,110).
att(112,58).
att(10,158).
att(120,56).
att(116,57).
att(142,51).
att(201,163).
att(54,138).
att(4,161).
att(2,162).
att(47,141).
att(122,155).
att(84,66).
att(176,137).
att(185,198).
att(37,83).
att(154,144).
att(115,193).
att(81,67).
att(78,172).
att(188,197).
att(47,79).
att(42,81).
att(66,72).
att(174,45).
att(140,107).
att(180,44).
att(191,196).
att(157,102).
att(91,64).
att(59,136).
att(75,69).
att(194,195).
att(109,59).
att(197,194).
att(193,132).
att(19,91).
att(87,125).
att(35,84).
att(121,56).
att(158,48).
att(187,94).
att(123,190).
att(88,65).
att(69,132).
att(134,53).
att(169,46).
att(39,189).
att(45,80).
att(147,105).
att(24,196).
att(156,178).
att(61,74).
att(181,44).
att(64,178).
att(139,52).
att(164,47).
att(21,153).
att(90,124).
att(64,73).
att(82,67).
att(34,147).
att(43,143).
att(194,42).
att(24,89).
att(76,173).
att(144,51).
att(131,110).
att(104,119).
att(50,140).
att(144,106).
att(122,56).
att(154,49).
att(3,99).
att(43,81).
att(114,58).
att(188,43).
att(162,176).
att(22,90).
att(134,186).
att(176,45).
att(81,171).
att(128,111).
att(182,44).
att(93,123).
att(89,65).
att(72,131).
att(91,167).
att(86,169).
att(165,47).
att(125,112).
att(15,156).
att(69,176).
att(113,194).
att(35,191).
att(20,91).
att(36,84).
att(158,102).
att(29,87).
att(161,142).
att(113,116).
att(16,200).
att(119,114).
att(107,60).
att(177,201).
att(171,173).
att(48,141).
att(145,51).
att(112,159).
att(171,46).
att(83,67).
att(150,50).
att(9,159).
att(103,198).
att(111,59).
att(143,148).
att(54,77).
att(93,64).
att(136,53).
att(5,161).
att(39,145).
att(74,174).
att(137,185).
att(60,136).
att(28,150).
att(77,69).
att(74,70).
att(166,47).
att(99,121).
att(12,95).
att(141,52).
att(132,54).
att(70,132).
att(183,199).
att(10,96).
att(79,172).
att(107,161).
att(6,98).
att(4,99).
att(108,60).
att(87,66).
att(116,193).
att(42,188).
att(137,53).
att(201,91).
att(154,179).
att(120,57).
att(129,153).
att(58,137).
att(51,184).
att(42,82).
att(152,104).
att(66,73).
att(81,68).
att(197,92).
att(168,140).
att(22,153).
att(55,77).
att(111,195).
att(78,69).
att(102,163).
att(198,131).
att(72,71).
att(132,187).
att(96,201).
att(132,152).
att(28,88).
att(35,85).
att(123,113).
att(147,51).
att(179,45).
att(157,49).
att(114,116).
att(58,181).
att(120,114).
att(170,99).
att(17,93).
att(101,199).
att(98,63).
att(198,42).
att(165,141).
att(129,55).
att(109,60).
att(33,148).
att(168,47).
att(135,151).
att(139,108).
att(125,56).
att(42,144).
att(149,105).
att(178,137).
att(121,156).
att(188,134).
att(23,197).
att(102,62).
att(92,167).
att(11,96).
att(163,48).
att(24,90).
att(64,74).
att(180,45).
att(7,98).
att(38,84).
att(1,101).
att(3,100).
att(105,162).
att(113,159).
att(106,61).
att(144,148).
att(70,72).
att(92,65).
att(76,70).
att(130,55).
att(10,159).
att(169,47).
att(63,179).
att(178,171).
att(133,110).
att(175,172).
att(167,100).
att(103,120).
att(71,132).
att(182,96).
att(36,191).
att(110,60).
att(6,161).
att(126,56).
att(186,95).
att(92,124).
att(194,93).
att(29,88).
att(153,104).
att(164,48).
att(118,58).
att(149,181).
att(181,45).
att(144,52).
att(109,196).
att(27,151).
att(38,146).
att(41,83).
att(46,81).
att(159,49).
att(15,201).
att(149,51).
att(138,185).
att(171,99).
att(86,67).
att(27,89).
att(122,191).
att(80,172).
att(54,78).
att(121,114).
att(65,74).
att(83,68).
att(107,61).
att(131,55).
att(45,143).
att(80,69).
att(87,126).
att(64,135).
att(36,147).
att(188,44).
att(74,131).
att(164,101).
att(100,63).
att(127,56).
att(201,42).
att(184,199).
att(23,153).
att(123,57).
att(98,122).
att(32,87).
att(119,58).
att(155,179).
att(136,54).
att(117,193).
att(187,198).
att(137,109).
att(104,62).
att(30,194).
att(73,175).
att(34,148).
att(57,138).
att(163,142).
att(21,92).
att(195,93).
att(199,194).
att(191,94).
att(134,110).
att(166,48).
att(196,132).
att(122,156).
att(28,195).
att(77,130).
att(104,120).
att(17,156).
att(66,74).
att(55,78).
att(112,60).
att(161,49).
att(157,144).
att(28,89).
att(67,134).
att(15,157).
att(156,50).
att(188,168).
att(107,119).
att(151,146).
att(85,127).
att(13,158).
att(114,159).
att(58,77).
att(91,66).
att(190,44).
att(110,118).
att(30,150).
att(125,155).
att(184,45).
att(113,117).
att(98,64).
att(71,176).
att(24,197).
att(33,87).
att(165,101).
att(170,174).
att(1,164).
att(109,61).
att(197,43).
att(162,49).
att(180,97).
att(60,137).
att(128,189).
att(22,198).
att(125,57).
att(121,58).
att(76,174).
att(99,122).
att(138,109).
att(185,45).
att(70,133).
att(150,181).
att(53,140).
att(188,95).
att(201,164).
att(109,161).
att(70,73).
att(148,106).
att(76,71).
att(131,153).
att(143,53).
att(134,55).
att(81,172).
att(139,185).
att(135,110).
att(99,64).
att(35,192).
att(59,77).
att(46,187).
att(179,201).
att(174,47).
att(123,191).
att(120,157).
att(46,82).
att(58,138).
att(158,50).
att(192,44).
att(164,142).
att(22,154).
att(27,90).
att(62,76).
att(197,132).
att(51,141).
att(34,87).
att(118,59).
att(96,65).
att(112,160).
att(129,112).
att(156,179).
att(199,43).
att(73,132).
att(166,101).
att(83,69).
att(126,113).
att(68,74).
att(53,184).
att(10,98).
att(118,193).
att(44,83).
att(142,108).
att(143,149).
att(32,88).
att(93,66).
att(149,52).
att(99,165).
att(146,148).
att(159,50).
att(154,51).
att(149,147).
att(111,61).
att(49,142).
att(134,187).
att(127,57).
att(94,167).
att(14,158).
att(174,139).
att(84,171).
att(29,195).
att(89,126).
att(149,106).
att(61,137).
att(42,84).
att(100,122).
att(145,53).
att(186,169).
att(108,197).
att(156,104).
att(174,99).
att(6,162).
att(183,170).
att(4,163).
att(103,199).
att(27,196).
att(54,140).
att(174,173).
att(201,43).
att(118,158).
att(58,182).
att(15,96).
att(101,64).
att(178,98).
att(112,61).
att(128,57).
att(132,153).
att(116,60).
att(167,101).
att(124,58).
att(49,186).
att(195,44).
att(11,98).
att(146,53).
att(97,166).
att(105,63).
att(127,113).
att(143,108).
att(135,152).
att(98,65).
att(198,93).
att(45,144).
att(1,103).
att(5,101).
att(156,51).
att(38,86).
att(124,114).
att(121,157).
att(64,136).
att(121,115).
att(64,76).
att(74,132).
att(23,154).
att(87,170).
att(21,199).
att(43,84).
att(133,56).
att(69,134).
att(172,48).
att(162,143).
att(56,183).
att(67,75).
att(178,138).
att(105,163).
att(95,66).
att(154,180).
att(196,44).
att(82,70).
att(188,135).
att(178,47).
att(36,87).
att(144,149).
att(164,102).
att(175,99).
att(157,104).
att(82,129).
att(51,81).
att(18,95).
att(138,55).
att(59,78).
att(92,67).
att(157,51).
att(137,110).
att(106,63).
att(100,165).
att(16,96).
att(173,48).
att(193,167).
att(77,131).
att(89,68).
att(45,188).
att(197,44).
att(147,107).
att(143,54).
att(127,155).
att(160,178).
att(110,62).
att(41,146).
att(186,199).
att(12,98).
att(68,178).
att(185,46).
att(190,168).
att(199,93).
att(85,171).
att(49,82).
att(103,64).
att(126,58).
att(161,103).
att(8,100).
att(195,94).
att(44,84).
att(48,143).
att(135,187).
att(9,161).
att(192,197).
att(139,55).
att(2,103).
att(4,102).
att(130,154).
att(57,79).
att(71,74).
att(110,119).
att(128,113).
att(5,163).
att(1,165).
att(166,176).
att(3,164).
att(43,189).
att(169,141).
att(125,114).
att(28,152).
att(52,185).
att(182,137).
att(116,117).
att(60,138).
att(181,171).
att(73,176).
att(172,174).
att(144,54).
att(133,153).
att(178,172).
att(175,173).
att(109,197).
att(111,62).
att(75,132).
att(165,102).
att(26,153).
att(19,95).
att(149,53).
att(104,199).
att(66,179).
att(136,152).
att(37,148).
att(138,186).
att(35,88).
att(119,60).
att(97,66).
att(140,55).
att(199,44).
att(122,157).
att(180,98).
att(24,154).
att(189,135).
att(84,70).
att(15,97).
att(83,129).
att(40,86).
att(50,82).
att(152,181).
att(200,165).
att(26,92).
att(13,98).
att(108,63).
att(136,56).
att(200,93).
att(157,145).
att(39,191).
att(106,163).
att(196,133).
att(145,149).
att(33,89).
att(154,146).
att(24,198).
att(192,95).
att(9,100).
att(78,131).
att(57,183).
att(63,137).
att(197,166).
att(155,180).
att(73,133).
att(94,125).
att(108,120).
att(194,45).
att(22,94).
att(182,47).
att(129,113).
att(86,128).
att(105,64).
att(88,69).
att(125,191).
att(173,140).
att(126,114).
att(56,140).
att(117,159).
att(137,56).
att(120,116).
att(166,102).
att(29,91).
att(144,184).
att(142,109).
att(36,88).
att(18,201).
att(166,50).
att(96,167).
att(151,53).
att(81,130).
att(191,168).
att(51,82).
att(46,188).
att(86,171).
att(183,47).
att(142,55).
att(129,58).
att(189,46).
att(188,169).
att(6,163).
att(100,123).
att(34,89).
att(66,136).
att(54,141).
att(47,144).
att(189,96).
att(104,164).
att(138,56).
att(128,190).
att(182,171).
att(170,175).
att(10,100).
att(136,111).
att(137,152).
att(163,103).
att(156,105).
att(49,83).
att(6,102).
att(2,104).
att(115,195).
att(140,151).
att(25,154).
att(123,157).
att(71,75).
att(80,72).
att(67,179).
att(60,182).
att(79,174).
att(21,95).
att(110,197).
att(30,91).
att(146,149).
att(155,146).
att(95,125).
att(23,155).
att(52,82).
att(149,148).
att(112,119).
att(167,102).
att(84,172).
att(168,50).
att(69,135).
att(19,96).
att(153,106).
att(115,160).
att(139,56).
att(123,192).
att(143,109).
att(163,51).
att(182,98).
att(98,124).
att(55,81).
att(135,57).
att(72,177).
att(15,98).
att(66,77).
att(190,96).
att(50,143).
att(58,183).
att(194,95).
att(97,67).
att(26,93).
att(115,62).
att(131,58).
att(104,65).
att(13,99).
att(69,76).
att(17,158).
att(65,180).
att(201,132).
att(118,194).
att(127,59).
att(118,159).
att(11,100).
att(58,80).
att(180,48).
att(15,159).
att(164,103).
att(110,162).
att(192,46).
att(41,147).
att(157,105).
att(154,53).
att(164,51).
att(132,154).
att(5,103).
att(126,191).
att(104,122).
att(101,66).
att(113,196).
att(11,161).
att(168,142).
att(136,57).
att(145,184).
att(48,144).
att(92,169).
att(85,129).
att(43,86).
att(112,63).
att(7,163).
att(5,164).
att(56,184).
att(64,78).
att(70,178).
att(182,201).
att(165,143).
att(131,113).
att(28,153).
att(63,181).
att(198,133).
att(154,106).
att(60,139).
att(161,104).
att(141,56).
att(155,53).
att(183,171).
att(125,115).
att(41,87).
att(199,94).
att(119,117).
att(159,145).
att(76,74).
att(178,139).
att(177,173).
att(65,137).
att(95,68).
att(53,142).
att(75,176).
att(75,133).
att(144,150).
att(156,146).
att(70,135).
att(129,190).
att(14,99).
att(200,45).
att(153,147).
att(45,189).
att(54,185).
att(99,124).
att(141,110).
att(182,48).
att(12,100).
att(171,50).
att(151,107).
att(92,69).
att(133,58).
att(151,54).
att(116,195).
att(68,179).
att(127,156).
att(95,168).
att(195,134).
att(83,130).
att(35,150).
att(6,103).
att(4,104).
att(32,91).
att(65,78).
att(125,60).
att(161,52).
att(85,172).
att(44,86).
att(90,170).
att(140,186).
att(86,71).
att(20,157).
att(180,99).
att(172,141).
att(124,192).
att(105,122).
att(183,48).
att(106,199).
att(195,46).
att(132,189).
att(80,73).
att(18,158).
att(68,136).
att(60,80).
att(19,97).
att(114,63).
att(108,121).
att(169,142).
att(111,162).
att(192,135).
att(162,52).
att(118,62).
att(17,98).
att(111,120).
att(14,160).
att(122,61).
att(63,79).
att(78,175).
att(98,167).
att(173,101).
att(199,133).
att(50,187).
att(117,118).
att(123,116).
att(160,179).
att(184,48).
att(122,158).
att(190,47).
att(61,139).
att(40,88).
att(139,57).
att(50,84).
att(88,171).
att(190,169).
att(76,133).
att(153,54).
att(179,139).
att(24,95).
att(72,76).
att(135,58).
att(71,178).
att(7,103).
att(47,145).
att(142,151).
att(104,66).
att(54,142).
att(189,136).
att(3,105).
att(27,154).
att(157,146).
att(144,56).
att(125,157).
att(38,89).
att(181,99).
att(84,130).
att(183,201).
att(92,127).
att(104,200).
att(48,85).
att(175,174).
att(178,173).
att(149,55).
att(185,98).
att(29,93).
att(156,106).
att(154,54).
att(197,95).
att(163,104).
att(186,137).
att(52,143).
att(35,194).
att(109,163).
att(109,121).
att(74,134).
att(16,99).
att(145,56).
att(116,63).
att(132,59).
att(87,129).
att(82,73).
att(131,155).
att(59,81).
att(120,62).
att(195,197).
att(14,100).
att(79,74).
att(175,50).
att(115,119).
att(43,147).
att(95,69).
att(141,186).
att(167,103).
att(10,102).
att(50,144).
att(17,159).
att(181,49).
att(6,104).
att(4,105).
att(112,197).
att(160,53).
att(32,92).
att(187,48).
att(65,79).
att(193,47).
att(137,153).
att(41,148).
att(89,71).
att(57,82).
att(67,180).
att(99,167).
att(68,78).
att(171,102).
att(30,153).
att(79,175).
att(121,62).
att(86,72).
att(194,168).
att(125,61).
att(190,97).
att(71,77).
att(151,55).
att(48,145).
att(194,96).
att(3,166).
att(182,49).
att(77,75).
att(42,88).
att(60,81).
att(89,171).
att(47,86).
att(39,149).
att(146,150).
att(188,48).
att(115,161).
att(107,122).
att(175,101).
att(103,67).
att(164,178).
att(188,170).
att(15,100).
att(114,64).
att(93,70).
att(110,121).
att(167,177).
att(26,95).
att(96,126).
att(46,146).
att(185,171).
att(40,89).
att(113,120).
att(37,150).
att(66,79).
att(11,102).
att(100,68).
att(152,55).
att(183,49).
att(70,136).
att(49,188).
att(179,173).
att(176,174).
att(9,103).
att(119,118).
att(143,57).
att(161,105).
att(118,160).
att(167,52).
att(77,176).
att(189,48).
att(183,99).
att(150,183).
att(110,163).
att(84,73).
att(111,65).
att(97,69).
att(97,168).
att(81,74).
att(22,157).
att(139,187).
att(38,90).
att(139,58).
att(58,141).
att(44,147).
att(31,93).
att(141,111).
att(201,133).
att(53,84).
att(104,67).
att(172,102).
att(199,95).
att(47,189).
att(94,70).
att(184,49).
att(36,194).
att(121,159).
att(168,143).
att(63,182).
att(131,60).
att(33,152).
att(105,165).
att(56,83).
att(91,71).
att(181,139).
att(199,196).
att(165,144).
att(16,160).
att(135,113).
att(156,181).
att(148,109).
att(41,89).
att(27,95).
att(86,130).
att(70,78).
att(49,145).
att(162,145).
att(45,190).
att(34,92).
att(132,114).
att(105,67).
att(159,146).
att(10,163).
att(116,64).
att(155,107).
att(178,140).
att(153,148).
att(145,110).
att(184,99).
att(6,165).
att(54,84).
att(126,116).
att(132,60).
att(145,185).
att(108,199).
att(123,117).
att(32,93).
att(120,118).
att(116,161).
att(23,97).
att(127,157).
att(188,98).
att(192,169).
att(76,134).
att(192,97).
att(71,136).
att(173,102).
att(30,197).
att(52,187).
att(142,111).
att(100,125).
att(21,98).
att(189,170).
att(37,91).
att(121,194).
att(186,171).
att(137,188).
att(148,184).
att(166,104).
att(155,55).
att(84,131).
att(159,106).
att(106,67).
att(117,64).
att(180,173).
att(17,100).
att(77,76).
att(36,151).
att(181,50).
att(23,157).
att(35,92).
att(78,176).
att(96,70).
att(50,188).
att(15,101).
att(106,123).
att(64,139).
att(98,168).
att(187,49).
att(169,143).
att(13,102).
att(21,158).
att(193,48).
att(170,103).
att(83,174).
att(39,193).
att(93,71).
att(88,172).
att(114,65).
att(66,80).
att(171,52).
att(71,179).
att(24,97).
att(5,106).
att(161,54).
att(185,201).
att(58,83).
att(193,97).
att(17,160).
att(163,145).
att(114,162).
att(132,190).
att(188,200).
att(142,152).
att(200,47).
att(125,158).
att(177,51).
att(143,111).
att(13,162).
att(157,181).
att(143,186).
att(194,198).
att(11,163).
att(101,125).
att(200,196).
att(178,101).
att(172,52).
att(119,195).
att(160,106).
att(196,168).
att(18,100).
att(55,186).
att(55,143).
att(167,53).
att(162,54).
att(139,59).
att(56,84).
att(96,169).
att(16,101).
att(39,150).
att(91,72).
att(150,109).
att(135,60).
att(91,171).
att(114,197).
att(14,102).
att(178,51).
att(137,113).
att(46,88).
att(131,61).
att(163,179).
att(88,73).
att(186,99).
att(12,103).
att(131,156).
att(153,56).
att(25,97).
att(10,104).
att(44,191).
att(134,114).
att(166,178).
att(46,147).
att(184,50).
att(37,151).
att(198,96).
att(53,144).
att(194,97).
att(4,107).
att(31,197).
att(105,68).
att(32,94).
att(134,155).
att(170,143).
att(70,137).
att(190,49).
att(112,163).
att(116,65).
att(122,194).
att(149,57).
att(95,71).
att(178,174).
att(122,118).
att(79,176).
att(42,192).
att(130,191).
att(154,108).
att(99,126).
att(30,95).
att(109,67).
att(124,63).
att(102,69).
att(128,62).
att(68,80).
att(140,153).
att(84,174).
att(89,73).
att(117,196).
att(164,54).
att(191,49).
att(17,101).
att(28,96).
att(161,146).
att(197,48).
att(115,162).
att(60,83).
att(74,78).
att(78,134).
att(141,187).
att(141,59).
att(158,147).
att(15,102).
att(80,76).
att(73,136).
att(172,103).
att(117,65).
att(138,113).
att(105,124).
att(65,182).
att(96,71).
att(56,143).
att(31,154).
att(191,98).
att(55,85).
att(49,189).
att(11,104).
att(94,128).
att(121,64).
att(175,52).
att(186,50).
att(133,61).
att(12,163).
att(77,177).
att(7,106).
att(160,55).
att(170,53).
att(103,69).
att(192,49).
att(189,200).
att(176,102).
att(40,150).
att(8,165).
att(187,138).
att(61,141).
att(111,122).
att(110,164).
att(132,115).
att(181,51).
att(97,127).
att(151,57).
att(100,70).
att(87,173).
att(66,139).
att(126,117).
att(76,135).
att(155,108).
att(117,120).
att(107,68).
att(123,118).
att(120,119).
att(118,65).
att(75,78).
att(71,137).
att(61,83).
att(162,106).
att(122,64).
att(29,96).
att(128,192).
att(184,139).
att(134,61).
att(97,71).
att(126,63).
att(201,134).
att(188,171).
att(56,85).
att(185,172).
att(94,72).
att(45,148).
att(54,187).
att(103,125).
att(14,103).
att(51,87).
att(165,145).
att(176,175).
att(46,89).
att(115,66).
att(179,174).
att(105,201).
att(12,104).
att(181,140).
att(32,197).
att(106,124).
att(8,106).
att(88,74).
att(74,136).
att(162,55).
att(73,79).
att(2,109).
att(4,108).
att(43,192).
att(82,76).
att(90,172).
att(183,51).
att(116,162).
att(198,135).
att(108,165).
att(30,198).
att(62,83).
att(52,188).
att(44,90).
att(50,146).
att(112,122).
att(21,100).
att(189,50).
att(65,82).
att(95,72).
att(28,199).
att(142,187).
att(146,111).
att(82,133).
att(13,163).
att(41,193).
att(41,150).
att(124,118).
att(121,119).
att(140,60).
att(66,182).
att(163,55).
att(42,91).
att(52,87).
att(109,68).
att(149,58).
att(47,89).
att(101,126).
att(71,80).
att(89,74).
att(197,97).
att(98,169).
att(108,200).
att(190,50).
att(28,156).
att(39,151).
att(77,78).
att(195,169).
att(196,49).
att(145,59).
att(113,67).
att(160,107).
att(104,125).
att(93,129).
att(55,86).
att(162,180).
att(63,83).
att(122,160).
att(71,180).
att(96,72).
att(164,55).
att(121,195).
att(37,195).
att(150,58).
att(182,140).
att(121,65).
att(189,171).
att(93,73).
att(103,70).
att(125,64).
att(171,104).
att(38,93).
att(129,192).
att(75,136).
att(133,62).
att(110,123).
att(197,49).
att(163,146).
att(142,153).
att(76,178).
att(157,108).
att(171,177).
att(155,57).
att(22,159).
att(53,87).
att(160,147).
att(43,91).
att(55,187).
att(114,67).
att(46,191).
att(160,56).
att(116,121).
att(154,149).
att(84,76).
att(18,102).
att(186,51).
att(81,77).
att(125,118).
att(107,69).
att(122,119).
att(51,146).
att(96,170).
att(117,162).
att(62,184).
att(83,133).
att(151,58).
att(192,50).
att(18,161).
att(91,172).
att(154,109).
att(138,61).
att(198,49).
att(63,141).
att(122,65).
att(181,52).
att(78,135).
att(111,68).
att(130,63).
att(179,102).
att(53,188).
att(14,163).
att(74,179).
att(59,85).
att(6,108).
att(2,110).
att(4,109).
att(120,161).
att(173,143).
att(94,129).
att(86,132).
att(10,165).
att(39,93).
att(88,75).
att(134,156).
att(67,182).
att(152,58).
att(85,76).
att(29,156).
att(172,104).
att(42,193).
att(44,91).
att(82,77).
att(49,89).
att(170,144).
att(61,142).
att(99,169).
att(21,101).
att(135,115).
att(165,106).
att(51,189).
att(157,57).
att(135,62).
att(111,123).
att(37,94).
att(54,145).
att(114,122).
att(146,186).
att(176,103).
att(40,194).
att(193,170).
att(17,103).
att(107,166).
att(68,82).
att(115,163).
att(144,60).
att(143,153).
att(92,74).
att(100,127).
att(145,112).
att(153,58).
att(183,52).
att(155,109).
att(161,147).
att(71,81).
att(146,152).
att(59,143).
att(36,153).
att(158,148).
att(23,159).
att(122,195).
att(84,133).
att(162,107).
att(140,61).
att(149,151).
att(197,198).
att(74,80).
att(187,172).
att(200,197).
att(155,149).
att(190,138).
att(149,185).
att(92,130).
att(77,178).
att(40,93).
att(124,65).
att(103,126).
att(7,108).
att(181,174).
att(132,63).
att(163,56).
att(173,54).
att(64,141).
att(178,175).
att(5,109).
att(24,100).
att(168,55).
att(45,91).
att(129,158).
att(74,137).
att(110,165).
att(82,176).
att(36,196).
att(47,191).
att(145,60).
att(70,181).
att(192,99).
att(166,106).
att(50,147).
att(200,97).
att(20,102).
att(112,199).
att(159,57).
att(43,92).
att(34,197).
att(48,90).
att(72,81).
att(90,75).
att(174,54).
att(137,62).
att(13,164).
att(125,65).
att(169,55).
att(82,134).
att(133,191).
att(133,63).
att(75,179).
att(115,122).
att(16,104).
att(113,164).
att(194,137).
att(100,72).
att(81,78).
att(118,121).
att(7,167).
att(124,119).
att(121,120).
att(64,84).
att(48,148).
att(155,58).
att(55,145).
att(158,182).
att(144,187).
att(163,107).
att(100,169).
att(68,182).
att(61,185).
att(191,51).
att(80,177).
att(180,53).
att(97,73).
att(34,96).
att(124,160).
att(185,101).
att(197,50).
att(8,108).
att(143,113).
att(95,171).
att(161,181).
att(90,173).
att(111,69).
att(52,189).
att(174,104).
att(189,100).
att(108,166).
att(136,190).
att(194,170).
att(126,65).
att(186,52).
att(23,101).
att(147,152).
att(46,149).
att(193,99).
att(164,180).
att(147,186).
att(156,149).
att(201,97).
att(197,98).
att(153,150).
att(73,180).
att(160,108).
att(191,171).
att(156,58).
att(62,85).
att(192,51).
att(59,186).
att(110,200).
att(198,136).
att(108,70).
att(178,103).
att(96,129).
att(103,168).
att(26,201).
att(88,132).
att(143,61).
att(98,73).
att(17,104).
att(139,189).
att(195,199).
att(20,161).
att(111,165).
att(39,195).
att(98,170).
att(157,109).
att(127,65).
att(131,64).
att(131,192).
att(18,162).
att(193,51).
att(125,119).
att(13,106).
att(60,86).
att(71,82).
att(148,60).
att(71,181).
att(172,144).
att(11,107).
att(185,140).
att(102,72).
att(162,57).
att(64,184).
att(14,164).
att(102,127).
att(55,88).
att(109,70).
att(77,80).
att(167,56).
att(172,55).
att(3,111).
att(144,61).
att(194,99).
att(198,98).
att(10,166).
att(156,183).
att(201,168).
att(99,73).
att(113,199).
att(126,194).
att(4,169).
att(31,98).
att(183,53).
att(200,50).
att(125,160).
att(182,141).
att(132,64).
att(58,87).
att(149,60).
att(163,147).
att(198,169).
att(151,111).
att(81,177).
att(53,89).
att(81,135).
att(148,152).
att(38,153).
att(154,150).
att(86,175).
att(135,116).
att(61,86).
att(172,105).
att(162,181).
att(179,142).
att(71,139).
att(16,105).
att(158,109).
att(195,51).
att(87,77).
att(114,123).
att(132,117).
att(187,101).
att(84,78).
att(53,189).
att(125,66).
att(12,107).
att(34,97).
att(133,64).
att(23,160).
att(191,100).
att(176,143).
att(46,92).
att(114,69).
att(189,172).
att(104,168).
att(84,134).
att(52,147).
att(190,52).
att(120,162).
att(174,55).
att(60,186).
att(145,113).
att(4,111).
att(67,84).
att(97,74).
att(169,56).
att(67,183).
att(21,161).
att(92,131).
att(59,87).
att(64,142).
att(118,68).
att(103,127).
att(34,155).
att(79,136).
att(177,176).
att(111,200).
att(173,144).
att(94,75).
att(162,108).
att(19,162).
att(51,190).
att(151,185).
att(185,53).
att(27,201).
att(44,93).
att(142,62).
att(124,195).
att(106,126).
att(170,145).
att(137,156).
att(123,161).
att(76,81).
att(88,77).
att(180,54).
att(199,198).
att(32,156).
att(37,96).
att(132,192).
att(191,52).
att(139,115).
att(184,102).
att(72,181).
att(175,55).
att(58,187).
att(170,56).
att(107,167).
att(13,165).
att(140,155).
att(167,146).
att(197,51).
att(193,138).
att(108,71).
att(28,100).
att(159,109).
att(42,94).
att(62,143).
att(30,157).
att(147,61).
att(112,124).
att(156,59).
att(119,197).
att(149,112).
att(119,68).
att(35,97).
att(192,100).
att(157,183).
att(77,179).
att(161,148).
att(146,153).
att(200,136).
att(67,141).
att(48,149).
att(102,169).
att(90,132).
att(196,99).
att(149,152).
att(177,104).
att(161,58).
att(127,119).
att(139,63).
att(7,110).
att(40,95).
att(127,66).
att(56,188).
att(135,191).
att(1,113).
att(5,111).
att(146,113).
att(131,65).
att(74,82).
att(190,139).
att(55,89).
att(70,182).
att(89,77).
att(26,159).
att(45,93).
att(63,86).
att(87,175).
att(196,170).
att(116,69).
att(86,78).
att(181,103).
att(85,134).
att(187,53).
att(177,143).
att(148,61).
att(93,131).
att(37,154).
att(163,181).
att(143,114).
att(132,158).
att(193,171).
att(120,68).
att(99,74).
att(20,104).
att(144,62).
att(122,196).
att(166,180).
att(174,144).
att(105,168).
att(177,55).
att(70,140).
att(113,70).
att(106,72).
att(96,75).
att(48,92).
att(130,193).
att(44,151).
att(36,97).
att(88,133).
att(160,109).
att(132,65).
att(110,125).
att(58,145).
att(68,183).
att(193,100).
att(100,170).
att(80,178).
att(181,175).
att(197,99).
att(150,112).
att(201,98).
att(158,59).
att(149,61).
att(138,156).
att(178,104).
att(30,200).
att(124,161).
att(194,138).
att(184,141).
att(87,78).
att(168,146).
att(56,89).
att(110,71).
att(152,185).
att(81,80).
att(99,129).
att(10,109).
att(131,118).
att(163,58).
att(16,164).
att(145,62).
att(178,55).
att(125,120).
att(147,113).
att(171,106).
att(116,164).
att(31,157).
att(194,200).
att(73,139).
att(23,103).
att(102,128).
att(197,199).
att(39,96).
att(59,88).
att(155,184).
att(137,64).
att(10,167).
att(159,149).
att(156,150).
att(21,104).
att(150,61).
att(195,52).
att(50,191).
att(94,76).
att(118,69).
att(30,100).
att(144,188).
att(158,183).
att(200,169).
att(62,87).
att(104,73).
att(190,101).
att(39,196).
att(19,105).
att(91,77).
att(179,55).
att(120,197).
att(130,159).
att(178,143).
att(146,62).
att(141,115).
att(194,100).
att(79,81).
att(98,171).
att(81,136).
att(82,80).
att(155,60).
att(108,126).
att(142,63).
att(66,142).
att(197,170).
att(126,67).
att(93,173).
att(188,140).
att(133,158).
att(138,64).
att(48,192).
att(130,66).
att(37,197).
att(35,98).
att(134,65).
att(111,125).
att(64,185).
att(147,187).
att(98,75).
att(164,181).
att(11,109).
att(122,162).
att(180,55).
att(172,145).
att(136,157).
att(119,69).
att(158,110).
att(95,76).
att(148,113).
att(24,103).
att(195,138).
att(52,148).
att(191,53).
att(120,122).
att(185,141).
att(105,73).
att(84,135).
att(123,121).
att(46,193).
att(45,94).
att(123,68).
att(123,196).
att(150,186).
att(34,156).
att(63,87).
att(22,104).
att(127,67).
att(69,183).
att(179,176).
att(145,114).
att(103,128).
att(142,155).
att(166,147).
att(155,111).
att(96,172).
att(181,55).
att(58,89).
att(86,176).
att(57,146).
att(195,100).
att(50,149).
att(15,165).
att(118,198).
att(44,194).
att(192,139).
att(176,56).
att(169,107).
att(162,109).
att(87,134).
att(95,131).
att(53,91).
att(151,152).
att(13,166).
att(31,200).
att(11,167).
att(113,200).
att(179,143).
att(72,84).
att(5,170).
att(12,109).
att(104,169).
att(162,59).
att(195,200).
att(128,67).
att(131,159).
att(48,150).
att(34,99).
att(56,90).
att(132,66).
att(136,65).
att(153,61).
att(173,106).
att(189,140).
att(77,138).
att(78,82).
att(8,111).
att(90,133).
att(159,110).
att(46,94).
att(193,53).
att(115,124).
att(117,70).
att(84,80).
att(112,166).
att(159,183).
att(145,188).
att(121,122).
att(149,62).
att(173,145).
att(162,182).
att(177,105).
att(146,114).
att(72,182).
att(196,100).
att(156,111).
att(30,101).
att(129,194).
att(129,67).
att(133,66).
att(116,199).
att(22,162).
att(17,107).
att(200,52).
att(126,161).
att(79,82).
att(143,155).
att(150,62).
att(153,112).
att(111,72).
att(171,179).
att(88,134).
att(35,99).
att(56,189).
att(13,109).
att(151,186).
att(101,75).
att(161,149).
att(140,190).
att(149,153).
att(11,110).
att(124,196).
att(184,55).
att(158,150).
att(137,117).
att(97,172).
att(68,86).
att(126,68).
att(180,143).
att(83,136).
att(42,153).
att(169,58).
att(179,56).
att(155,61).
att(1,115).
att(99,130).
att(150,113).
att(134,118).
att(138,65).
att(91,133).
att(119,123).
att(55,91).
att(45,95).
att(22,105).
att(74,84).
att(8,169).
att(54,190).
att(132,159).
att(177,144).
att(105,74).
att(2,172).
att(40,154).
att(105,169).
att(77,83).
att(32,200).
att(121,163).
att(86,80).
att(147,63).
att(164,109).
att(197,138).
att(180,56).
att(127,195).
att(105,128).
att(143,64).
att(193,201).
att(43,195).
att(100,171).
att(30,201).
att(116,71).
att(48,94).
att(160,183).
att(191,54).
att(99,76).
att(66,143).
att(85,177).
att(146,188).
att(25,161).
att(108,127).
att(14,109).
att(27,103).
att(152,62).
att(72,85).
att(96,77).
att(196,171).
att(161,110).
att(168,147).
att(73,182).
att(41,196).
att(10,111).
att(106,74).
att(122,197).
att(56,91).
att(75,84).
att(45,152).
att(59,146).
att(124,69).
att(166,181).
att(165,148).
att(138,191).
att(87,80).
att(179,105).
att(128,68).
att(100,130).
att(84,136).
att(117,124).
att(32,101).
att(39,98).
att(132,67).
att(78,180).
att(117,199).
att(120,123).
att(67,87).
att(123,122).
att(153,62).
att(43,153).
att(172,107).
att(17,165).
att(130,160).
att(178,177).
att(54,92).
att(98,172).
att(152,186).
att(57,189).
att(182,56).
att(149,63).
att(73,85).
att(13,167).
att(114,72).
att(133,159).
att(106,128).
att(11,168).
att(133,193).
att(15,109).
att(30,159).
att(91,79).
att(79,83).
att(175,145).
att(199,53).
att(188,141).
att(35,100).
att(106,169).
att(104,75).
att(3,172).
att(188,55).
att(35,199).
att(118,71).
att(46,194).
att(55,190).
att(114,166).
att(9,112).
att(168,59).
att(199,100).
att(67,143).
att(7,113).
att(152,113).
att(5,114).
att(68,87).
att(3,115).
att(112,126).
att(180,105).
att(122,70).
att(40,98).
att(101,171).
att(33,200).
att(81,179).
att(128,195).
att(55,92).
att(146,64).
att(96,173).
att(22,106).
att(101,130).
att(130,68).
att(142,65).
att(63,89).
att(124,122).
att(197,171).
att(109,168).
att(147,188).
att(166,109).
att(117,165).
att(20,107).
att(155,62).
att(77,84).
att(164,182).
att(74,182).
att(18,108).
att(104,129).
att(29,103).
att(157,151).
att(35,157).
att(60,188).
att(42,196).
att(167,181).
att(160,61).
att(36,100).
att(191,173).
att(104,170).
att(150,187).
att(58,147).
att(107,128).
att(147,64).
att(120,164).
att(165,60).
att(112,167).
att(199,138).
att(10,112).
att(131,68).
att(40,197).
att(181,105).
att(118,199).
att(110,127).
att(25,105).
att(6,114).
att(42,154).
att(2,116).
att(56,92).
att(63,145).
att(176,145).
att(14,167).
att(46,96).
att(83,137).
att(75,85).
att(120,71).
att(64,89).
att(106,75).
att(137,118).
att(23,106).
att(152,63).
att(142,190).
att(49,193).
att(113,201).
att(174,107).
att(160,111).
att(56,148).
att(39,99).
att(134,119).
att(116,125).
att(8,170).
att(38,198).
att(67,88).
att(59,91).
att(156,185).
att(134,193).
att(186,142).
att(189,103).
att(125,122).
att(186,56).
att(44,97).
att(19,108).
att(54,93).
att(117,72).
att(197,54).
att(181,57).
att(70,87).
att(100,77).
att(147,115).
att(27,161).
att(56,190).
att(17,109).
att(157,112).
att(143,156).
att(167,148).
att(47,152).
att(197,101).
att(82,179).
att(121,198).
att(201,100).
att(164,149).
att(66,144).
att(42,98).
att(144,116).
att(94,79).
att(110,168).
att(114,73).
att(193,140).
att(34,200).
att(152,153).
att(158,151).
att(129,161).
att(155,152).
att(47,96).
att(79,84).
att(187,56).
att(129,195).
att(45,195).
att(89,135).
att(172,59).
att(182,57).
att(158,62).
att(1,117).
att(3,116).
att(59,147).
att(75,182).
att(32,201).
att(198,200).
att(141,66).
att(60,91).
att(111,74).
att(201,199).
att(105,170).
att(168,181).
att(193,55).
att(34,158).
att(190,141).
att(22,107).
att(45,97).
att(100,131).
att(55,93).
att(43,196).
att(50,95).
att(80,180).
att(31,103).
att(17,166).
att(186,175).
att(63,90).
att(135,159).
att(194,102).
att(183,176).
att(180,177).
att(15,167).
att(126,70).
att(174,146).
att(77,85).
att(124,163).
att(138,158).
att(105,76).
att(11,169).
att(154,186).
att(134,68).
att(119,199).
att(36,101).
att(53,94).
att(119,72).
att(171,147).
att(59,189).
att(112,74).
att(106,129).
att(145,116).
att(5,172).
att(141,157).
att(12,112).
att(102,77).
att(200,54).
att(169,60).
att(155,113).
att(82,138).
att(127,162).
att(184,143).
att(184,57).
att(187,104).
att(67,144).
att(151,64).
att(103,171).
att(135,193).
att(77,140).
att(147,155).
att(116,73).
att(98,132).
att(112,127).
att(23,107).
att(64,90).
att(160,184).
att(57,190).
att(83,179).
att(98,173).
att(152,114).
att(135,68).
att(111,168).
att(115,126).
att(88,177).
att(21,108).
att(81,84).
att(90,81).
att(84,83).
att(180,106).
att(53,150).
att(163,183).
att(121,124).
att(130,121).
att(124,123).
att(127,122).
att(196,172).
att(103,77).
att(149,115).
att(65,145).
att(35,158).
att(130,195).
att(166,182).
att(70,88).
att(184,105).
att(166,110).
att(75,141).
att(62,91).
att(110,75).
att(148,65).
att(198,139).
att(136,159).
att(58,148).
att(13,112).
att(69,185).
att(35,102).
att(140,67).
att(188,104).
att(101,172).
att(81,180).
att(156,113).
att(26,106).
att(16,167).
att(175,179).
att(9,114).
att(52,95).
att(177,107).
att(181,177).
att(79,85).
att(42,155).
att(125,163).
att(5,116).
att(91,81).
att(86,178).
att(82,84).
att(192,103).
att(85,83).
att(24,107).
att(153,64).
att(12,169).
att(33,103).
att(83,138).
att(40,100).
att(170,109).
att(125,71).
att(169,148).
att(140,118).
att(109,169).
att(185,143).
att(153,114).
att(195,140).
att(117,166).
att(8,171).
att(56,149).
att(74,183).
att(166,149).
att(145,156).
att(29,161).
att(55,94).
att(42,197).
att(60,189).
att(50,96).
att(71,88).
att(101,78).
att(120,199).
att(158,63).
att(137,68).
att(134,120).
att(151,154).
att(63,91).
att(157,152).
att(74,87).
att(177,59).
att(174,108).
att(79,181).
att(198,55).
att(167,110).
att(108,76).
att(131,161).
att(43,99).
att(115,201).
att(58,93).
att(136,193).
att(112,168).
att(66,90).
att(80,85).
att(92,81).
att(84,179).
att(200,171).
att(66,145).
att(193,56).
att(179,145).
att(150,65).
att(147,189).
att(12,113).
att(76,141).
att(23,164).
att(188,57).
att(69,89).
att(193,103).
att(199,139).
att(119,73).
att(8,115).
att(61,92).
att(45,154).
att(34,103).
att(142,67).
att(199,55).
att(4,117).
att(102,78).
att(178,59).
att(164,111).
att(123,164).
att(89,136).
att(59,148).
att(52,151).
att(194,173).
att(77,182).
att(99,79).
att(150,188).
att(109,76).
att(194,56).
att(170,181).
att(84,138).
att(127,71).
att(151,65).
att(170,148).
att(82,180).
att(81,85).
att(135,120).
att(186,105).
att(63,188).
att(59,93).
att(19,110).
att(30,105).
att(179,178).
att(67,90).
att(200,55).
att(197,201).
att(184,58).
att(97,174).
att(50,152).
att(34,201).
att(179,59).
att(87,178).
att(37,102).
att(139,68).
att(92,176).
att(11,170).
att(103,131).
att(142,191).
att(41,156).
att(30,161).
att(28,106).
att(183,144).
att(158,152).
att(155,153).
att(134,194).
att(194,103).
att(158,113).
att(35,103).
att(110,76).
att(170,61).
att(28,162).
att(117,74).
att(9,115).
att(82,139).
att(7,116).
att(76,87).
att(97,80).
att(67,145).
att(180,145).
att(145,190).
att(109,129).
att(40,101).
att(136,69).
att(52,193).
att(82,85).
att(140,68).
att(100,173).
att(121,73).
att(85,84).
att(85,179).
att(135,160).
att(177,146).
att(37,158).
att(24,164).
att(187,105).
att(73,184).
att(115,127).
att(171,61).
att(59,190).
att(169,110).
att(186,58).
att(66,187).
att(101,79).
att(63,92).
att(111,76).
att(18,111).
att(118,74).
att(50,194).
att(133,121).
att(121,125).
att(93,135).
att(29,106).
att(195,173).
att(20,166).
att(39,199).
att(70,144).
att(58,94).
att(137,69).
att(14,113).
att(167,62).
att(199,102).
att(95,81).
att(108,77).
att(140,192).
att(51,152).
att(33,160).
att(12,114).
att(189,175).
att(16,168).
att(88,137).
att(172,61).
att(48,195).
att(37,200).
att(177,179).
att(107,130).
att(14,169).
att(183,177).
att(41,101).
att(126,72).
att(2,119).
att(150,155).
att(111,169).
att(12,170).
att(153,154).
att(156,114).
att(10,171).
att(198,201).
att(143,118).
att(56,95).
att(8,172).
att(72,89).
att(201,200).
att(51,97).
att(35,201).
att(56,150).
att(143,191).
att(78,141).
att(177,108).
att(73,143).
att(39,102).
att(21,110).
att(159,64).
att(127,197).
att(157,186).
att(123,73).
att(109,77).
att(135,194).
att(122,165).
att(116,127).
att(19,111).
att(27,163).
att(116,75).
att(178,60).
att(183,59).
att(102,132).
att(47,154).
att(90,83).
att(38,158).
att(49,98).
att(127,72).
att(160,185).
att(28,107).
att(175,147).
att(160,113).
att(66,146).
att(198,140).
att(120,74).
att(113,76).
att(81,140).
att(169,62).
att(91,177).
att(147,67).
att(139,159).
att(105,131).
att(42,101).
att(167,111).
att(103,79).
att(199,172).
att(185,106).
att(71,144).
att(36,159).
att(139,69).
att(76,142).
att(172,148).
att(74,184).
att(57,95).
att(7,117).
att(142,158).
att(117,167).
att(3,119).
att(52,97).
att(60,190).
att(166,183).
att(97,134).
att(52,152).
att(24,109).
att(156,65).
att(33,105).
att(117,75).
att(185,144).
att(40,102).
att(79,87).
att(195,141).
att(111,129).
att(82,86).
att(152,66).
att(164,112).
att(163,151).
att(60,94).
att(107,78).
att(88,84).
att(84,139).
att(154,115).
att(114,128).
att(121,74).
att(125,198).
att(141,192).
att(161,64).
att(190,58).
att(69,145).
att(144,68).
att(131,162).
att(114,76).
att(84,180).
att(175,61).
att(140,69).
att(181,178).
att(57,150).
att(74,143).
att(71,90).
att(72,185).
att(201,56).
att(49,195).
att(63,93).
att(38,200).
att(192,142).
att(30,162).
att(103,132).
att(129,123).
att(129,72).
att(48,99).
att(123,165).
att(12,115).
att(28,163).
att(171,62).
att(36,201).
att(148,117).
att(137,160).
att(176,147).
att(199,140).
att(162,64).
att(47,196).
att(8,117).
att(158,186).
att(176,61).
att(6,118).
att(25,109).
att(4,119).
att(89,84).
att(181,60).
att(136,194).
att(72,144).
att(77,142).
att(70,186).
att(63,189).
att(126,164).
att(24,165).
att(97,175).
att(142,119).
att(53,152).
att(110,170).
att(183,107).
att(119,75).
att(196,141).
att(164,184).
att(177,61).
att(115,128).
att(75,184).
att(65,147).
att(44,101).
att(134,71).
att(118,127).
att(37,104).
att(80,141).
att(49,99).
att(81,87).
att(70,145).
att(54,97).
att(68,187).
att(43,198).
att(183,145).
att(133,122).
att(116,76).
att(90,84).
att(159,65).
att(124,125).
att(132,162).
att(16,169).
att(52,194).
att(70,91).
att(191,105).
att(42,102).
att(62,94).
att(11,116).
att(188,176).
att(176,180).
att(42,157).
att(12,171).
att(188,59).
att(5,119).
att(47,100).
att(95,176).
att(195,104).
att(183,60).
att(151,67).
att(73,185).
att(59,191).
att(200,140).
att(135,71).
att(6,174).
att(65,93).
att(33,106).
att(147,68).
att(4,175).
att(66,188).
att(143,69).
att(190,143).
att(124,165).
att(50,195).
att(40,158).
att(169,63).
att(73,144).
att(97,82).
att(138,160).
att(39,200).
att(143,119).
att(116,168).
att(117,76).
att(31,107).
att(179,61).
att(103,173).
att(47,155).
att(116,128).
att(57,192).
att(197,141).
att(48,196).
att(29,108).
att(132,72).
att(144,158).
att(121,75).
att(63,94).
att(200,57).
att(134,122).
att(98,175).
att(148,68).
att(122,126).
att(162,185).
att(201,172).
att(131,123).
att(14,115).
att(144,69).
att(111,170).
att(27,109).
att(105,132).
att(181,108).
att(196,104).
att(10,117).
att(111,78).
att(175,62).
att(156,154).
att(46,197).
att(98,82).
att(59,150).
att(80,88).
att(157,66).
att(76,184).
att(185,60).
att(34,106).
att(52,153).
att(95,83).
att(174,110).
att(34,161).
att(166,64).
att(97,135).
att(147,118).
att(61,95).
att(201,57).
att(181,146).
att(153,67).
att(151,189).
att(64,148).
att(56,97).
att(111,130).
att(144,119).
att(15,170).
att(101,174).
att(141,70).
att(162,65).
att(119,201).
att(53,194).
att(100,134).
att(50,154).
att(79,142).
att(178,109).
att(74,144).
att(181,61).
att(30,108).
att(102,81).
att(41,158).
att(171,111).
att(112,78).
att(125,165).
att(154,116).
att(1,177).
att(143,192).
att(59,96).
att(138,121).
att(167,64).
att(42,199).
att(78,89).
att(99,82).
att(109,171).
att(130,73).
att(49,100).
att(103,133).
att(123,126).
att(182,108).
att(28,164).
att(157,187).
att(13,116).
att(84,87).
att(134,72).
att(172,63).
att(197,58).
att(150,68).
att(39,159).
att(138,71).
att(70,92).
att(146,69).
att(142,70).
att(9,118).
att(106,132).
att(182,61).
att(187,60).
att(3,121).
att(166,151).
att(148,157).
att(122,200).
att(148,118).
att(24,111).
att(52,99).
att(163,152).
att(151,156).
att(58,192).
att(195,142).
att(160,153).
att(154,155).
att(109,131).
att(40,104).
att(65,94).
att(120,76).
att(130,197).
att(173,63).
att(182,146).
att(112,130).
att(45,102).
att(60,96).
att(135,72).
att(20,113).
att(165,113).
att(68,93).
att(147,69).
att(55,98).
att(94,84).
att(124,75).
att(44,157).
att(85,87).
att(91,85).
att(115,129).
att(196,174).
att(88,86).
att(198,104).
att(18,169).
att(80,142).
att(93,137).
att(169,183).
att(118,128).
att(71,92).
att(107,80).
att(152,189).
att(133,123).
att(190,176).
att(104,133).
att(130,124).
att(156,67).
att(12,117).
att(74,91).
att(104,81).
att(121,76).
att(48,101).
att(176,110).
att(31,163).
att(189,144).
att(97,176).
att(169,112).
att(45,198).
att(165,65).
att(8,119).
att(179,62).
att(136,72).
att(77,90).
att(101,82).
att(184,61).
att(34,107).
att(120,201).
att(41,104).
att(155,188).
att(49,155).
att(143,159).
att(111,79).
att(80,89).
att(118,168).
att(29,164).
att(83,88).
att(69,93).
att(180,109).
att(32,108).
att(68,188).
att(129,74).
att(51,100).
att(108,80).
att(195,105).
att(27,165).
att(128,198).
att(149,157).
att(91,138).
att(195,59).
att(113,130).
att(38,160).
att(158,154).
att(122,76).
att(64,95).
att(184,108).
att(147,191).
att(86,140).
att(141,71).
att(66,148).
att(137,122).
att(73,186).
att(54,99).
att(78,90).
att(36,161).
att(13,117).
att(45,157).
att(71,146).
att(119,77).
att(81,89).
att(131,124).
att(96,84).
att(42,104).
att(131,197).
att(9,119).
att(150,190).
att(52,154).
att(109,80).
att(191,60).
att(34,162).
att(1,123).
att(3,122).
att(186,61).
att(167,65).
att(78,184).
att(57,98).
att(123,76).
att(52,100).
att(108,132).
att(33,108).
att(64,149).
att(103,174).
att(40,105).
att(142,71).
att(146,70).
att(173,182).
att(174,149).
att(22,113).
att(84,141).
att(111,131).
att(126,199).
att(185,178).
att(113,79).
att(177,63).
att(144,159).
att(20,114).
att(185,108).
att(100,135).
att(9,174).
att(187,145).
att(100,83).
att(134,196).
att(192,60).
att(159,67).
att(119,168).
att(197,142).
att(29,110).
att(110,80).
att(155,68).
att(76,185).
att(135,73).
att(121,201).
att(138,122).
att(124,76).
att(48,156).
att(14,117).
att(120,128).
att(139,72).
att(63,96).
att(147,70).
att(55,153).
att(27,111).
att(107,81).
att(198,59).
att(26,166).
att(133,163).
att(122,167).
att(58,98).
att(81,183).
att(193,60).
att(106,133).
att(6,121).
att(183,62).
att(188,61).
att(160,67).
att(46,157).
att(86,181).
att(136,162).
att(90,139).
att(201,173).
att(98,136).
att(22,168).
att(42,200).
att(46,103).
att(191,144).
att(69,94).
att(21,114).
att(165,66).
att(92,86).
att(20,169).
att(198,174).
att(112,131).
att(145,120).
att(51,196).
att(85,141).
att(140,194).
att(72,93).
att(30,110).
att(101,135).
att(79,184).
att(190,107).
att(129,75).
att(161,67).
att(142,121).
att(17,116).
att(165,114).
att(170,65).
att(16,171).
att(51,155).
att(172,150).
att(37,107).
att(155,117).
att(139,122).
att(118,129).
att(59,98).
att(15,117).
att(28,111).
att(157,68).
att(58,193).
att(42,159).
att(169,151).
att(54,100).
att(12,173).
att(121,128).
att(67,95).
att(104,134).
att(186,178).
att(133,124).
att(124,127).
att(166,152).
att(89,180).
att(11,119).
att(88,140).
att(130,125).
att(198,105).
att(8,175).
att(143,193).
att(35,108).
att(42,105).
att(99,84).
att(141,72).
att(149,70).
att(185,146).
att(6,176).
att(180,63).
att(4,177).
att(7,121).
att(96,137).
att(1,124).
att(190,61).
att(3,123).
att(96,85).
att(62,97).
att(135,196).
att(93,86).
att(40,160).
att(90,87).
att(47,103).
att(171,65).
att(52,101).
att(130,75).
att(33,109).
att(149,119).
att(78,144).
att(73,146).
att(187,108).
att(27,166).
att(123,167).
att(159,116).
att(99,136).
att(91,139).
att(123,77).
att(106,82).
att(47,157).
att(160,187).
att(82,183).
att(20,115).
att(76,92).
att(102,175).
att(192,144).
att(45,104).
att(137,162).
att(138,73).
att(191,61).
att(60,98).
att(186,62).
att(38,107).
att(50,102).
att(97,177).
att(173,112).
att(113,80).
att(195,106).
att(163,186).
att(100,84).
att(126,166).
att(36,162).
att(29,111).
att(140,161).
att(82,90).
att(94,138).
att(85,89).
att(21,169).
att(110,172).
att(71,147).
att(94,86).
att(91,87).
att(189,145).
att(36,108).
att(71,94).
att(118,169).
att(27,112).
att(52,155).
att(19,170).
att(34,163).
att(68,189).
att(125,127).
att(10,120).
att(135,74).
att(124,77).
att(125,200).
att(196,175).
att(74,93).
att(4,123).
att(170,113).
att(141,194).
att(43,159).
att(34,109).
att(188,108).
att(97,137).
att(77,92).
att(173,65).
att(23,114).
att(190,177).
att(164,67).
att(121,168).
att(114,80).
att(84,142).
att(187,178).
att(57,153).
att(184,179).
att(61,98).
att(80,91).
att(101,84).
att(90,180).
att(21,115).
att(1,179).
att(51,102).
att(198,60).
att(66,190).
att(92,139).
att(86,89).
att(183,63).
att(144,193).
att(19,116).
att(92,87).
att(174,112).
att(188,62).
att(30,111).
att(144,121).
att(114,131).
att(64,97).
att(200,105).
att(17,117).
att(44,105).
att(140,73).
att(152,70).
att(136,196).
att(78,185).
att(39,161).
att(117,130).
att(55,154).
att(165,67).
att(59,99).
att(75,93).
att(138,162).
att(48,198).
att(67,149).
att(103,175).
att(11,120).
att(179,64).
att(71,188).
att(178,111).
att(161,187).
att(64,191).
att(132,125).
att(9,121).
att(72,147).
att(42,106).
att(102,84).
att(7,122).
att(184,63).
att(5,123).
att(98,177).
att(189,62).
att(88,181).
att(174,150).
att(46,199).
att(144,160).
att(111,172).
att(33,110).
att(153,70).
att(52,102).
att(200,174).
att(175,65).
att(20,170).
att(76,186).
att(149,71).
att(40,107).
att(147,159).
att(22,115).
att(73,94).
att(109,82).
att(44,159).
att(200,60).
att(18,171).
att(197,143).
att(65,97).
att(165,153).
att(69,189).
att(130,76).
att(153,157).
att(33,164).
att(162,68).
att(16,172).
att(116,80).
att(18,117).
att(93,139).
att(173,183).
att(122,168).
att(184,147).
att(14,173).
att(115,131).
att(142,194).
att(55,101).
att(29,112).
att(101,176).
att(68,96).
att(103,84).
att(176,182).
att(118,130).
att(82,91).
att(100,85).
att(154,70).
att(6,177).
att(167,67).
att(150,71).
att(85,90).
att(136,163).
att(201,60).
att(88,89).
att(124,128).
att(91,88).
att(181,64).
att(133,125).
att(96,138).
att(125,167).
att(186,63).
att(191,62).
att(68,149).
att(25,114).
att(107,134).
att(139,162).
att(34,110).
att(117,170).
att(129,199).
att(38,162).
att(77,93).
att(104,175).
att(47,158).
att(61,152).
att(84,183).
att(54,155).
att(80,92).
att(72,188).
att(39,108).
att(148,192).
att(99,177).
att(187,109).
att(128,77).
att(65,191).
att(23,169).
att(146,121).
att(187,63).
att(112,172).
att(86,142).
att(66,150).
att(86,90).
att(45,159).
att(21,170).
att(166,153).
att(143,122).
att(81,144).
att(71,148).
att(166,115).
att(76,146).
att(56,195).
att(19,171).
att(132,198).
att(173,113).
att(151,191).
att(59,100).
att(178,65).
att(54,102).
att(122,129).
att(17,172).
att(11,121).
att(125,128).
att(171,184).
att(43,160).
att(183,64).
att(89,141).
att(78,93).
att(174,183).
att(97,138).
att(24,115).
att(102,85).
att(11,175).
att(108,134).
att(122,79).
att(143,194).
att(84,143).
att(57,154).
att(9,176).
att(30,166).
att(41,161).
att(150,120).
att(40,108).
att(79,145).
att(126,167).
att(93,88).
att(140,162).
att(110,173).
att(160,117).
att(92,140).
att(20,117).
att(28,167).
att(147,121).
att(109,83).
att(143,161).
att(145,73).
att(38,109).
att(60,100).
att(80,185).
att(55,102).
att(166,68).
att(157,118).
att(103,136).
att(146,160).
att(123,79).
att(130,199).
att(95,139).
att(85,183).
att(43,107).
att(36,110).
att(162,69).
att(59,194).
att(200,106).
att(121,169).
att(185,110).
att(163,187).
att(10,122).
att(63,99).
att(164,154).
att(149,192).
att(8,123).
att(132,126).
att(154,119).
att(129,127).
att(2,126).
att(158,70).
att(94,88).
att(25,115).
att(166,186).
att(154,71).
att(171,114).
att(74,95).
att(110,83).
att(176,66).
att(57,195).
att(161,117).
att(85,143).
att(196,176).
att(181,65).
att(193,108).
att(58,154).
att(71,189).
att(182,111).
att(180,149).
att(138,163).
att(64,192).
att(104,85).
att(101,137).
att(172,67).
att(191,63).
att(42,161).
att(159,70).
att(197,107).
att(83,92).
att(145,122).
att(10,176).
att(17,119).
att(127,167).
att(177,150).
att(141,162).
att(128,78).
att(44,107).
att(144,194).
att(15,120).
att(37,110).
att(95,88).
att(89,90).
att(151,72).
att(55,196).
att(201,106).
att(142,123).
att(111,173).
att(186,110).
att(104,136).
att(128,200).
att(49,158).
att(88,142).
att(190,146).
att(13,121).
att(200,143).
att(174,151).
att(56,155).
att(11,122).
att(132,77).
att(158,189).
att(9,123).
att(62,193).
att(171,152).
att(197,62).
att(192,63).
att(190,109).
att(150,159).
att(24,116).
att(47,159).
att(25,169).
att(165,154).
att(161,188).
att(62,100).
att(81,93).
att(197,144).
att(122,169).
att(159,156).
att(70,97).
att(54,156).
att(22,117).
att(169,68).
att(148,73).
att(84,92).
att(96,179).
att(131,199).
att(91,181).
att(74,188).
att(183,65).
att(60,194).
att(96,88).
att(198,107).
att(66,151).
att(176,113).
att(150,192).
att(133,77).
att(45,107).
att(146,122).
att(81,145).
att(194,145).
att(187,110).
att(116,132).
att(34,165).
att(79,186).
att(17,173).
att(170,185).
att(14,121).
att(126,201).
att(68,98).
att(43,161).
att(166,116).
att(12,122).
att(105,136).
att(43,108).
att(156,119).
att(145,74).
att(104,176).
att(153,72).
att(27,115).
att(10,123).
att(137,125).
att(84,184).
att(201,143).
att(191,178).
att(82,93).
att(199,62).
att(6,125).
att(189,64).
att(65,192).
att(194,63).
att(48,106).
att(9,177).
att(182,181).
att(85,92).
att(100,87).
att(89,182).
att(7,178).
att(58,102).
att(1,181).
att(108,135).
att(53,104).
att(84,144).
att(134,77).
att(41,162).
att(156,190).
att(113,83).
att(120,170).
att(172,152).
att(148,160).
att(138,76).
att(199,107).
att(120,81).
att(169,153).
att(77,187).
att(111,134).
att(158,71).
att(92,141).
att(170,115).
att(21,118).
att(171,68).
att(129,200).
att(142,75).
att(48,159).
att(26,169).
att(51,105).
att(147,122).
att(56,103).
att(114,133).
att(134,165).
att(185,148).
att(82,185).
att(87,143).
att(104,86).
att(102,177).
att(162,188).
att(103,137).
att(24,170).
att(144,123).
att(83,93).
att(87,183).
att(101,87).
att(95,140).
att(195,145).
att(72,149).
att(28,115).
att(72,97).
att(157,119).
att(98,88).
att(89,91).
att(75,188).
att(53,157).
att(128,79).
att(123,130).
att(138,125).
att(172,68).
att(121,81).
att(132,199).
att(201,62).
att(20,172).
att(196,108).
att(143,75).
att(129,128).
att(140,163).
att(42,109).
att(67,99).
att(164,117).
att(24,117).
att(177,67).
att(109,135).
att(178,113).
att(62,101).
att(85,144).
att(14,175).
att(174,184).
att(52,105).
att(136,77).
att(154,191).
att(173,152).
att(189,110).
att(12,176).
att(31,167).
att(102,87).
att(189,179).
att(187,65).
att(93,141).
att(186,180).
att(160,71).
att(129,79).
att(2,181).
att(90,91).
att(18,120).
att(45,108).
att(65,100).
att(144,75).
att(93,90).
att(115,133).
att(152,159).
att(63,153).
att(157,190).
att(145,123).
att(155,158).
att(112,84).
att(178,67).
att(169,69).
att(161,156).
att(60,102).
att(186,148).
att(158,119).
att(146,194).
att(14,122).
att(78,187).
att(108,175).
att(48,200).
att(109,85).
att(121,131).
att(68,99).
att(12,123).
att(27,116).
att(36,112).
att(126,80).
att(139,125).
att(130,200).
att(136,126).
att(188,65).
att(201,107).
att(183,149).
att(133,127).
att(107,136).
att(130,128).
att(47,160).
att(63,101).
att(116,83).
att(34,113).
att(157,72).
att(130,79).
att(145,75).
att(172,115).
att(41,110).
att(100,88).
att(149,74).
att(123,81).
att(180,150).
att(93,181).
att(88,92).
att(170,69).
att(55,197).
att(111,174).
att(66,100).
att(32,114).
att(162,118).
att(21,119).
att(86,144).
att(19,173).
att(194,109).
att(183,112).
att(19,120).
att(127,80).
att(199,176).
att(61,102).
att(102,138).
att(51,106).
att(94,141).
att(146,123).
att(196,177).
att(159,119).
att(171,153).
att(146,75).
att(143,124).
att(131,79).
att(150,74).
att(104,87).
att(86,184).
att(11,177).
att(190,179).
att(72,98).
att(165,155).
att(144,195).
att(101,88).
att(9,178).
att(184,181).
att(49,107).
att(96,180).
att(91,182).
att(74,189).
att(7,179).
att(128,201).
att(156,120).
att(89,92).
att(98,89).
att(1,182).
att(3,181).
att(41,163).
att(26,117).
att(114,84).
att(95,90).
att(7,126).
