arg(1..301).
att(2,1).
att(5,255).
att(1,257).
att(4,1).
att(7,1).
att(4,2).
att(6,2).
att(14,1).
att(7,2).
att(58,230).
att(34,241).
att(3,4).
att(6,3).
att(22,1).
att(227,267).
att(294,149).
att(13,2).
att(3,5).
att(74,223).
att(14,2).
att(6,4).
att(31,1).
att(32,1).
att(47,235).
att(35,1).
att(260,158).
att(8,4).
att(21,2).
att(6,5).
att(22,2).
att(290,246).
att(15,3).
att(48,1).
att(24,2).
att(52,1).
att(8,5).
att(53,1).
att(27,2).
att(56,1).
att(155,294).
att(57,1).
att(4,7).
att(186,282).
att(19,3).
att(61,1).
att(31,2).
att(7,6).
att(63,1).
att(206,174).
att(65,1).
att(253,160).
att(131,200).
att(239,164).
att(3,8).
att(15,4).
att(69,1).
att(73,1).
att(2,9).
att(9,6).
att(76,1).
att(77,1).
att(164,188).
att(18,4).
att(10,6).
att(81,1).
att(82,1).
att(83,1).
att(84,1).
att(150,193).
att(86,1).
att(113,207).
att(87,1).
att(15,5).
att(88,1).
att(29,3).
att(91,1).
att(173,287).
att(30,3).
att(12,6).
att(203,175).
att(94,1).
att(22,4).
att(95,1).
att(97,1).
att(17,5).
att(72,224).
att(98,1).
att(32,3).
att(99,1).
att(100,1).
att(50,2).
att(10,7).
att(1,11).
att(101,1).
att(33,3).
att(5,9).
att(102,1).
att(3,10).
att(24,4).
att(103,1).
att(52,2).
att(79,221).
att(105,1).
att(25,4).
att(108,1).
att(54,2).
att(26,4).
att(15,6).
att(111,1).
att(2,11).
att(4,10).
att(200,176).
att(12,7).
att(126,202).
att(58,2).
att(16,6).
att(28,4).
att(119,1).
att(1,12).
att(122,1).
att(29,4).
att(5,10).
att(17,6).
att(123,1).
att(170,186).
att(125,1).
att(26,245).
att(63,2).
att(127,1).
att(18,6).
att(8,9).
att(283,152).
att(216,171).
att(130,1).
att(43,3).
att(133,1).
att(67,2).
att(4,11).
att(257,159).
att(135,1).
att(236,165).
att(137,1).
att(138,1).
att(69,2).
att(33,4).
att(141,1).
att(268,156).
att(26,5).
att(143,1).
att(1,13).
att(146,1).
att(3,12).
att(24,246).
att(197,278).
att(150,1).
att(22,6).
att(226,168).
att(176,184).
att(41,238).
att(154,1).
att(51,3).
att(11,9).
att(156,1).
att(79,2).
att(52,3).
att(191,179).
att(53,3).
att(81,2).
att(30,5).
att(163,1).
att(54,3).
att(12,9).
att(291,150).
att(188,180).
att(70,225).
att(167,1).
att(31,5).
att(7,11).
att(168,1).
att(169,1).
att(5,12).
att(25,6).
att(185,181).
att(57,3).
att(13,9).
att(175,1).
att(88,2).
att(58,3).
att(295,149).
att(177,1).
att(89,2).
att(17,8).
att(278,250).
att(180,1).
att(91,2).
att(27,6).
att(11,10).
att(183,1).
att(184,1).
att(61,3).
att(94,2).
att(62,3).
att(189,1).
att(143,299).
att(95,2).
att(23,7).
att(15,9).
att(192,1).
att(261,158).
att(193,1).
att(97,2).
att(47,4).
att(19,8).
att(158,293).
att(1,15).
att(5,13).
att(37,5).
att(197,1).
att(99,2).
att(100,2).
att(30,6).
att(275,251).
att(233,166).
att(201,1).
att(18,249).
att(38,5).
att(20,8).
att(13,10).
att(176,286).
att(202,1).
att(203,1).
att(210,173).
att(31,6).
att(39,5).
att(153,295).
att(104,2).
att(208,1).
att(51,4).
att(6,13).
att(21,8).
att(2,15).
att(14,10).
att(212,1).
att(213,1).
att(214,1).
att(71,3).
att(41,5).
att(33,6).
att(110,2).
att(221,1).
att(111,2).
att(12,11).
att(223,1).
att(112,2).
att(23,8).
att(43,5).
att(19,9).
att(228,1).
att(115,2).
att(10,12).
att(231,1).
att(16,10).
att(13,11).
att(233,1).
att(78,3).
att(20,9).
att(45,5).
att(124,203).
att(12,252).
att(58,4).
att(239,1).
att(6,14).
att(251,259).
att(241,1).
att(121,2).
att(80,3).
att(46,5).
att(25,8).
att(243,1).
att(184,283).
att(245,1).
att(60,4).
att(266,254).
att(247,1).
att(124,2).
att(249,1).
att(8,254).
att(126,2).
att(225,268).
att(263,255).
att(253,1).
att(127,2).
att(84,3).
att(7,14).
att(22,9).
att(254,1).
att(15,11).
att(2,257).
att(3,16).
att(130,2).
att(86,3).
att(64,4).
att(50,5).
att(87,3).
att(263,1).
att(165,188).
att(265,1).
att(133,2).
att(65,4).
att(66,4).
att(270,1).
att(271,1).
att(24,9).
att(20,10).
att(29,8).
att(92,3).
att(14,12).
att(280,1).
att(141,2).
att(69,4).
att(94,3).
att(99,213).
att(70,4).
att(12,13).
att(1,18).
att(5,16).
att(26,9).
att(56,5).
att(22,10).
att(97,3).
att(147,2).
att(295,1).
att(98,3).
att(46,6).
att(38,7).
att(291,246).
att(104,211).
att(32,8).
att(298,1).
att(288,151).
att(87,218).
att(217,171).
att(57,231).
att(39,7).
att(46,236).
att(155,2).
att(40,7).
att(17,12).
att(105,3).
att(41,7).
att(29,9).
att(127,202).
att(78,4).
att(160,2).
att(106,3).
att(31,243).
att(21,11).
att(227,168).
att(296,149).
att(80,221).
att(162,2).
att(42,7).
att(1,19).
att(195,178).
att(300,148).
att(51,6).
att(30,9).
att(63,5).
att(81,4).
att(43,7).
att(110,3).
att(64,5).
att(52,6).
att(82,4).
att(168,2).
att(135,199).
att(195,279).
att(192,179).
att(83,4).
att(37,8).
att(19,12).
att(171,2).
att(66,5).
att(23,11).
att(2,19).
att(187,282).
att(29,244).
att(173,2).
att(38,8).
att(115,3).
att(262,158).
att(46,7).
att(117,3).
att(87,4).
att(24,11).
att(151,296).
att(69,5).
att(122,204).
att(179,2).
att(47,7).
att(180,2).
att(1,20).
att(120,3).
att(5,18).
att(12,15).
att(182,2).
att(25,11).
att(90,4).
att(18,13).
att(217,271).
att(58,6).
att(184,2).
att(35,9).
att(234,265).
att(92,4).
att(22,12).
att(174,287).
att(26,11).
att(125,3).
att(13,15).
att(97,214).
att(93,4).
att(60,6).
att(4,19).
att(127,3).
att(192,2).
att(117,206).
att(11,16).
att(75,5).
att(51,7).
att(129,3).
att(37,9).
att(71,225).
att(241,164).
att(97,4).
att(52,7).
att(44,8).
att(131,3).
att(301,243).
att(98,4).
att(38,9).
att(199,2).
att(78,222).
att(200,2).
att(133,3).
att(5,19).
att(112,208).
att(99,4).
att(33,10).
att(237,264).
att(100,4).
att(18,14).
att(136,3).
att(65,6).
att(25,12).
att(281,153).
att(208,174).
att(34,10).
att(206,2).
att(138,3).
att(8,18).
att(40,9).
att(13,16).
att(30,11).
att(210,2).
att(140,3).
att(4,20).
att(104,4).
att(16,15).
att(211,2).
att(212,2).
att(141,3).
att(149,194).
att(11,17).
att(169,289).
att(163,189).
att(142,3).
att(57,7).
att(106,4).
att(143,3).
att(31,11).
att(84,5).
att(216,2).
att(240,263).
att(279,250).
att(90,217).
att(107,4).
att(42,9).
att(58,7).
att(20,14).
att(145,3).
att(17,15).
att(86,5).
att(32,11).
att(205,175).
att(147,3).
att(223,2).
att(298,244).
att(149,3).
att(60,7).
att(150,3).
att(88,5).
att(72,6).
att(44,9).
att(18,15).
att(259,159).
att(226,2).
att(270,156).
att(33,11).
att(112,4).
att(289,151).
att(89,5).
att(152,3).
att(73,6).
att(6,20).
att(34,11).
att(232,2).
att(133,200).
att(53,8).
att(234,2).
att(223,269).
att(156,3).
att(46,9).
att(40,10).
att(157,3).
att(54,8).
att(35,11).
att(246,261).
att(160,3).
att(94,5).
att(245,163).
att(20,15).
att(241,2).
att(242,2).
att(1,23).
att(159,293).
att(243,2).
att(48,9).
att(12,18).
att(199,177).
att(163,3).
att(249,260).
att(177,286).
att(144,299).
att(164,3).
att(32,12).
att(274,155).
att(10,19).
att(165,3).
att(49,9).
att(57,8).
att(36,241).
att(115,207).
att(11,253).
att(49,235).
att(167,3).
att(149,297).
att(9,254).
att(168,3).
att(6,21).
att(25,14).
att(263,158).
att(170,3).
att(100,5).
att(82,6).
att(16,17).
att(7,255).
att(127,4).
att(19,16).
att(171,3).
att(51,9).
att(261,256).
att(3,257).
att(172,3).
att(128,4).
att(83,6).
att(259,2).
att(128,202).
att(88,218).
att(26,14).
att(173,3).
att(178,184).
att(129,4).
att(102,5).
att(261,2).
att(174,3).
att(262,2).
att(263,2).
att(23,15).
att(185,283).
att(264,2).
att(131,4).
att(85,6).
att(34,242).
att(266,2).
att(72,7).
att(133,4).
att(62,8).
att(292,246).
att(269,2).
att(179,3).
att(134,4).
att(47,10).
att(36,12).
att(181,3).
att(135,4).
att(81,221).
att(273,2).
att(88,6).
att(28,14).
att(275,2).
att(55,9).
att(212,173).
att(108,5).
att(89,6).
att(64,8).
att(37,12).
att(25,15).
att(185,3).
att(279,2).
att(90,6).
att(186,3).
att(110,5).
att(49,10).
att(11,20).
att(43,11).
att(187,3).
att(267,157).
att(91,6).
att(38,12).
att(283,2).
att(9,21).
att(189,3).
att(141,4).
att(112,5).
att(147,195).
att(26,15).
att(7,22).
att(34,13).
att(288,2).
att(113,5).
att(3,24).
att(39,12).
att(23,16).
att(290,2).
att(51,10).
att(12,20).
att(79,7).
att(94,6).
att(194,3).
att(292,2).
att(161,190).
att(35,13).
att(195,3).
att(294,2).
att(95,6).
att(10,21).
att(31,14).
att(196,3).
att(45,237).
att(98,214).
att(52,10).
att(24,16).
att(222,170).
att(81,7).
att(139,198).
att(36,13).
att(2,25).
att(118,5).
att(70,8).
att(41,12).
att(301,2).
att(150,4).
att(98,6).
att(271,156).
att(103,212).
att(71,8).
att(203,3).
att(62,9).
att(108,210).
att(121,5).
att(48,11).
att(33,14).
att(286,248).
att(154,4).
att(55,10).
att(63,9).
att(207,3).
att(162,292).
att(85,7).
att(73,8).
att(38,13).
att(208,3).
att(3,25).
att(86,7).
att(210,3).
att(239,165).
att(235,265).
att(211,3).
att(125,5).
att(44,12).
att(253,161).
att(87,7).
att(50,11).
att(167,188).
att(159,4).
att(126,5).
att(246,163).
att(219,171).
att(157,294).
att(35,14).
att(127,5).
att(215,3).
att(18,19).
att(63,229).
att(161,4).
att(6,24).
att(45,12).
att(58,10).
att(89,7).
att(207,275).
att(129,5).
att(77,8).
att(219,3).
att(164,4).
att(11,22).
att(52,11).
att(220,3).
att(170,187).
att(200,177).
att(165,4).
att(22,18).
att(60,10).
att(37,14).
att(29,16).
att(5,25).
att(33,15).
att(3,26).
att(168,4).
att(110,6).
att(173,186).
att(22,248).
att(134,5).
att(26,17).
att(121,205).
att(70,226).
att(279,154).
att(48,12).
att(20,19).
att(229,3).
att(171,4).
att(43,13).
att(136,5).
att(95,7).
att(55,11).
att(137,5).
att(8,24).
att(236,166).
att(72,9).
att(199,278).
att(21,19).
att(257,160).
att(61,230).
att(39,240).
att(13,22).
att(31,16).
att(50,12).
att(101,213).
att(236,3).
att(185,182).
att(145,196).
att(98,7).
att(283,153).
att(28,17).
att(268,157).
att(239,3).
att(111,209).
att(179,4).
att(74,9).
att(25,18).
att(240,3).
att(22,19).
att(118,6).
att(1,28).
att(46,13).
att(41,14).
att(3,27).
att(66,10).
att(29,17).
att(50,235).
att(89,218).
att(12,23).
att(59,11).
att(23,19).
att(10,24).
att(77,9).
att(68,227).
att(30,17).
att(103,7).
att(89,8).
att(34,16).
att(6,26).
att(2,28).
att(4,27).
att(27,18).
att(252,3).
att(10,254).
att(13,23).
att(253,3).
att(90,8).
att(24,19).
att(124,6).
att(59,231).
att(148,195).
att(295,150).
att(151,5).
att(79,9).
att(49,13).
att(259,257).
att(91,8).
att(191,4).
att(2,258).
att(70,10).
att(192,4).
att(178,286).
att(126,6).
att(9,25).
att(92,8).
att(193,4).
att(160,293).
att(107,7).
att(48,236).
att(7,26).
att(71,10).
att(50,13).
att(63,11).
att(32,17).
att(3,28).
att(108,7).
att(93,8).
att(45,14).
att(128,6).
att(293,246).
att(196,4).
att(263,3).
att(156,5).
att(94,8).
att(17,22).
att(29,18).
att(132,201).
att(41,15).
att(26,19).
att(33,17).
att(37,16).
att(199,4).
att(65,11).
att(58,12).
att(186,283).
att(200,4).
att(111,7).
att(269,3).
att(96,8).
att(271,3).
att(66,11).
att(133,6).
att(13,24).
att(203,4).
att(272,3).
att(134,6).
att(230,267).
att(67,11).
att(48,14).
att(206,4).
att(76,10).
att(39,16).
att(207,4).
att(165,5).
att(68,11).
att(208,4).
att(280,154).
att(5,28).
att(100,8).
att(14,24).
att(280,3).
att(210,4).
att(138,6).
att(32,18).
att(117,7).
att(69,11).
att(171,187).
att(17,23).
att(284,3).
att(118,7).
att(143,197).
att(217,172).
att(10,26).
att(205,276).
att(79,10).
att(237,166).
att(90,9).
att(15,24).
att(41,16).
att(33,18).
att(288,3).
att(171,5).
att(174,186).
att(44,238).
att(287,248).
att(37,17).
att(216,4).
att(172,5).
att(46,15).
att(55,233).
att(217,4).
att(64,229).
att(291,3).
att(18,23).
att(195,179).
att(13,25).
att(218,4).
att(269,157).
att(174,5).
att(81,10).
att(72,11).
att(42,16).
att(34,18).
att(294,3).
att(192,180).
att(251,162).
att(244,164).
att(27,246).
att(38,17).
att(180,184).
att(221,4).
att(82,10).
att(297,3).
att(222,4).
att(186,182).
att(146,6).
att(177,5).
att(157,192).
att(236,265).
att(43,16).
att(197,279).
att(5,29).
att(147,6).
att(94,9).
att(83,10).
att(48,15).
att(35,18).
att(300,3).
att(39,17).
att(125,7).
att(301,3).
att(225,4).
att(42,239).
att(189,282).
att(25,247).
att(126,7).
att(228,4).
att(78,223).
att(96,9).
att(10,27).
att(36,18).
att(182,5).
att(229,4).
att(61,13).
att(8,28).
att(76,11).
att(68,12).
att(26,21).
att(112,209).
att(97,9).
att(45,16).
att(86,10).
att(208,275).
att(184,5).
att(107,211).
att(33,19).
att(77,11).
att(41,17).
att(185,5).
att(153,6).
att(112,8).
att(56,14).
att(186,5).
att(148,298).
att(154,6).
att(113,8).
att(235,4).
att(99,9).
att(11,27).
att(27,21).
att(153,296).
att(24,22).
att(236,4).
att(16,25).
att(34,19).
att(114,8).
att(42,17).
att(242,263).
att(278,251).
att(100,9).
att(79,11).
att(71,12).
att(47,16).
att(277,155).
att(190,5).
att(241,165).
att(134,7).
att(125,204).
att(35,19).
att(192,5).
att(242,4).
att(65,13).
att(17,25).
att(48,16).
att(243,4).
att(200,278).
att(136,7).
att(10,28).
att(91,10).
att(17,251).
att(266,158).
att(73,12).
att(195,5).
att(44,17).
att(92,10).
att(196,5).
att(4,31).
att(119,8).
att(197,5).
att(133,201).
att(248,4).
att(211,274).
att(13,27).
att(171,289).
att(198,5).
att(164,6).
att(45,17).
att(55,15).
att(37,19).
att(165,6).
att(140,7).
att(106,9).
att(11,28).
att(21,24).
att(30,21).
att(269,254).
att(251,260).
att(84,11).
att(252,4).
att(36,242).
att(16,26).
att(122,8).
att(253,4).
att(95,10).
att(254,4).
att(142,7).
att(62,14).
att(85,11).
att(259,160).
att(7,256).
att(19,25).
att(168,6).
att(108,9).
att(14,27).
att(38,19).
att(257,258).
att(69,13).
att(218,172).
att(1,259).
att(143,7).
att(31,21).
att(105,212).
att(124,8).
att(257,4).
att(199,178).
att(63,14).
att(47,17).
att(125,8).
att(97,10).
att(166,291).
att(52,16).
att(145,7).
att(171,6).
att(228,169).
att(144,197).
att(172,6).
att(98,10).
att(64,14).
att(20,25).
att(155,193).
att(208,5).
att(262,4).
att(71,13).
att(15,27).
att(4,32).
att(173,6).
att(53,16).
att(23,24).
att(36,20).
att(174,6).
att(112,9).
att(44,18).
att(179,286).
att(214,273).
att(193,180).
att(148,7).
att(65,14).
att(40,19).
att(59,15).
att(72,13).
att(266,4).
att(149,7).
att(187,182).
att(213,5).
att(66,14).
att(73,13).
att(177,6).
att(114,9).
att(27,23).
att(93,217).
att(7,31).
att(158,192).
att(55,16).
att(216,5).
att(231,267).
att(151,297).
att(179,6).
att(82,12).
att(34,21).
att(92,11).
att(38,20).
att(22,25).
att(31,22).
att(12,29).
att(225,170).
att(30,245).
att(212,174).
att(219,5).
att(117,9).
att(10,30).
att(93,11).
att(155,7).
att(278,155).
att(256,161).
att(118,207).
att(20,26).
att(135,8).
att(15,28).
att(39,20).
att(43,19).
att(184,6).
att(174,288).
att(119,9).
att(223,5).
att(136,8).
att(85,12).
att(281,4).
att(77,13).
att(95,11).
att(158,7).
att(48,18).
att(206,276).
att(103,213).
att(113,209).
att(86,12).
att(209,175).
att(79,223).
att(121,9).
att(285,4).
att(16,28).
att(30,23).
att(24,25).
att(228,5).
att(87,12).
att(59,16).
att(65,15).
att(229,5).
att(54,17).
att(232,168).
att(289,4).
att(231,5).
att(34,22).
att(206,176).
att(291,4).
att(163,7).
att(80,13).
att(91,218).
att(55,17).
att(31,23).
att(233,5).
att(24,248).
att(164,7).
att(165,7).
att(81,13).
att(41,240).
att(143,8).
att(61,16).
att(235,5).
att(20,27).
att(15,29).
att(4,34).
att(112,10).
att(236,5).
att(297,4).
att(239,166).
att(134,201).
att(237,5).
att(23,26).
att(127,9).
att(145,8).
att(13,30).
att(68,15).
att(29,24).
att(197,6).
att(52,235).
att(75,14).
att(239,5).
att(164,292).
att(146,8).
att(301,4).
att(114,10).
att(240,5).
att(246,164).
att(129,9).
att(77,224).
att(241,5).
att(242,5).
att(103,11).
att(1,36).
att(173,187).
att(3,35).
att(27,25).
att(18,251).
att(116,10).
att(14,30).
att(223,270).
att(202,6).
att(275,156).
att(101,214).
att(149,8).
att(131,9).
att(49,19).
att(246,262).
att(41,21).
att(117,10).
att(59,17).
att(156,193).
att(216,173).
att(54,18).
att(34,23).
att(204,6).
att(105,11).
att(194,180).
att(16,252).
att(247,5).
att(174,7).
att(10,32).
att(65,16).
att(118,10).
att(179,185).
att(50,236).
att(249,5).
att(14,253).
att(188,182).
att(119,10).
att(55,18).
att(20,28).
att(42,21).
att(207,6).
att(89,219).
att(236,167).
att(135,9).
att(252,5).
att(13,31).
att(10,255).
att(29,25).
att(253,5).
att(56,18).
att(295,246).
att(8,256).
att(257,161).
att(193,281).
att(264,256).
att(82,222).
att(4,258).
att(9,33).
att(180,7).
att(172,289).
att(122,10).
att(75,225).
att(256,5).
att(124,205).
att(1,37).
att(257,5).
att(68,16).
att(24,27).
att(213,6).
att(48,237).
att(123,10).
att(75,15).
att(63,17).
att(183,7).
att(91,13).
att(216,6).
att(76,15).
att(49,20).
att(262,5).
att(229,268).
att(132,202).
att(28,26).
att(287,153).
att(233,168).
att(140,199).
att(66,229).
att(167,291).
att(142,9).
att(102,12).
att(219,6).
att(20,29).
att(77,15).
att(265,5).
att(162,8).
att(57,233).
att(187,7).
att(220,6).
att(93,13).
att(127,10).
att(291,152).
att(114,209).
att(207,176).
att(35,24).
att(180,286).
att(188,7).
att(104,213).
att(267,5).
att(55,19).
att(78,15).
att(268,5).
att(269,5).
att(104,12).
att(223,6).
att(73,226).
att(9,34).
att(240,166).
att(289,248).
att(21,29).
att(299,150).
att(7,35).
att(47,21).
att(191,7).
att(1,38).
att(5,36).
att(61,18).
att(225,6).
att(254,162).
att(196,280).
att(272,5).
att(87,14).
att(188,283).
att(273,5).
att(14,32).
att(96,13).
att(274,5).
att(147,299).
att(275,5).
att(48,21).
att(171,188).
att(107,12).
att(22,29).
att(37,24).
att(195,7).
att(286,249).
att(53,20).
att(34,25).
att(27,247).
att(6,36).
att(150,9).
att(108,12).
att(63,18).
att(265,159).
att(279,5).
att(58,19).
att(197,7).
att(171,8).
att(174,187).
att(20,30).
att(207,276).
att(232,6).
att(151,9).
att(198,7).
att(38,24).
att(99,13).
att(121,11).
att(13,33).
att(54,20).
att(23,29).
att(199,7).
att(177,186).
att(25,248).
att(173,8).
att(18,31).
att(110,12).
att(70,17).
att(85,221).
att(122,11).
att(100,13).
att(46,22).
att(71,227).
att(153,9).
att(174,8).
att(237,167).
att(180,185).
att(189,182).
att(78,224).
att(7,36).
att(175,8).
att(111,12).
att(237,6).
att(186,183).
att(101,13).
att(60,19).
att(36,25).
att(112,12).
att(284,154).
att(102,13).
att(93,14).
att(33,26).
att(204,7).
att(280,251).
att(139,10).
att(290,5).
att(40,241).
att(12,34).
att(21,250).
att(40,24).
att(157,9).
att(103,13).
att(10,35).
att(22,30).
att(191,282).
att(242,6).
att(299,245).
att(79,16).
att(126,11).
att(114,12).
att(210,275).
att(90,219).
att(57,20).
att(294,5).
att(2,39).
att(4,38).
att(104,13).
att(62,19).
att(34,26).
att(159,9).
att(53,21).
att(160,9).
att(234,168).
att(292,152).
att(224,171).
att(149,196).
att(128,11).
att(224,270).
att(143,10).
att(116,12).
att(88,15).
att(38,25).
att(125,205).
att(63,19).
att(274,253).
att(161,9).
att(262,160).
att(183,8).
att(26,29).
att(144,10).
att(15,253).
att(212,7).
att(249,6).
att(301,5).
att(7,37).
att(16,33).
att(271,254).
att(95,217).
att(208,176).
att(82,16).
att(64,19).
att(3,39).
att(107,13).
att(118,12).
att(186,8).
att(11,255).
att(120,207).
att(166,190).
att(55,21).
att(9,256).
att(119,12).
att(49,237).
att(253,6).
att(27,29).
att(155,296).
att(30,28).
att(216,7).
att(47,23).
att(7,257).
att(5,258).
att(91,15).
att(3,259).
att(109,13).
att(217,7).
att(120,12).
att(84,16).
att(189,8).
att(56,21).
att(218,7).
att(186,284).
att(231,169).
att(4,39).
att(92,15).
att(25,30).
att(37,26).
att(169,189).
att(105,213).
att(219,7).
att(15,34).
att(258,6).
att(58,233).
att(20,32).
att(191,8).
att(259,6).
att(135,11).
att(111,13).
att(221,7).
att(192,8).
att(172,188).
att(47,238).
att(173,289).
att(170,9).
att(11,36).
att(136,11).
att(73,18).
att(53,22).
att(45,24).
att(81,223).
att(223,7).
att(94,15).
att(26,30).
att(35,27).
att(32,245).
att(137,11).
att(263,6).
att(113,13).
att(3,40).
att(153,10).
att(63,20).
att(195,8).
att(74,18).
att(225,7).
att(95,15).
att(138,11).
att(285,154).
att(93,218).
att(46,24).
att(196,8).
att(178,186).
att(104,14).
att(290,248).
att(173,9).
att(114,13).
att(266,6).
att(81,17).
att(88,16).
att(139,11).
att(59,21).
att(174,9).
att(155,10).
att(126,12).
att(96,15).
att(64,20).
att(198,8).
att(115,13).
att(43,25).
att(268,6).
att(17,34).
att(82,17).
att(51,23).
att(176,9).
att(116,13).
att(60,21).
att(141,11).
att(4,40).
att(147,197).
att(25,31).
att(128,12).
att(15,35).
att(231,7).
att(37,27).
att(86,221).
att(201,8).
att(142,11).
att(197,280).
att(20,33).
att(272,6).
att(202,8).
att(131,203).
att(159,10).
att(274,6).
att(235,168).
att(113,210).
att(43,240).
att(118,13).
att(23,32).
att(203,8).
att(179,9).
att(11,37).
att(108,14).
att(84,17).
att(219,272).
att(234,7).
att(26,248).
att(57,22).
att(235,7).
att(78,18).
att(276,6).
att(161,10).
att(109,14).
att(16,35).
att(67,20).
att(62,21).
att(32,29).
att(85,17).
att(21,33).
att(208,276).
att(206,8).
att(162,10).
att(120,13).
att(42,26).
att(73,19).
att(150,196).
att(256,162).
att(58,22).
att(209,176).
att(164,191).
att(207,8).
att(86,17).
att(46,25).
att(39,27).
att(239,7).
att(54,23).
att(126,205).
att(147,11).
att(27,31).
att(94,16).
att(17,35).
att(222,172).
att(241,7).
att(22,33).
att(87,17).
att(6,40).
att(210,8).
att(4,41).
att(167,190).
att(149,11).
att(95,16).
att(51,24).
att(186,9).
att(285,6).
att(123,13).
att(243,7).
att(282,155).
att(96,217).
att(200,279).
att(113,14).
att(28,31).
att(37,28).
att(244,7).
att(150,11).
att(13,37).
att(136,12).
att(70,20).
att(77,225).
att(213,8).
att(82,18).
att(188,9).
att(203,178).
att(11,38).
att(76,19).
att(192,282).
att(23,33).
att(171,290).
att(48,25).
att(246,7).
att(52,24).
att(9,39).
att(169,10).
att(248,262).
att(215,8).
att(101,215).
att(260,161).
att(219,173).
att(115,14).
att(16,36).
att(83,18).
att(90,17).
att(45,26).
att(32,30).
att(225,270).
att(57,23).
att(271,158).
att(139,12).
att(217,8).
att(156,194).
att(154,11).
att(24,33).
att(42,27).
att(192,9).
att(294,6).
att(197,180).
att(269,255).
att(68,229).
att(254,260).
att(117,14).
att(99,16).
att(27,32).
att(10,39).
att(58,23).
att(46,26).
att(296,6).
att(263,257).
att(8,257).
att(36,29).
att(8,40).
att(17,36).
att(54,24).
att(50,25).
att(137,201).
att(194,9).
att(297,6).
att(191,182).
att(4,259).
att(79,19).
att(118,14).
att(68,21).
att(254,7).
att(185,184).
att(179,287).
att(35,244).
att(221,8).
att(298,151).
att(15,37).
att(222,8).
att(93,17).
att(20,35).
att(47,26).
att(55,24).
att(28,32).
att(94,218).
att(158,11).
att(110,15).
att(146,300).
att(224,8).
att(11,39).
att(144,12).
att(87,18).
att(159,11).
att(75,20).
att(225,8).
att(259,7).
att(187,284).
att(111,15).
att(199,9).
att(132,13).
att(5,42).
att(160,11).
att(41,28).
att(260,7).
att(66,230).
att(88,18).
att(21,35).
att(227,8).
att(231,268).
att(146,12).
att(61,23).
att(201,9).
att(228,8).
att(96,17).
att(66,22).
att(24,34).
att(210,176).
att(57,24).
att(104,214).
att(42,28).
att(264,7).
att(109,212).
att(268,159).
att(77,20).
att(83,19).
att(27,33).
att(203,9).
att(265,7).
att(135,13).
att(8,41).
att(97,17).
att(223,172).
att(151,196).
att(6,42).
att(124,14).
att(72,21).
att(22,35).
att(266,7).
att(234,267).
att(149,12).
att(136,13).
att(84,19).
att(44,240).
att(125,14).
att(233,8).
att(55,235).
att(137,13).
att(73,21).
att(269,7).
att(168,190).
att(64,231).
att(182,286).
att(169,291).
att(11,40).
att(151,12).
att(107,16).
att(59,24).
att(31,32).
att(99,17).
att(34,31).
att(18,37).
att(204,178).
att(208,9).
att(9,41).
att(236,8).
att(237,266).
att(135,202).
att(152,12).
att(64,23).
att(44,28).
att(154,195).
att(1,45).
att(117,15).
att(209,9).
att(3,44).
att(237,8).
att(139,13).
att(41,29).
att(21,36).
att(238,8).
att(128,14).
att(274,7).
att(169,11).
att(29,33).
att(201,179).
att(164,293).
att(140,13).
att(14,39).
att(56,25).
att(38,30).
att(247,165).
att(97,217).
att(239,8).
att(75,21).
att(230,170).
att(154,12).
att(240,265).
att(87,19).
att(170,11).
att(53,236).
att(129,14).
att(240,8).
att(276,7).
att(212,9).
att(78,225).
att(301,245).
att(155,12).
att(159,295).
att(27,34).
att(117,209).
att(276,157).
att(8,42).
att(53,26).
att(242,8).
att(6,43).
att(195,181).
att(2,45).
att(95,18).
att(71,22).
att(30,33).
att(146,198).
att(36,31).
att(177,288).
att(15,39).
att(103,17).
att(183,185).
att(157,12).
att(189,183).
att(244,8).
att(77,21).
att(25,35).
att(50,27).
att(237,168).
att(13,40).
att(276,253).
att(246,8).
att(283,7).
att(194,10).
att(298,246).
att(201,279).
att(214,175).
att(37,31).
att(63,24).
att(47,28).
att(34,32).
att(17,253).
att(284,7).
att(258,162).
att(84,20).
att(5,44).
att(73,22).
att(3,45).
att(244,166).
att(251,164).
att(114,16).
att(76,226).
att(85,20).
att(64,24).
att(29,34).
att(41,30).
att(197,10).
att(13,255).
att(221,9).
att(135,14).
att(178,11).
att(60,25).
att(36,244).
att(99,18).
att(258,259).
att(49,238).
att(9,257).
att(80,21).
att(261,258).
att(295,247).
att(7,258).
att(199,10).
att(3,260).
att(8,43).
att(133,203).
att(253,8).
att(5,259).
att(180,11).
att(288,154).
att(126,15).
att(200,10).
att(100,216).
att(108,17).
att(61,25).
att(181,11).
att(81,21).
att(53,27).
att(225,9).
att(201,10).
att(115,210).
att(67,230).
att(34,245).
att(229,269).
att(127,15).
att(273,158).
att(46,29).
att(13,41).
att(295,7).
att(227,9).
att(11,42).
att(128,15).
att(82,21).
att(62,25).
att(28,35).
att(50,28).
att(241,167).
att(183,11).
att(205,178).
att(169,190).
att(152,13).
att(18,39).
att(292,248).
att(228,9).
att(9,43).
att(297,7).
att(221,173).
att(255,163).
att(81,224).
att(300,151).
att(7,44).
att(77,22).
att(128,205).
att(32,246).
att(47,29).
att(16,40).
att(89,20).
att(205,10).
att(299,7).
att(185,11).
att(103,18).
att(111,17).
att(202,179).
att(188,284).
att(232,268).
att(300,7).
att(44,30).
att(206,10).
att(147,300).
att(154,13).
att(136,202).
att(55,27).
att(231,9).
att(29,35).
att(301,7).
att(93,219).
att(73,23).
att(41,31).
att(207,10).
att(12,42).
att(104,18).
att(199,180).
att(175,188).
att(263,8).
att(170,12).
att(65,231).
att(218,273).
att(79,22).
att(188,11).
att(235,267).
att(132,15).
att(122,16).
att(17,40).
att(69,24).
att(265,8).
att(4,46).
att(238,168).
att(189,11).
att(98,217).
att(144,14).
att(210,10).
att(133,15).
att(39,32).
att(33,34).
att(267,8).
att(80,22).
att(36,33).
att(259,162).
att(228,171).
att(211,10).
att(25,37).
att(13,42).
att(75,23).
att(43,241).
att(57,27).
att(191,11).
att(134,15).
att(46,30).
att(115,17).
att(238,9).
att(270,159).
att(66,25).
att(192,11).
att(213,10).
att(270,8).
att(139,201).
att(100,19).
att(23,38).
att(76,23).
att(54,28).
att(24,250).
att(136,15).
att(194,11).
att(101,19).
att(241,9).
att(289,154).
att(117,17).
att(216,10).
att(109,18).
att(242,9).
att(137,15).
att(280,252).
att(127,16).
att(95,20).
att(55,28).
att(41,32).
att(217,10).
att(59,27).
att(10,44).
att(83,22).
att(293,153).
att(52,237).
att(263,161).
att(110,18).
att(68,25).
att(48,30).
att(244,264).
att(20,252).
att(150,14).
att(84,223).
att(128,16).
att(96,218).
att(277,253).
att(64,26).
att(299,246).
att(45,31).
att(77,226).
att(278,8).
att(242,167).
att(15,42).
att(30,36).
att(167,191).
att(129,16).
att(178,288).
att(69,25).
att(274,254).
att(39,33).
att(247,9).
att(222,173).
att(140,15).
att(20,40).
att(97,20).
att(49,30).
att(11,44).
att(130,16).
att(85,22).
att(202,279).
att(281,8).
att(116,210).
att(50,238).
att(14,255).
att(9,45).
att(141,15).
att(121,17).
att(37,244).
att(153,14).
att(282,8).
att(70,25).
att(223,10).
att(23,39).
att(106,214).
att(5,47).
att(3,48).
att(43,32).
att(183,12).
att(203,179).
att(142,15).
att(296,247).
att(86,22).
att(34,35).
att(251,9).
att(265,257).
att(168,13).
att(66,26).
att(173,189).
att(8,258).
att(106,19).
att(26,38).
att(132,16).
att(21,40).
att(14,43).
att(252,9).
att(200,180).
att(156,195).
att(219,174).
att(282,156).
att(4,260).
att(58,28).
att(145,199).
att(143,15).
att(71,25).
att(169,13).
att(286,8).
att(226,10).
att(19,41).
att(107,19).
att(10,45).
att(170,13).
att(186,12).
att(227,10).
att(205,11).
att(8,46).
att(82,23).
att(179,187).
att(55,29).
att(255,9).
att(72,25).
att(4,48).
att(157,14).
att(289,8).
att(94,219).
att(22,40).
att(290,8).
att(159,194).
att(216,274).
att(15,43).
att(158,14).
att(30,37).
att(45,32).
att(205,278).
att(95,21).
att(13,44).
att(78,24).
att(258,9).
att(292,8).
att(148,198).
att(173,13).
att(102,20).
att(231,10).
att(136,16).
att(293,8).
att(11,45).
att(181,287).
att(259,9).
att(49,31).
att(209,11).
att(190,12).
att(174,13).
att(294,8).
att(290,249).
att(118,18).
att(110,19).
att(28,38).
att(260,9).
att(294,153).
att(162,193).
att(1,50).
att(148,15).
att(137,16).
att(74,25).
att(191,12).
att(3,49).
att(236,169).
att(261,9).
att(57,29).
att(298,152).
att(211,11).
att(189,284).
att(234,10).
att(109,213).
att(262,9).
att(85,23).
att(29,248).
att(176,13).
att(26,39).
att(50,31).
att(14,44).
att(91,22).
att(212,11).
att(219,273).
att(80,24).
att(193,12).
att(150,15).
att(177,13).
att(213,11).
att(47,32).
att(299,8).
att(153,298).
att(98,21).
att(257,163).
att(86,23).
att(208,277).
att(237,10).
att(32,37).
att(214,11).
att(250,165).
att(178,13).
att(6,48).
att(140,16).
att(121,18).
att(301,8).
att(215,11).
att(223,173).
att(22,41).
att(239,10).
att(239,266).
att(268,160).
att(25,250).
att(141,16).
att(63,28).
att(216,11).
att(131,17).
att(122,18).
att(268,9).
att(180,13).
att(135,203).
att(77,25).
att(217,11).
att(269,9).
att(20,42).
att(97,218).
att(25,40).
att(52,31).
att(123,18).
att(53,237).
att(39,35).
att(115,19).
att(78,226).
att(154,15).
att(56,30).
att(242,265).
att(64,28).
att(271,9).
att(171,291).
att(7,48).
att(219,11).
att(5,49).
att(23,41).
att(201,180).
att(240,168).
att(102,216).
att(117,210).
att(155,15).
att(168,14).
att(16,44).
att(95,22).
att(31,38).
att(200,12).
att(287,155).
att(244,10).
att(211,276).
att(278,253).
att(112,212).
att(34,37).
att(125,18).
att(109,20).
att(102,21).
att(65,28).
att(146,199).
att(254,164).
att(96,22).
att(90,23).
att(180,187).
att(51,238).
att(135,17).
att(157,15).
att(217,175).
att(24,41).
att(189,184).
att(8,48).
att(32,38).
att(277,9).
att(6,49).
att(171,14).
att(75,26).
att(66,28).
att(2,51).
att(4,50).
att(44,34).
att(272,255).
att(15,255).
att(224,11).
att(91,23).
att(35,37).
att(38,36).
att(278,9).
att(13,256).
att(111,20).
att(249,10).
att(179,288).
att(172,14).
att(22,42).
att(254,261).
att(269,256).
att(225,11).
att(15,45).
att(159,15).
att(279,9).
att(137,17).
att(265,161).
att(76,26).
att(30,39).
att(95,219).
att(226,11).
att(280,9).
att(81,25).
att(92,23).
att(151,299).
att(20,43).
att(206,12).
att(251,10).
att(63,29).
att(25,41).
att(138,17).
att(120,19).
att(11,47).
att(187,285).
att(161,15).
att(258,163).
att(195,282).
att(93,23).
att(77,26).
att(190,13).
att(283,9).
att(121,19).
att(175,14).
att(56,31).
att(34,246).
att(211,177).
att(251,165).
att(31,39).
att(191,13).
att(58,235).
att(140,17).
att(231,269).
att(94,23).
att(34,38).
att(110,213).
att(166,192).
att(21,43).
att(269,160).
att(152,197).
att(107,21).
att(43,35).
att(224,173).
att(78,26).
att(40,36).
att(286,9).
att(256,10).
att(234,170).
att(57,31).
att(287,9).
att(291,249).
att(232,11).
att(257,10).
att(217,274).
att(206,278).
att(132,18).
att(108,21).
att(128,206).
att(194,13).
att(165,15).
att(44,35).
att(102,22).
att(93,220).
att(288,155).
att(205,179).
att(41,36).
att(213,12).
att(290,9).
att(27,41).
att(56,236).
att(182,287).
att(45,241).
att(143,17).
att(221,174).
att(154,16).
att(180,14).
att(80,26).
att(125,19).
att(134,18).
att(292,9).
att(103,22).
att(236,11).
att(292,154).
att(181,14).
att(25,42).
att(55,32).
att(248,166).
att(28,249).
att(190,284).
att(231,171).
att(45,35).
att(67,29).
att(126,19).
att(18,45).
att(86,223).
att(5,51).
att(145,17).
att(72,229).
att(52,33).
att(178,188).
att(92,24).
att(118,210).
att(158,195).
att(218,175).
att(26,250).
att(127,19).
att(199,13).
att(146,17).
att(119,20).
att(31,40).
att(181,187).
att(265,10).
att(87,25).
att(21,44).
att(240,11).
att(170,15).
att(64,30).
att(34,39).
att(46,35).
att(187,185).
att(200,13).
att(63,233).
att(137,18).
att(93,24).
att(43,36).
att(219,12).
att(147,17).
att(40,37).
att(53,33).
att(73,28).
att(228,172).
att(41,243).
att(8,50).
att(161,194).
att(50,34).
att(223,272).
att(301,246).
att(32,40).
att(243,11).
att(245,167).
att(52,238).
att(270,10).
att(149,17).
att(22,44).
att(107,22).
att(54,33).
att(20,253).
att(185,286).
att(84,26).
att(101,23).
att(270,160).
att(13,48).
att(95,24).
att(212,177).
att(51,34).
att(20,45).
att(212,276).
att(96,219).
att(61,234).
att(11,49).
att(108,22).
att(246,11).
att(9,50).
att(90,25).
att(33,40).
att(142,201).
att(55,33).
att(1,54).
att(141,18).
att(80,27).
att(39,38).
att(116,21).
att(209,178).
att(14,256).
att(23,44).
att(50,239).
att(67,30).
att(226,12).
att(275,10).
att(207,13).
att(153,197).
att(261,259).
att(86,26).
att(21,45).
att(117,21).
att(81,27).
att(110,22).
att(111,213).
att(34,40).
att(170,191).
att(6,260).
att(228,12).
att(4,261).
att(165,16).
att(251,11).
att(68,30).
att(35,246).
att(104,23).
att(8,51).
att(154,17).
att(29,42).
att(162,295).
att(297,153).
att(24,44).
att(252,11).
att(173,190).
att(232,171).
att(82,225).
att(301,152).
att(166,16).
att(135,19).
att(194,14).
att(278,158).
att(127,20).
att(22,45).
att(69,30).
att(35,40).
att(281,10).
att(200,181).
att(152,299).
att(78,28).
att(33,247).
att(88,26).
att(44,37).
att(212,13).
att(292,249).
att(83,27).
att(267,161).
att(181,15).
att(197,182).
att(124,208).
att(20,46).
att(106,23).
att(30,42).
att(196,14).
att(66,232).
att(100,24).
att(25,44).
att(51,35).
att(157,17).
att(137,19).
att(70,30).
att(239,169).
att(185,186).
att(169,16).
att(218,274).
att(62,32).
att(197,14).
att(18,47).
att(1,55).
att(99,218).
att(48,36).
att(121,21).
att(107,23).
att(260,163).
att(28,43).
att(23,45).
att(138,19).
att(207,278).
att(114,22).
att(198,14).
att(170,16).
att(101,24).
att(289,250).
att(286,10).
att(104,216).
att(130,20).
att(122,21).
att(31,42).
att(159,17).
att(80,226).
att(63,32).
att(162,194).
att(67,31).
att(44,242).
att(49,36).
att(237,12).
att(200,14).
att(183,287).
att(261,11).
att(172,16).
att(289,10).
att(123,21).
att(140,19).
att(43,38).
att(213,177).
att(64,233).
att(2,55).
att(116,22).
att(86,27).
att(72,30).
att(60,33).
att(290,10).
att(151,198).
att(226,173).
att(173,16).
att(32,42).
att(202,14).
att(15,49).
att(110,23).
att(220,13).
att(174,16).
att(117,22).
att(27,44).
att(35,41).
att(210,178).
att(294,154).
att(283,252).
att(165,294).
att(221,13).
att(265,11).
att(168,192).
att(23,252).
att(20,47).
att(65,32).
att(11,51).
att(163,17).
att(204,14).
att(266,11).
att(122,209).
att(25,45).
att(222,13).
att(78,227).
att(143,19).
att(105,24).
att(83,28).
att(33,42).
att(62,234).
att(58,34).
att(224,272).
att(223,13).
att(74,30).
att(150,300).
att(119,22).
att(23,46).
att(233,171).
att(16,49).
att(135,20).
att(66,32).
att(39,40).
att(42,39).
att(247,264).
att(127,21).
att(79,29).
att(55,35).
att(106,24).
att(245,12).
att(298,10).
att(84,28).
att(207,14).
att(174,190).
att(51,239).
att(155,18).
att(52,36).
att(186,286).
att(17,255).
att(299,10).
att(130,206).
att(220,175).
att(128,21).
att(34,42).
att(71,31).
att(179,16).
att(19,48).
att(67,32).
att(177,189).
att(247,12).
att(253,262).
att(101,25).
att(37,41).
att(193,15).
att(198,182).
att(121,22).
att(268,257).
att(301,10).
att(227,13).
att(60,235).
att(248,12).
att(17,49).
att(261,163).
att(265,258).
att(210,14).
att(192,184).
att(53,36).
att(249,12).
att(274,11).
att(81,29).
att(160,195).
att(181,16).
att(115,23).
att(27,45).
att(91,27).
att(35,42).
att(50,37).
att(211,14).
att(13,51).
att(57,35).
att(47,38).
att(139,20).
att(41,40).
att(230,13).
att(103,25).
att(131,21).
att(34,247).
att(216,275).
att(7,54).
att(159,18).
att(82,29).
att(100,218).
att(5,55).
att(149,19).
att(65,33).
att(197,15).
att(18,49).
att(181,288).
att(33,43).
att(163,194).
att(58,236).
att(140,20).
att(237,170).
att(51,37).
att(98,26).
att(88,223).
att(214,14).
att(265,162).
att(115,212).
att(184,16).
att(254,12).
att(39,41).
att(279,11).
att(233,13).
att(42,40).
att(233,269).
att(172,17).
att(215,14).
att(189,285).
att(161,18).
att(70,32).
att(255,12).
att(280,11).
att(118,23).
att(105,25).
att(290,250).
att(200,15).
att(153,299).
att(162,18).
att(94,27).
att(6,55).
att(84,29).
att(49,38).
att(257,12).
att(224,174).
att(201,15).
att(174,17).
att(24,47).
att(46,39).
att(236,268).
att(208,278).
att(143,20).
att(106,25).
att(56,36).
att(144,201).
att(202,15).
att(269,161).
att(28,250).
att(188,16).
att(259,12).
att(144,20).
att(27,46).
att(164,18).
att(172,191).
att(285,11).
att(13,52).
att(101,26).
att(107,25).
att(123,209).
att(239,267).
att(284,157).
att(86,224).
att(11,53).
att(38,42).
att(43,243).
att(286,11).
att(9,54).
att(165,18).
att(114,24).
att(96,27).
att(57,36).
att(261,12).
att(25,47).
att(175,190).
att(202,181).
att(200,281).
att(1,58).
att(241,169).
att(262,163).
att(18,50).
att(108,25).
att(102,26).
att(33,44).
att(54,37).
att(178,189).
att(146,20).
att(192,284).
att(147,200).
att(178,17).
att(23,48).
att(115,24).
att(73,32).
att(28,46).
att(82,30).
att(255,165).
att(181,188).
att(211,277).
att(109,25).
att(138,21).
att(103,26).
att(58,36).
att(87,29).
att(147,20).
att(192,16).
att(91,222).
att(265,12).
att(10,54).
att(98,27).
att(74,32).
att(180,17).
att(225,272).
att(66,34).
att(148,20).
att(83,30).
att(70,33).
att(70,231).
att(104,26).
att(6,56).
att(4,57).
att(158,19).
att(126,208).
att(275,255).
att(24,48).
att(117,24).
att(59,36).
att(238,170).
att(84,225).
att(18,255).
att(161,296).
att(181,17).
att(79,31).
att(251,263).
att(77,228).
att(61,235).
att(99,27).
att(294,11).
att(111,25).
att(16,256).
att(15,52).
att(105,26).
att(210,15).
att(71,33).
att(125,23).
att(89,29).
att(27,47).
att(150,20).
att(269,257).
att(50,240).
att(37,246).
att(53,38).
att(196,16).
att(297,248).
att(100,27).
att(183,17).
att(12,258).
att(20,50).
att(112,25).
att(101,218).
att(106,26).
att(50,39).
att(297,11).
att(119,24).
att(41,42).
att(271,12).
att(5,57).
att(8,260).
att(184,17).
att(230,14).
att(101,27).
att(33,45).
att(299,11).
att(152,20).
att(143,21).
att(135,22).
att(96,28).
att(36,44).
att(14,53).
att(39,43).
att(69,34).
att(48,40).
att(163,19).
att(45,41).
att(58,37).
att(206,279).
att(108,26).
att(33,248).
att(275,12).
att(136,22).
att(263,163).
att(242,169).
att(137,204).
att(289,156).
att(8,56).
att(97,28).
att(169,293).
att(253,13).
att(6,57).
att(175,18).
att(34,45).
att(216,15).
att(78,32).
att(115,25).
att(182,288).
att(103,27).
att(24,49).
att(66,35).
att(137,22).
att(122,24).
att(74,33).
att(52,39).
att(57,237).
att(254,13).
att(277,12).
att(176,190).
att(124,209).
att(165,19).
att(40,43).
att(98,28).
att(130,23).
att(189,17).
att(13,54).
att(27,48).
att(63,36).
att(56,38).
att(147,21).
att(75,33).
att(67,35).
att(219,15).
att(20,51).
att(71,34).
att(280,12).
att(278,159).
att(257,13).
att(9,56).
att(84,31).
att(204,16).
att(237,14).
att(38,44).
att(167,19).
att(149,301).
att(30,47).
att(25,49).
att(124,24).
att(281,12).
att(41,43).
att(55,238).
att(191,17).
att(80,32).
att(177,290).
att(27,251).
att(216,177).
att(168,19).
att(240,267).
att(23,50).
att(100,28).
att(72,34).
att(14,54).
att(106,27).
att(54,39).
att(25,252).
att(223,273).
att(42,244).
att(21,51).
att(133,23).
att(127,208).
att(12,55).
att(159,20).
att(141,22).
att(39,44).
att(207,16).
att(42,43).
att(165,194).
att(26,49).
att(101,28).
att(65,36).
att(201,281).
att(71,231).
att(23,253).
att(69,35).
att(73,34).
att(208,16).
att(262,13).
att(107,27).
att(91,30).
att(134,23).
att(34,46).
att(236,171).
att(263,13).
att(24,50).
att(120,25).
att(17,53).
att(82,32).
att(209,16).
att(37,45).
att(243,14).
att(210,179).
att(143,22).
att(78,33).
att(40,44).
att(288,12).
att(49,41).
att(102,218).
att(22,51).
att(226,15).
att(244,14).
att(13,55).
att(121,25).
att(117,212).
att(27,49).
att(162,20).
att(184,18).
att(107,216).
att(51,240).
att(275,160).
att(245,14).
att(112,214).
att(227,15).
att(273,256).
att(252,263).
att(56,39).
att(38,246).
att(223,175).
att(9,57).
att(98,29).
att(5,59).
att(69,232).
att(3,60).
att(163,20).
att(129,24).
att(93,30).
att(38,45).
att(228,15).
att(267,13).
att(75,34).
att(233,172).
att(204,280).
att(247,14).
att(268,13).
att(16,54).
att(11,259).
att(164,20).
att(36,247).
att(123,25).
att(28,49).
att(94,30).
att(1,264).
att(49,241).
att(155,21).
att(138,23).
att(36,46).
att(295,249).
att(187,18).
att(268,162).
att(180,189).
att(196,283).
att(12,56).
att(72,35).
att(54,40).
att(39,45).
att(231,15).
att(183,188).
att(10,57).
att(31,48).
att(61,38).
att(295,12).
att(42,44).
att(192,185).
att(188,18).
att(250,14).
att(189,186).
att(34,248).
att(19,53).
att(139,23).
att(2,61).
att(166,20).
att(95,30).
att(232,15).
att(216,16).
att(34,47).
att(251,14).
att(120,211).
att(77,34).
att(69,36).
att(297,12).
att(125,25).
att(29,49).
att(292,250).
att(86,32).
att(37,46).
att(55,40).
att(217,16).
att(32,249).
att(62,38).
att(105,217).
att(74,230).
att(149,22).
att(82,33).
att(218,16).
att(11,57).
att(191,18).
att(9,58).
att(35,47).
att(159,21).
att(289,251).
att(120,26).
att(97,30).
att(56,40).
att(45,243).
att(301,12).
att(56,238).
att(25,51).
att(114,27).
att(38,46).
att(192,18).
att(93,222).
att(65,234).
att(83,33).
att(238,268).
att(67,37).
att(50,42).
att(221,274).
att(79,34).
att(181,19).
att(88,32).
att(221,16).
att(143,23).
att(98,30).
att(295,155).
att(169,193).
att(115,27).
att(279,13).
att(57,40).
att(258,165).
att(208,180).
att(123,210).
att(239,15).
att(258,14).
att(280,13).
att(144,23).
att(283,253).
att(129,25).
att(172,192).
att(8,59).
att(162,21).
att(72,36).
att(42,45).
att(240,15).
att(2,62).
att(280,159).
att(224,273).
att(205,181).
att(209,17).
att(260,14).
att(241,15).
att(105,29).
att(130,25).
att(29,50).
att(65,38).
att(280,254).
att(202,182).
att(37,47).
att(90,32).
att(210,17).
att(225,16).
att(131,207).
att(242,15).
att(69,37).
att(178,190).
att(138,24).
att(262,14).
att(139,204).
att(52,240).
att(226,16).
att(131,25).
att(27,51).
att(284,158).
att(46,44).
att(213,277).
att(196,184).
att(198,18).
att(9,59).
att(184,188).
att(262,164).
att(39,246).
att(285,13).
att(231,173).
att(18,256).
att(175,20).
att(139,24).
att(101,30).
att(35,48).
att(227,16).
att(190,186).
att(299,248).
att(96,31).
att(70,37).
att(30,50).
att(78,35).
att(126,209).
att(256,262).
att(107,29).
att(176,20).
att(287,13).
att(41,46).
att(53,42).
att(23,53).
att(102,30).
att(50,43).
att(44,45).
att(229,16).
att(37,247).
att(14,57).
att(83,34).
att(188,19).
att(214,17).
att(177,20).
att(60,40).
att(10,260).
att(121,211).
att(79,35).
att(134,206).
att(21,54).
att(120,27).
att(75,36).
att(230,16).
att(238,171).
att(142,203).
att(8,261).
att(267,14).
att(215,17).
att(6,262).
att(10,59).
att(158,22).
att(189,19).
att(4,263).
att(178,20).
att(127,26).
att(103,30).
att(39,47).
att(277,160).
att(93,32).
att(202,18).
att(150,23).
att(84,34).
att(291,13).
att(68,38).
att(190,19).
att(167,194).
att(153,199).
att(300,154).
att(17,56).
att(115,28).
att(80,35).
att(269,14).
att(24,53).
att(189,286).
att(75,230).
att(217,17).
att(293,250).
att(233,270).
att(259,165).
att(250,15).
att(270,14).
att(252,167).
att(143,24).
att(37,48).
att(65,39).
att(180,20).
att(22,54).
att(122,27).
att(110,29).
att(218,17).
att(116,28).
att(40,47).
att(94,222).
att(145,202).
att(219,275).
att(192,19).
att(234,16).
att(294,13).
att(43,46).
att(181,20).
att(161,22).
att(90,33).
att(77,36).
att(49,44).
att(252,15).
att(270,162).
att(156,198).
att(219,17).
att(236,269).
att(7,61).
att(206,181).
att(173,192).
att(1,64).
att(5,62).
att(235,16).
att(123,27).
att(35,49).
att(137,25).
att(59,41).
att(130,26).
att(30,51).
att(236,16).
att(203,182).
att(176,191).
att(70,38).
att(194,19).
att(254,15).
att(274,14).
att(78,36).
att(74,37).
att(207,18).
att(119,212).
att(263,164).
att(138,25).
att(183,20).
att(154,23).
att(112,29).
att(200,183).
att(80,228).
att(118,28).
att(195,19).
att(173,21).
att(132,207).
att(249,168).
att(192,285).
att(289,157).
att(60,41).
att(276,14).
att(184,20).
att(256,15).
att(64,235).
att(83,35).
att(164,22).
att(188,187).
att(140,204).
att(196,19).
att(223,17).
att(6,62).
att(132,26).
att(174,21).
att(97,32).
att(39,48).
att(209,18).
att(185,20).
att(42,47).
att(54,43).
att(42,245).
att(224,17).
att(51,44).
att(240,16).
att(148,24).
att(133,26).
att(29,52).
att(68,39).
att(281,254).
att(15,58).
att(186,20).
att(297,155).
att(98,32).
att(37,49).
att(166,22).
att(76,37).
att(13,59).
att(157,23).
att(85,226).
att(301,154).
att(58,42).
att(280,14).
att(141,25).
att(248,265).
att(11,60).
att(32,51).
att(89,34).
att(21,255).
att(260,15).
att(134,26).
att(199,19).
att(9,61).
att(281,14).
att(7,62).
att(52,44).
att(260,165).
att(85,35).
att(261,15).
att(3,64).
att(142,25).
att(282,14).
att(30,52).
att(254,263).
att(272,257).
att(262,15).
att(244,16).
att(154,199).
att(195,284).
att(168,22).
att(228,272).
att(117,213).
att(283,14).
att(159,23).
att(16,58).
att(116,29).
att(105,31).
att(210,180).
att(15,258).
att(260,261).
att(266,259).
att(23,55).
att(143,25).
att(86,35).
att(263,260).
att(129,27).
att(70,39).
att(12,60).
att(160,23).
att(50,45).
att(190,20).
att(215,18).
att(285,14).
att(117,29).
att(91,34).
att(152,24).
att(146,202).
att(26,54).
att(130,27).
att(223,176).
att(2,65).
att(5,263).
att(19,57).
att(264,164).
att(161,23).
att(217,276).
att(290,157).
att(57,43).
att(95,222).
att(145,25).
att(17,58).
att(217,18).
att(248,16).
att(92,34).
att(45,47).
att(34,249).
att(51,45).
att(288,14).
att(29,53).
att(97,33).
att(180,190).
att(125,28).
att(182,21).
att(193,20).
att(160,197).
att(164,296).
att(11,61).
att(163,23).
att(195,185).
att(120,212).
att(32,52).
att(192,186).
att(32,250).
att(40,49).
att(290,14).
att(291,251).
att(234,17).
att(76,38).
att(206,19).
att(194,20).
att(7,63).
att(183,21).
att(105,218).
att(1,66).
att(173,22).
att(103,32).
att(43,48).
att(251,16).
att(3,65).
att(74,231).
att(114,30).
att(220,275).
att(240,171).
att(18,58).
att(89,35).
att(140,26).
att(30,53).
att(30,251).
att(62,42).
att(174,22).
att(221,18).
att(293,14).
att(14,60).
att(152,200).
att(141,26).
att(222,18).
att(28,252).
att(128,209).
att(254,16).
att(10,62).
att(8,63).
att(128,28).
att(86,36).
att(63,42).
att(272,162).
att(223,274).
att(6,64).
att(255,16).
att(116,30).
att(227,175).
att(100,33).
att(201,282).
att(274,15).
att(26,253).
att(82,37).
att(31,53).
att(237,172).
att(72,232).
att(158,24).
att(167,23).
att(239,17).
att(211,180).
att(54,240).
att(187,21).
att(275,15).
att(123,211).
att(111,31).
att(57,44).
att(297,14).
att(24,254).
att(155,199).
att(29,54).
att(117,30).
att(87,36).
att(257,16).
att(101,33).
att(51,46).
att(103,219).
att(298,14).
att(118,213).
att(41,246).
att(208,181).
att(212,19).
att(244,170).
att(258,16).
att(108,217).
att(226,273).
att(299,14).
att(249,265).
att(32,53).
att(20,58).
att(152,25).
att(118,30).
att(295,156).
att(251,168).
att(91,224).
att(7,64).
att(107,32).
att(259,16).
att(52,241).
att(147,202).
att(102,33).
att(180,290).
att(72,40).
att(201,20).
att(252,264).
att(55,45).
att(18,59).
att(84,37).
att(145,26).
att(35,52).
att(190,21).
att(170,23).
att(139,205).
att(214,19).
att(30,54).
att(153,25).
att(125,29).
att(119,30).
att(258,262).
att(199,184).
att(267,259).
att(229,272).
att(69,41).
att(103,33).
att(269,163).
att(126,210).
att(14,259).
att(188,287).
att(132,28).
att(181,22).
att(154,25).
att(73,40).
att(85,37).
att(241,171).
att(81,38).
att(120,30).
att(66,42).
att(192,21).
att(150,201).
att(50,47).
att(175,292).
att(204,20).
att(101,220).
att(26,56).
att(155,25).
att(217,19).
att(31,54).
att(90,36).
att(70,41).
att(295,250).
att(115,31).
att(164,196).
att(142,204).
att(121,30).
att(86,37).
att(106,218).
att(95,35).
att(82,38).
att(232,18).
att(218,276).
att(273,162).
att(110,32).
att(207,280).
att(34,53).
att(248,17).
att(105,33).
att(57,45).
att(75,231).
att(54,46).
att(33,250).
att(91,36).
att(233,18).
att(266,16).
att(128,29).
att(122,30).
att(249,17).
att(27,56).
att(32,54).
att(94,223).
att(166,24).
att(40,51).
att(185,22).
att(3,67).
att(68,42).
att(196,21).
att(191,286).
att(129,29).
att(150,26).
att(158,25).
att(277,161).
att(221,19).
att(35,53).
att(296,156).
att(30,55).
att(225,176).
att(269,16).
att(97,35).
att(65,43).
att(124,211).
att(160,298).
att(76,40).
att(102,34).
att(84,38).
att(252,17).
att(300,155).
att(151,26).
att(38,52).
att(173,193).
att(118,31).
att(177,23).
att(187,22).
att(44,245).
att(12,63).
att(168,24).
att(144,27).
att(28,56).
att(137,28).
att(237,18).
att(210,20).
att(281,160).
att(104,219).
att(55,240).
att(10,64).
att(160,25).
att(152,26).
att(44,50).
att(73,41).
att(114,215).
att(270,163).
att(108,33).
att(56,46).
att(222,177).
att(4,67).
att(254,17).
att(119,31).
att(66,43).
att(169,24).
att(26,57).
att(81,39).
att(138,28).
att(31,55).
att(244,267).
att(94,36).
att(239,18).
att(242,171).
att(63,44).
att(179,23).
att(197,185).
att(24,58).
att(15,62).
att(90,37).
att(194,285).
att(126,30).
att(42,51).
att(240,18).
att(201,21).
att(162,25).
att(78,40).
att(249,169).
att(22,59).
att(154,26).
att(48,49).
att(257,17).
att(171,24).
att(85,227).
att(241,18).
att(275,16).
att(133,29).
att(151,201).
att(62,237).
att(202,21).
att(214,20).
att(296,15).
att(253,264).
att(40,52).
att(165,196).
att(299,249).
att(297,15).
att(116,32).
att(79,40).
att(277,16).
att(259,17).
att(192,22).
att(51,242).
att(58,46).
att(259,262).
att(268,259).
att(141,28).
att(181,290).
att(262,261).
att(265,260).
att(111,33).
att(15,259).
att(163,297).
att(229,19).
att(52,48).
att(278,16).
att(230,272).
att(278,161).
att(23,59).
att(92,37).
att(213,180).
att(69,234).
att(13,260).
att(193,22).
att(135,29).
att(183,23).
att(149,27).
att(60,238).
att(76,41).
att(261,17).
att(174,24).
att(97,36).
att(62,45).
att(123,31).
att(8,66).
att(7,263).
att(1,266).
att(280,16).
att(102,35).
att(107,34).
att(262,17).
att(231,19).
att(26,58).
att(150,27).
att(166,25).
att(218,20).
att(236,173).
att(175,24).
att(73,42).
att(53,48).
att(206,21).
att(158,26).
att(138,206).
att(176,292).
att(124,31).
att(39,53).
att(113,33).
att(108,34).
att(264,17).
att(34,55).
att(67,235).
att(204,183).
att(47,244).
att(186,23).
att(22,60).
att(220,20).
att(125,31).
att(152,27).
att(114,33).
att(99,36).
att(138,29).
att(20,61).
att(86,39).
att(149,202).
att(233,174).
att(1,70).
att(5,68).
att(187,23).
att(183,190).
att(209,21).
att(120,32).
att(81,229).
att(64,45).
att(200,283).
att(115,215).
att(250,18).
att(95,37).
att(18,62).
att(198,22).
att(189,188).
att(25,59).
att(153,27).
att(141,205).
att(222,20).
att(188,23).
att(139,29).
att(65,236).
att(68,44).
att(87,39).
att(28,253).
att(23,60).
att(179,24).
att(170,25).
att(133,30).
att(121,32).
att(52,49).
att(127,31).
att(154,27).
att(252,18).
att(237,19).
att(211,21).
att(162,26).
att(269,17).
att(140,29).
att(65,45).
att(33,56).
att(72,43).
att(284,254).
att(116,33).
att(21,61).
att(298,156).
att(43,246).
att(279,161).
att(41,53).
att(8,67).
att(253,18).
att(171,25).
att(2,70).
att(106,35).
att(76,42).
att(156,300).
att(212,21).
att(245,267).
att(86,227).
att(225,274).
att(54,241).
att(80,41).
att(69,44).
att(254,18).
att(247,170).
att(47,51).
att(281,255).
att(239,19).
att(97,37).
att(290,16).
att(248,266).
att(191,23).
att(203,282).
att(73,43).
att(66,45).
att(164,26).
att(202,22).
att(227,176).
att(283,160).
att(123,32).
att(240,19).
att(107,35).
att(195,285).
att(29,58).
att(34,56).
att(77,42).
att(173,25).
att(89,39).
att(192,23).
att(300,249).
att(241,19).
att(157,27).
att(103,36).
att(183,24).
att(3,70).
att(54,49).
att(51,50).
att(228,20).
att(260,262).
att(224,177).
att(158,199).
att(166,26).
att(158,27).
att(90,39).
att(78,42).
att(258,18).
att(244,171).
att(84,228).
att(137,30).
att(265,165).
att(86,40).
att(229,20).
att(77,231).
att(64,46).
att(178,192).
att(16,64).
att(125,32).
att(35,56).
att(205,22).
att(131,31).
att(144,29).
att(30,58).
att(231,272).
att(206,281).
att(109,35).
att(202,184).
att(61,47).
att(217,21).
att(182,290).
att(126,211).
att(258,167).
att(58,48).
att(296,16).
att(55,49).
att(176,25).
att(221,178).
att(91,39).
att(295,157).
att(87,40).
att(190,188).
att(8,68).
att(101,221).
att(168,26).
att(6,69).
att(196,23).
att(294,251).
att(2,71).
att(72,44).
att(207,22).
att(177,25).
att(280,161).
att(241,172).
att(116,215).
att(262,18).
att(146,29).
att(31,58).
att(164,197).
att(133,31).
att(197,23).
att(17,64).
att(127,32).
att(208,22).
att(161,27).
att(69,45).
att(280,17).
att(53,50).
att(24,61).
att(84,41).
att(177,292).
att(39,55).
att(237,270).
att(209,280).
att(248,170).
att(262,166).
att(281,17).
att(13,66).
att(209,22).
att(234,20).
att(134,31).
att(42,54).
att(264,18).
att(167,196).
att(31,252).
att(93,39).
att(45,53).
att(240,269).
att(112,35).
att(107,36).
att(89,40).
att(70,45).
att(235,20).
att(265,18).
att(85,41).
att(148,29).
att(32,58).
att(238,173).
att(283,17).
att(54,50).
att(137,207).
att(29,253).
att(190,24).
att(118,34).
att(156,28).
att(103,37).
att(172,26).
att(142,30).
att(80,230).
att(285,254).
att(64,47).
att(237,20).
att(212,279).
att(82,42).
att(212,22).
att(119,214).
att(23,62).
att(61,48).
att(292,158).
att(99,38).
att(252,19).
att(268,18).
att(277,162).
att(109,218).
att(58,49).
att(119,34).
att(52,51).
att(238,20).
att(25,255).
att(286,17).
att(206,183).
att(33,58).
att(226,274).
att(8,69).
att(104,37).
att(202,23).
att(259,167).
att(95,39).
att(253,19).
att(296,157).
att(92,225).
att(41,55).
att(180,291).
att(174,26).
att(226,21).
att(87,41).
att(214,22).
att(53,242).
att(222,178).
att(254,19).
att(120,34).
att(240,20).
att(197,186).
att(105,37).
att(85,228).
att(40,248).
att(59,49).
att(24,62).
att(138,31).
att(175,26).
att(110,36).
att(162,198).
att(255,19).
att(159,28).
att(69,46).
att(188,288).
att(242,172).
att(19,258).
att(145,30).
att(258,263).
att(270,259).
att(152,29).
att(151,202).
att(88,41).
att(228,21).
att(264,261).
att(66,47).
att(175,293).
att(73,45).
att(51,243).
att(122,213).
att(7,70).
att(160,28).
att(106,37).
att(127,33).
att(249,170).
att(3,72).
att(45,54).
att(195,24).
att(27,61).
att(153,29).
att(32,59).
att(77,44).
att(70,46).
att(18,65).
att(69,235).
att(90,226).
att(54,51).
att(274,18).
att(292,17).
att(81,43).
att(11,262).
att(207,281).
att(36,250).
att(16,66).
att(218,277).
att(229,176).
att(134,32).
att(107,37).
att(67,47).
att(295,251).
att(35,58).
att(275,18).
att(289,159).
att(259,19).
att(14,67).
att(98,39).
att(23,63).
att(197,24).
att(162,28).
att(78,44).
att(94,40).
att(245,20).
att(10,69).
att(38,57).
att(208,23).
att(28,61).
att(82,43).
att(49,53).
att(135,32).
att(148,30).
att(58,50).
att(146,204).
att(6,71).
att(2,73).
att(246,171).
att(220,22).
att(157,200).
att(226,177).
att(163,28).
att(41,56).
att(19,65).
att(209,23).
att(26,62).
att(142,31).
att(47,245).
att(296,17).
att(297,157).
att(221,276).
att(278,18).
att(156,29).
att(17,66).
att(95,40).
att(79,44).
att(199,24).
att(221,22).
att(262,19).
att(297,17).
att(114,36).
att(87,42).
att(47,54).
att(74,233).
att(282,161).
att(30,253).
att(181,26).
att(29,61).
att(223,178).
att(271,164).
att(137,32).
att(149,203).
att(131,33).
att(211,23).
att(133,209).
att(56,241).
att(9,70).
att(96,40).
att(80,44).
att(286,254).
att(7,71).
att(183,191).
att(141,206).
att(243,172).
att(1,74).
att(5,72).
att(115,36).
att(281,18).
att(198,186).
att(28,254).
att(182,26).
att(27,62).
att(88,42).
att(73,46).
att(32,60).
att(233,175).
att(93,225).
att(286,160).
att(138,32).
att(18,66).
att(174,27).
att(132,33).
att(224,22).
att(173,294).
att(166,28).
att(250,170).
att(51,53).
att(25,63).
att(237,21).
att(70,47).
att(266,19).
att(97,40).
att(251,20).
att(283,18).
att(81,44).
att(35,59).
att(93,41).
att(14,68).
att(127,34).
att(85,43).
att(24,256).
att(167,28).
att(43,56).
att(290,159).
att(133,33).
att(102,39).
att(79,231).
att(217,180).
att(250,266).
att(63,238).
att(122,35).
att(226,22).
att(136,208).
att(41,248).
att(28,62).
att(38,58).
att(277,257).
att(117,36).
att(4,73).
att(294,158).
att(103,221).
att(185,26).
att(274,258).
att(94,41).
att(163,298).
att(214,181).
att(41,57).
att(86,43).
att(108,219).
att(52,243).
att(216,278).
att(123,35).
att(17,67).
att(216,23).
att(18,259).
att(158,300).
att(299,250).
att(39,249).
att(268,260).
att(169,28).
att(44,56).
att(70,235).
att(287,18).
att(99,40).
att(261,167).
att(254,169).
att(16,260).
att(206,24).
att(39,58).
att(72,47).
att(95,41).
att(83,44).
att(170,28).
att(34,60).
att(56,52).
att(12,262).
att(283,161).
att(9,71).
att(208,183).
att(142,32).
att(109,38).
att(289,18).
att(10,263).
att(296,251).
att(1,75).
att(197,25).
att(20,66).
att(8,264).
att(257,20).
att(126,212).
att(2,267).
att(37,59).
att(219,277).
att(290,18).
att(208,281).
att(48,55).
att(244,21).
att(101,222).
att(88,43).
att(120,36).
att(164,29).
att(265,166).
att(189,26).
att(48,245).
att(172,28).
att(89,227).
att(14,69).
att(157,30).
att(70,48).
att(220,23).
att(259,20).
att(106,220).
att(196,187).
att(134,209).
att(199,25).
att(292,18).
att(12,70).
att(126,35).
att(75,233).
att(111,218).
att(200,284).
att(81,45).
att(144,32).
att(165,29).
att(132,34).
att(173,28).
att(93,42).
att(246,21).
att(293,18).
att(74,47).
att(151,31).
att(4,74).
att(239,270).
att(46,246).
att(19,67).
att(52,54).
att(295,158).
att(191,26).
att(234,22).
att(241,173).
att(166,29).
att(211,24).
att(211,280).
att(174,28).
att(17,68).
att(133,34).
att(139,33).
att(107,39).
att(31,62).
att(262,20).
att(295,18).
att(156,301).
att(167,197).
att(248,21).
att(278,19).
att(235,22).
att(223,23).
att(24,65).
att(90,43).
att(167,29).
att(87,228).
att(73,234).
att(175,28).
att(128,35).
att(39,59).
att(225,275).
att(11,71).
att(245,268).
att(50,55).
att(284,255).
att(224,23).
att(5,74).
att(83,45).
att(203,25).
att(176,28).
att(95,42).
att(238,174).
att(25,256).
att(69,49).
att(225,23).
att(273,164).
att(161,30).
att(104,40).
att(173,195).
att(154,31).
att(18,68).
att(251,21).
att(299,18).
att(92,226).
att(251,266).
att(23,257).
att(25,65).
att(80,46).
att(226,23).
att(114,38).
att(282,19).
att(159,200).
att(51,55).
att(30,63).
att(130,35).
att(96,42).
att(186,27).
att(254,265).
att(275,258).
att(21,258).
att(35,61).
att(266,166).
att(40,249).
att(283,19).
att(169,296).
att(257,264).
att(170,29).
att(77,47).
att(78,232).
att(216,24).
att(235,175).
att(269,260).
att(252,170).
att(292,159).
att(149,32).
att(231,273).
att(4,75).
att(163,30).
att(17,260).
att(81,46).
att(51,244).
att(197,187).
att(19,68).
att(137,34).
att(49,56).
att(85,45).
att(191,189).
att(26,65).
att(197,26).
att(241,22).
att(58,53).
att(55,54).
att(122,214).
att(229,23).
att(198,285).
att(31,63).
att(36,61).
att(135,209).
att(116,38).
att(242,173).
att(180,28).
att(242,22).
att(281,162).
att(165,198).
att(270,165).
att(232,176).
att(107,220).
att(9,264).
att(234,272).
att(36,251).
att(189,27).
att(1,268).
att(39,60).
att(107,40).
att(177,293).
att(22,67).
att(94,43).
att(65,51).
att(243,22).
att(50,56).
att(122,37).
att(231,23).
att(3,76).
att(209,281).
att(20,68).
att(139,34).
att(42,59).
att(72,49).
att(166,30).
att(152,32).
att(289,19).
att(18,69).
att(128,36).
att(83,46).
att(200,26).
att(69,50).
att(210,25).
att(67,237).
att(95,43).
att(191,27).
att(138,208).
att(171,196).
att(76,48).
att(123,37).
att(16,70).
att(172,295).
att(140,34).
att(48,57).
att(240,270).
att(201,284).
att(157,201).
att(274,20).
att(14,71).
att(289,160).
att(153,32).
att(51,56).
att(183,28).
att(201,26).
att(223,276).
att(88,228).
att(160,31).
att(35,62).
att(60,53).
att(12,72).
att(174,195).
att(210,183).
att(30,254).
att(275,20).
att(147,33).
att(43,59).
att(84,46).
att(234,23).
att(246,172).
att(135,35).
att(243,269).
att(141,34).
att(4,76).
att(247,22).
att(177,194).
att(207,184).
att(223,24).
att(115,217).
att(149,204).
att(105,41).
att(253,170).
att(67,51).
att(130,36).
att(49,57).
att(213,25).
att(226,275).
att(297,158).
att(93,226).
att(142,34).
att(183,192).
att(43,248).
att(31,64).
att(282,256).
att(36,62).
att(294,19).
att(24,67).
att(278,20).
att(249,267).
att(72,235).
att(131,36).
att(192,189).
att(186,28).
att(295,19).
att(170,30).
att(237,23).
att(195,27).
att(243,173).
att(215,279).
att(22,68).
att(68,51).
att(39,61).
att(250,22).
att(98,224).
att(126,37).
att(111,40).
att(196,286).
att(163,31).
att(34,63).
att(82,47).
att(264,21).
att(276,258).
att(7,75).
att(1,78).
att(50,57).
att(65,52).
att(41,249).
att(296,19).
att(229,274).
att(86,46).
att(175,294).
att(187,28).
att(123,214).
att(150,33).
att(42,60).
att(59,54).
att(166,198).
att(265,21).
att(179,29).
att(286,161).
att(297,19).
att(18,70).
att(72,50).
att(257,169).
att(227,24).
att(261,263).
att(52,244).
att(127,37).
att(239,23).
att(118,216).
att(45,59).
att(18,260).
att(188,28).
att(122,38).
att(275,164).
att(172,30).
att(155,202).
att(180,29).
att(217,25).
att(133,36).
att(99,43).
att(40,61).
att(66,52).
att(282,20).
att(207,282).
att(253,22).
att(139,35).
att(91,45).
att(267,21).
att(299,19).
att(54,56).
att(84,230).
att(77,233).
att(283,20).
att(21,69).
att(181,29).
att(4,77).
att(118,39).
att(268,21).
att(10,264).
att(268,166).
att(147,205).
att(294,159).
att(247,172).
att(33,64).
att(211,183).
att(146,34).
att(158,201).
att(227,178).
att(4,267).
att(2,268).
att(100,43).
att(284,20).
att(88,46).
att(26,67).
att(174,30).
att(92,45).
att(175,195).
att(126,213).
att(261,168).
att(67,52).
att(209,26).
att(298,158).
att(68,237).
att(41,61).
att(208,184).
att(285,20).
att(221,277).
att(31,65).
att(15,72).
att(160,32).
att(105,42).
att(81,48).
att(55,56).
att(191,28).
att(74,50).
att(58,55).
att(256,22).
att(292,253).
att(147,34).
att(178,293).
att(141,35).
att(210,26).
att(121,215).
att(150,204).
att(106,221).
att(283,162).
att(75,234).
att(181,193).
att(110,41).
att(271,21).
att(29,66).
att(154,33).
att(97,44).
att(257,22).
att(9,75).
att(168,31).
att(39,62).
att(192,28).
att(287,20).
att(68,52).
att(211,26).
att(142,207).
att(244,173).
att(176,30).
att(272,21).
att(196,188).
att(245,23).
att(193,189).
att(66,238).
att(62,54).
att(224,276).
att(202,284).
att(221,180).
att(94,226).
att(18,71).
att(37,63).
att(273,21).
att(194,287).
att(162,32).
att(286,255).
att(244,269).
att(259,22).
att(126,38).
att(246,23).
att(185,29).
att(177,30).
att(72,51).
att(234,24).
att(289,20).
att(121,39).
att(153,203).
att(14,73).
att(107,42).
att(194,28).
att(44,248).
att(48,59).
att(213,26).
att(218,181).
att(168,297).
att(73,235).
att(290,20).
att(23,69).
att(87,229).
att(291,160).
att(163,32).
att(247,268).
att(283,256).
att(51,58).
att(66,53).
att(112,41).
att(227,275).
att(80,232).
att(275,21).
att(8,76).
att(6,77).
att(21,70).
att(99,44).
att(291,20).
att(122,39).
att(64,239).
att(91,46).
att(280,257).
att(95,45).
att(236,24).
att(73,51).
att(108,42).
att(119,216).
att(42,249).
att(187,29).
att(179,30).
att(46,60).
att(292,20).
att(109,220).
att(280,163).
att(114,218).
att(205,283).
att(277,258).
att(158,301).
att(70,52).
att(215,26).
att(104,43).
att(84,48).
att(145,35).
att(299,158).
att(53,244).
att(118,40).
att(41,62).
att(77,50).
att(67,53).
att(31,66).
att(88,47).
att(15,73).
att(165,32).
att(36,64).
att(180,30).
att(259,264).
att(271,260).
att(262,263).
att(268,261).
att(55,57).
att(148,205).
att(13,74).
att(58,56).
att(197,28).
att(44,61).
att(176,195).
att(299,251).
att(62,240).
att(140,36).
att(22,70).
att(173,31).
att(9,76).
att(114,41).
att(251,23).
att(105,43).
att(159,33).
att(5,78).
att(85,48).
att(273,165).
att(217,26).
att(206,185).
att(20,71).
att(101,44).
att(228,25).
att(50,59).
att(203,186).
att(296,20).
att(174,31).
att(240,24).
att(218,26).
att(288,161).
att(56,57).
att(296,252).
att(200,187).
att(235,176).
att(82,49).
att(122,215).
att(16,73).
att(188,191).
att(120,40).
att(184,291).
att(45,61).
att(36,252).
att(3,268).
att(241,24).
att(1,269).
att(236,272).
att(154,34).
att(72,52).
att(267,22).
att(112,219).
att(200,285).
att(12,75).
att(23,70).
att(111,42).
att(98,45).
att(79,50).
att(183,30).
att(94,46).
att(192,288).
att(242,24).
att(6,78).
att(220,26).
att(2,80).
att(121,40).
att(299,20).
att(28,68).
att(176,31).
att(43,62).
att(76,51).
att(154,203).
att(60,56).
att(130,212).
att(33,66).
att(162,33).
att(67,238).
att(284,21).
att(179,293).
att(99,45).
att(91,47).
att(26,69).
att(256,23).
att(232,25).
att(17,73).
att(193,29).
att(216,182).
att(127,39).
att(156,34).
att(249,172).
att(41,63).
att(15,74).
att(138,37).
att(170,32).
att(163,33).
att(287,255).
att(74,235).
att(30,255).
att(225,276).
att(104,44).
att(194,29).
att(58,57).
att(203,28).
att(286,21).
att(100,45).
att(105,222).
att(258,23).
att(7,78).
att(174,295).
att(128,39).
att(213,27).
att(39,64).
att(123,40).
att(234,25).
att(139,37).
att(164,33).
att(115,218).
att(110,220).
att(20,72).
att(71,53).
att(133,211).
att(149,205).
att(105,44).
att(273,22).
att(235,25).
att(68,54).
att(53,59).
att(141,208).
att(172,32).
att(289,161).
att(65,55).
att(140,37).
att(196,29).
att(205,28).
att(278,258).
att(72,236).
att(188,30).
att(260,169).
att(159,34).
att(135,38).
att(182,292).
att(223,180).
att(163,200).
att(261,23).
att(40,64).
att(206,283).
att(166,33).
att(106,44).
att(275,22).
att(272,260).
att(195,189).
att(226,26).
att(152,204).
att(153,35).
att(237,25).
att(217,279).
att(79,51).
att(269,261).
att(120,41).
att(181,31).
att(4,80).
att(147,36).
att(51,60).
att(69,54).
att(189,30).
att(216,27).
att(20,260).
att(94,47).
att(66,55).
att(297,159).
att(60,57).
att(33,67).
att(243,174).
att(166,199).
att(39,251).
att(271,166).
att(282,163).
att(26,70).
att(182,31).
att(107,44).
att(16,262).
att(121,41).
att(126,40).
att(234,273).
att(61,241).
att(199,29).
att(31,68).
att(175,32).
att(161,34).
att(41,64).
att(264,23).
att(95,47).
att(264,168).
att(84,231).
att(77,234).
att(220,278).
att(137,38).
att(52,60).
att(209,282).
att(55,59).
att(22,72).
att(64,56).
att(209,28).
att(252,24).
att(127,40).
att(162,34).
att(237,272).
att(172,197).
att(169,33).
att(172,296).
att(241,25).
att(158,202).
att(68,238).
att(280,22).
att(59,242).
att(27,70).
att(156,35).
att(201,29).
att(201,285).
att(150,36).
att(71,54).
att(133,39).
att(101,224).
att(223,277).
att(33,254).
att(16,75).
att(85,50).
att(68,55).
att(193,30).
att(89,229).
att(267,23).
att(231,26).
att(75,235).
att(14,76).
att(139,38).
att(297,21).
att(116,218).
att(279,164).
att(23,72).
att(151,36).
att(101,46).
att(93,48).
att(161,201).
att(254,171).
att(243,25).
att(97,47).
att(134,39).
att(194,30).
att(162,300).
att(205,186).
att(119,42).
att(180,293).
att(129,40).
att(66,239).
att(283,22).
att(184,193).
att(269,23).
att(298,159).
att(94,227).
att(28,70).
att(86,50).
att(69,55).
att(199,188).
att(233,26).
att(299,21).
att(152,36).
att(146,37).
att(193,190).
att(66,56).
att(115,43).
att(38,66).
att(57,59).
att(204,284).
att(60,58).
att(257,24).
att(120,42).
att(46,63).
att(76,53).
att(300,21).
att(234,177).
att(249,268).
att(282,257).
att(159,35).
att(196,30).
att(196,287).
att(175,295).
att(214,28).
att(31,69).
att(80,233).
att(24,72).
att(258,24).
att(147,37).
att(166,34).
att(36,67).
att(246,25).
att(137,210).
att(251,172).
att(124,215).
att(25,258).
att(11,78).
att(116,43).
att(80,52).
att(218,182).
att(255,266).
att(276,259).
att(29,70).
att(131,40).
att(44,64).
att(55,60).
att(3,82).
att(126,41).
att(142,38).
att(64,57).
att(58,59).
att(189,31).
att(61,58).
att(273,260).
att(77,53).
att(156,203).
att(231,178).
att(34,68).
att(167,34).
att(39,66).
att(112,44).
att(276,165).
att(92,228).
att(53,245).
att(47,63).
att(260,24).
att(27,71).
att(137,39).
att(18,75).
att(88,50).
att(215,183).
att(291,161).
att(288,22).
att(42,65).
att(122,42).
att(92,49).
att(274,23).
att(16,76).
att(143,38).
att(173,197).
att(175,33).
att(168,34).
att(85,231).
att(269,167).
att(227,27).
att(199,286).
att(275,23).
att(12,78).
att(62,58).
att(280,164).
att(118,43).
att(109,45).
att(290,22).
att(13,264).
att(8,80).
att(169,34).
att(133,40).
att(89,50).
att(123,42).
att(75,54).
att(218,28).
att(2,83).
att(21,74).
att(150,37).
att(105,46).
att(299,159).
att(200,30).
att(101,47).
att(102,224).
att(69,238).
att(9,266).
att(184,32).
att(263,24).
att(206,186).
att(114,44).
att(291,22).
att(225,180).
att(163,35).
att(139,39).
att(182,194).
att(90,229).
att(151,205).
att(277,23).
att(38,67).
att(284,163).
att(119,43).
att(117,218).
att(273,166).
att(145,38).
att(110,45).
att(66,57).
att(60,59).
att(210,29).
att(124,42).
att(143,208).
att(129,41).
att(292,254).
att(90,50).
att(230,27).
att(94,49).
att(186,291).
att(165,200).
att(222,181).
att(13,78).
att(140,39).
att(41,66).
att(173,296).
att(49,63).
att(171,34).
att(36,68).
att(202,30).
att(211,29).
att(288,162).
att(152,37).
att(52,62).
att(194,31).
att(294,22).
att(5,82).
att(221,28).
att(266,24).
att(3,83).
att(242,26).
att(55,61).
att(179,33).
att(277,165).
att(91,50).
att(168,298).
att(203,30).
att(280,23).
att(213,281).
att(64,58).
att(212,29).
att(141,39).
att(61,59).
att(295,22).
att(232,178).
att(95,49).
att(30,256).
att(77,54).
att(286,256).
att(153,37).
att(136,40).
att(81,233).
att(180,33).
att(50,63).
att(171,198).
att(216,183).
att(25,73).
att(157,203).
att(268,24).
att(28,257).
att(296,160).
att(53,62).
att(110,221).
att(249,173).
att(12,79).
att(56,61).
att(205,284).
att(115,219).
att(23,74).
att(213,184).
att(269,24).
att(43,250).
att(8,81).
att(40,67).
att(253,267).
att(189,290).
att(174,34).
att(216,280).
att(298,22).
att(113,45).
att(48,64).
att(197,287).
att(277,259).
att(143,39).
att(160,202).
att(54,245).
att(206,30).
att(176,295).
att(259,265).
att(149,38).
att(284,23).
att(51,63).
att(235,27).
att(246,26).
att(118,44).
att(168,35).
att(225,28).
att(105,47).
att(79,234).
att(274,166).
att(97,49).
att(190,32).
att(123,43).
att(98,226).
att(300,22).
att(114,45).
att(247,26).
att(63,59).
att(20,261).
att(163,201).
att(24,74).
att(156,37).
att(150,38).
att(219,279).
att(186,193).
att(272,24).
att(152,205).
att(199,31).
att(289,162).
att(301,22).
att(192,191).
att(136,211).
att(253,172).
att(22,75).
att(260,25).
att(1,85).
att(5,83).
att(129,42).
att(102,48).
att(52,63).
att(287,23).
att(44,66).
att(113,220).
att(14,264).
att(200,286).
att(20,76).
att(55,62).
att(34,70).
att(170,35).
att(177,34).
att(238,27).
att(293,161).
att(27,73).
att(120,44).
att(228,28).
att(47,65).
att(135,41).
att(2,270).
att(146,39).
att(169,199).
att(84,53).
att(297,160).
att(275,24).
att(171,35).
att(293,254).
att(14,79).
att(282,164).
att(217,183).
att(53,63).
att(68,239).
att(12,80).
att(141,40).
att(147,207).
att(59,243).
att(250,173).
att(139,210).
att(88,52).
att(71,57).
att(48,248).
att(165,36).
att(276,24).
att(172,198).
att(112,46).
att(56,62).
att(290,23).
att(220,29).
att(290,255).
att(194,32).
att(242,271).
att(147,39).
att(65,59).
att(4,84).
att(179,34).
att(35,70).
att(40,68).
att(92,51).
att(62,60).
att(257,171).
att(159,37).
att(214,184).
att(89,230).
att(153,38).
att(108,47).
att(78,55).
att(252,26).
att(187,291).
att(82,233).
att(174,296).
att(166,36).
att(31,256).
att(75,56).
att(231,28).
att(43,67).
att(212,30).
att(46,249).
att(122,44).
att(137,41).
att(265,25).
att(17,78).
att(148,39).
att(89,52).
att(278,24).
att(292,23).
att(178,196).
att(54,63).
att(72,57).
att(242,27).
att(93,51).
att(66,59).
att(60,61).
att(24,75).
att(105,48).
att(169,298).
att(228,276).
att(41,68).
att(86,53).
att(237,177).
att(184,194).
att(44,250).
att(123,44).
att(251,268).
att(281,258).
att(27,258).
att(22,76).
att(7,83).
att(223,29).
att(294,23).
att(129,214).
att(233,28).
att(280,24).
att(3,85).
att(267,25).
att(182,293).
att(29,73).
att(90,52).
att(279,165).
att(55,245).
att(197,32).
att(278,259).
att(196,190).
att(99,226).
att(25,259).
att(119,45).
att(55,63).
att(64,241).
att(106,48).
att(281,24).
att(98,50).
att(275,260).
att(27,74).
att(162,37).
att(150,39).
att(139,41).
att(67,59).
att(137,211).
att(87,53).
att(245,27).
att(263,264).
att(115,46).
att(296,23).
att(269,25).
att(109,222).
att(225,29).
att(176,35).
att(216,30).
att(71,238).
att(191,33).
att(157,38).
att(283,24).
att(140,41).
att(30,73).
att(270,25).
att(45,67).
att(258,26).
att(132,213).
att(184,34).
att(78,235).
att(40,69).
att(88,53).
att(208,31).
att(17,263).
att(297,253).
att(271,25).
att(164,37).
att(287,163).
att(215,184).
att(19,78).
att(152,39).
att(112,47).
att(158,38).
att(121,45).
att(299,23).
att(141,41).
att(13,265).
att(171,36).
att(85,54).
att(17,79).
att(178,35).
att(127,215).
att(201,286).
att(9,267).
att(15,80).
att(147,40).
att(201,32).
att(300,23).
att(193,289).
att(3,270).
att(238,28).
att(72,58).
att(248,174).
att(249,27).
att(269,168).
att(179,196).
att(122,217).
att(240,272).
att(113,47).
att(301,23).
att(36,71).
att(93,52).
att(261,26).
att(76,236).
att(135,212).
att(137,42).
att(127,44).
att(202,32).
att(280,165).
att(34,255).
att(5,85).
att(97,51).
att(86,54).
att(295,161).
att(274,25).
att(180,294).
att(118,46).
att(143,209).
att(203,188).
att(185,194).
att(243,271).
att(154,39).
att(76,57).
att(220,30).
att(200,189).
att(188,193).
att(58,244).
att(90,53).
att(47,249).
att(197,190).
att(299,160).
att(95,228).
att(32,256).
att(55,64).
att(194,191).
att(27,75).
att(195,33).
att(114,47).
att(288,256).
att(226,277).
att(58,63).
att(128,44).
att(130,214).
att(110,48).
att(61,62).
att(221,30).
att(154,205).
att(102,50).
att(276,25).
att(14,81).
att(87,54).
att(37,71).
att(50,66).
att(215,281).
att(168,200).
att(23,77).
att(115,47).
att(91,53).
att(168,37).
att(53,65).
att(139,42).
att(28,258).
att(129,44).
att(4,86).
att(74,58).
att(259,171).
att(288,163).
att(120,218).
att(107,49).
att(171,199).
att(28,75).
att(103,50).
att(278,25).
att(110,222).
att(26,259).
att(145,41).
att(65,61).
att(276,260).
att(266,26).
att(140,42).
att(33,73).
att(43,69).
att(176,36).
att(51,66).
att(78,57).
att(198,33).
att(135,43).
att(54,246).
att(261,265).
att(279,25).
att(92,53).
att(165,300).
att(244,28).
att(15,81).
att(215,31).
att(85,55).
att(112,48).
att(96,52).
att(54,65).
att(121,46).
att(24,77).
att(199,287).
att(31,74).
att(191,290).
att(280,25).
att(11,83).
att(199,33).
att(177,36).
att(126,45).
att(184,35).
att(225,30).
att(245,28).
att(294,24).
att(164,38).
att(268,26).
att(235,29).
att(180,196).
att(235,274).
att(178,295).
att(18,263).
att(207,187).
att(20,79).
att(295,24).
att(257,27).
att(122,46).
att(210,283).
att(178,36).
att(101,51).
att(18,80).
att(27,76).
att(153,40).
att(105,50).
att(91,230).
att(14,265).
att(127,45).
att(108,223).
att(296,24).
att(274,167).
att(73,59).
att(144,209).
att(295,254).
att(247,28).
att(195,191).
att(227,30).
att(61,63).
att(50,248).
att(283,25).
att(14,82).
att(166,201).
att(173,297).
att(6,269).
att(114,48).
att(2,271).
att(12,83).
att(123,46).
att(50,67).
att(253,173).
att(98,52).
att(248,28).
att(271,26).
att(241,272).
att(194,34).
att(284,25).
att(131,214).
att(6,86).
att(173,37).
att(169,200).
att(21,79).
att(220,183).
att(187,35).
att(149,41).
att(40,71).
att(260,27).
att(278,166).
att(74,59).
att(272,26).
att(84,56).
att(28,76).
att(233,179).
att(243,176).
att(33,256).
att(59,64).
att(71,60).
att(139,211).
att(289,256).
att(144,42).
att(68,61).
att(62,63).
att(101,226).
att(293,162).
att(203,33).
att(111,49).
att(129,45).
att(261,27).
att(174,37).
att(99,52).
att(273,26).
att(181,294).
att(43,70).
att(286,25).
att(103,51).
att(227,277).
att(181,36).
att(38,72).
att(82,234).
att(15,82).
att(230,30).
att(121,218).
att(57,245).
att(204,33).
att(262,27).
att(274,26).
att(214,185).
att(116,220).
att(31,75).
att(145,42).
att(251,28).
att(175,37).
att(250,269).
att(134,213).
att(29,258).
att(112,49).
att(1,89).
att(94,229).
att(301,160).
att(60,64).
att(178,197).
att(151,41).
att(108,50).
att(197,34).
att(142,210).
att(176,296).
att(181,196).
att(227,181).
att(242,29).
att(18,81).
att(117,48).
att(183,36).
att(164,202).
att(113,49).
att(265,264).
att(42,252).
att(171,298).
att(153,206).
att(25,78).
att(109,50).
att(101,52).
att(277,26).
att(290,25).
att(14,83).
att(105,51).
att(191,35).
att(61,64).
att(184,293).
att(215,32).
att(83,57).
att(224,182).
att(12,84).
att(64,63).
att(290,163).
att(104,225).
att(254,173).
att(10,85).
att(50,68).
att(23,79).
att(118,48).
att(145,209).
att(132,45).
att(80,58).
att(166,300).
att(266,27).
att(192,290).
att(159,40).
att(114,49).
att(87,56).
att(236,274).
att(77,59).
att(185,36).
att(62,243).
att(148,42).
att(106,51).
att(244,176).
att(19,81).
att(267,27).
att(78,236).
att(245,29).
att(74,60).
att(235,30).
att(48,69).
att(84,57).
att(222,279).
att(256,28).
att(179,295).
att(154,41).
att(217,32).
att(133,45).
att(65,63).
att(138,44).
att(218,184).
att(298,161).
att(211,283).
att(272,168).
att(95,54).
att(15,83).
att(148,208).
att(115,49).
att(11,267).
att(251,174).
att(173,199).
att(149,42).
att(24,79).
att(294,25).
att(127,216).
att(159,204).
att(36,255).
att(1,272).
att(218,32).
att(281,26).
att(227,31).
att(258,172).
att(155,41).
att(102,226).
att(167,39).
att(247,29).
att(36,74).
att(1,90).
att(161,40).
att(120,48).
att(187,36).
att(241,177).
att(210,33).
att(202,34).
att(122,218).
att(60,65).
att(225,278).
att(76,237).
att(195,289).
att(107,224).
att(69,62).
att(20,81).
att(116,49).
att(83,234).
att(276,167).
att(179,197).
att(151,207).
att(238,30).
att(296,25).
att(44,71).
att(89,56).
att(214,282).
att(245,271).
att(211,33).
att(181,37).
att(162,40).
att(182,196).
att(248,175).
att(135,45).
att(32,257).
att(229,31).
att(16,83).
att(121,48).
att(249,29).
att(291,163).
att(260,28).
att(117,49).
att(284,258).
att(164,301).
att(188,194).
att(255,173).
att(165,202).
att(225,182).
att(182,37).
att(189,36).
att(262,171).
att(157,41).
att(146,43).
att(23,80).
att(163,40).
att(221,32).
att(67,63).
att(101,53).
att(250,29).
att(154,206).
att(88,232).
att(141,44).
att(261,28).
att(136,45).
att(206,285).
att(122,48).
att(213,33).
att(53,68).
att(80,59).
att(35,75).
att(299,25).
att(190,36).
att(183,37).
att(168,201).
att(278,260).
att(146,209).
att(65,242).
att(222,32).
att(286,26).
att(262,28).
att(127,47).
att(56,67).
att(299,161).
att(26,260).
att(260,266).
att(120,219).
att(177,296).
att(198,35).
att(142,44).
att(284,165).
att(33,76).
att(26,79).
att(157,205).
att(62,65).
att(252,29).
att(15,84).
att(263,28).
att(24,261).
att(184,37).
att(242,30).
att(51,69).
att(13,85).
att(234,275).
att(148,43).
att(199,35).
att(215,33).
att(41,253).
att(220,280).
att(264,28).
att(3,90).
att(185,37).
att(154,42).
att(57,67).
att(29,78).
att(107,52).
att(160,41).
att(52,248).
att(49,70).
att(92,56).
att(85,58).
att(265,28).
att(72,62).
att(69,63).
att(225,32).
att(179,38).
att(186,37).
att(210,187).
att(134,46).
att(52,69).
att(82,59).
att(123,218).
att(266,28).
att(173,39).
att(217,33).
att(61,244).
att(278,27).
att(239,178).
att(152,207).
att(12,267).
att(161,41).
att(183,196).
att(25,80).
att(167,40).
att(112,51).
att(209,34).
att(136,213).
att(256,173).
att(32,77).
att(118,220).
att(10,268).
att(291,26).
att(212,283).
att(150,43).
att(296,162).
att(6,270).
att(58,67).
att(2,272).
att(201,190).
att(121,49).
att(189,194).
att(8,88).
att(61,66).
att(30,78).
att(50,70).
att(202,35).
att(246,30).
att(35,256).
att(67,64).
att(166,202).
att(243,272).
att(168,40).
att(300,161).
att(45,72).
att(126,48).
att(101,54).
att(90,57).
att(131,215).
att(59,245).
att(155,206).
att(48,250).
att(188,292).
att(188,37).
att(237,31).
att(246,271).
att(288,257).
att(285,165).
att(247,30).
att(196,289).
att(228,32).
att(146,44).
att(175,39).
att(157,42).
att(94,56).
att(141,45).
att(77,61).
att(87,58).
att(215,282).
att(169,40).
att(101,227).
att(294,26).
att(196,36).
att(15,85).
att(74,62).
att(238,31).
att(285,258).
att(62,66).
att(260,172).
att(229,32).
att(204,35).
att(170,299).
att(172,200).
att(289,164).
att(11,87).
att(91,57).
att(259,29).
att(31,78).
att(9,88).
att(116,221).
att(170,40).
att(46,72).
att(137,46).
att(197,36).
att(249,30).
att(164,41).
att(36,76).
att(183,294).
att(41,74).
att(283,27).
att(134,214).
att(94,230).
att(165,301).
att(296,26).
att(57,68).
att(78,61).
att(213,34).
att(153,43).
att(44,252).
att(119,50).
att(99,55).
att(177,39).
att(60,67).
att(250,30).
att(261,266).
att(148,44).
att(63,66).
att(72,63).
att(198,36).
att(73,239).
att(270,263).
att(284,27).
att(55,247).
att(133,47).
att(85,59).
att(171,40).
att(297,26).
att(39,75).
att(25,261).
att(80,236).
att(240,178).
att(282,166).
att(129,216).
att(297,162).
att(82,60).
att(178,296).
att(298,26).
att(23,262).
att(120,50).
att(235,275).
att(89,58).
att(160,42).
att(10,88).
att(172,40).
att(100,55).
att(42,74).
att(192,37).
att(58,68).
att(21,263).
att(221,280).
att(242,31).
att(286,27).
att(2,92).
att(298,254).
att(30,79).
att(93,57).
att(263,29).
att(275,168).
att(71,240).
att(19,264).
att(179,39).
att(186,293).
att(193,37).
att(130,48).
att(53,70).
att(38,255).
att(140,46).
att(261,172).
att(48,72).
att(113,52).
att(105,54).
att(201,36).
att(224,279).
att(170,201).
att(11,268).
att(59,68).
att(217,34).
att(174,40).
att(162,42).
att(74,63).
att(7,270).
att(24,82).
att(36,256).
att(11,88).
att(226,33).
att(235,32).
att(51,71).
att(289,27).
att(9,89).
att(98,56).
att(277,28).
att(1,93).
att(218,185).
att(181,39).
att(266,29).
att(102,55).
att(210,35).
att(114,52).
att(127,49).
att(106,54).
att(290,27).
att(175,40).
att(110,53).
att(289,257).
att(272,169).
att(122,219).
att(227,278).
att(169,41).
att(57,69).
att(247,271).
att(152,44).
att(132,48).
att(18,85).
att(123,50).
att(60,68).
att(286,258).
att(147,45).
att(142,46).
att(196,37).
att(189,38).
att(279,28).
att(16,86).
att(179,198).
att(67,242).
att(176,297).
att(257,30).
att(143,211).
att(92,58).
att(25,82).
att(204,36).
att(292,27).
att(209,188).
att(230,277).
att(82,61).
att(212,35).
att(47,73).
att(253,269).
att(37,77).
att(42,75).
att(96,57).
att(258,30).
att(185,196).
att(130,216).
att(45,252).
att(269,29).
att(2,93).
att(79,62).
att(248,31).
att(256,268).
att(30,80).
att(177,40).
att(188,195).
att(56,247).
att(21,84).
att(165,42).
att(205,36).
att(221,34).
att(194,193).
att(271,263).
att(125,218).
att(270,29).
att(233,276).
att(28,81).
att(255,174).
att(249,31).
att(291,164).
att(166,301).
att(149,45).
att(282,28).
att(168,202).
att(178,40).
att(83,61).
att(120,220).
att(206,36).
att(240,32).
att(172,41).
att(56,70).
att(214,35).
att(260,30).
att(115,222).
att(15,87).
att(90,59).
att(93,231).
att(13,88).
att(101,56).
att(43,75).
att(245,177).
att(22,263).
att(236,275).
att(299,254).
att(24,83).
att(117,52).
att(11,89).
att(171,201).
att(62,68).
att(31,80).
att(150,45).
att(296,27).
att(86,234).
att(215,35).
att(20,264).
att(5,92).
att(3,93).
att(222,280).
att(219,185).
att(173,41).
att(273,169).
att(299,162).
att(252,175).
att(174,200).
att(98,57).
att(52,249).
att(239,274).
att(262,30).
att(160,205).
att(216,186).
att(233,33).
att(57,70).
att(18,86).
att(49,73).
att(27,82).
att(168,42).
att(298,27).
att(141,47).
att(203,287).
att(44,75).
att(39,77).
att(293,256).
att(123,219).
att(242,273).
att(286,28).
att(14,88).
att(157,44).
att(69,66).
att(209,36).
att(25,83).
att(163,204).
att(277,168).
att(99,57).
att(136,214).
att(299,27).
att(214,283).
att(10,90).
att(175,41).
att(249,176).
att(37,78).
att(103,56).
att(244,32).
att(287,28).
att(195,38).
att(207,189).
att(254,31).
att(210,36).
att(58,70).
att(239,179).
att(96,230).
att(21,85).
att(182,295).
att(158,44).
att(79,63).
att(228,278).
att(265,30).
att(166,203).
att(61,69).
att(288,28).
att(192,194).
att(248,271).
att(198,192).
att(203,37).
att(19,86).
att(124,51).
att(255,31).
att(153,45).
att(170,42).
att(70,66).
att(53,72).
att(211,36).
att(148,46).
att(296,163).
att(104,56).
att(89,233).
att(289,28).
att(26,83).
att(190,292).
att(31,259).
att(223,184).
att(159,44).
att(183,40).
att(126,218).
att(217,282).
att(139,213).
att(147,210).
att(236,180).
att(83,62).
att(48,74).
att(13,89).
att(237,33).
att(57,247).
att(38,78).
att(165,43).
att(97,58).
att(278,29).
att(106,226).
att(177,297).
att(171,42).
att(154,45).
att(80,63).
att(212,36).
att(278,261).
att(9,91).
att(158,206).
att(7,92).
att(149,46).
att(247,32).
att(5,93).
att(101,57).
att(257,31).
att(121,52).
att(74,65).
att(184,40).
att(229,34).
att(68,67).
att(238,33).
att(263,266).
att(291,28).
att(46,75).
att(94,59).
att(268,30).
att(117,53).
att(134,215).
att(109,55).
att(221,35).
att(54,72).
att(233,181).
att(213,36).
att(166,43).
att(172,299).
att(73,240).
att(55,248).
att(220,281).
att(155,45).
att(243,178).
att(87,234).
att(239,33).
att(150,46).
att(34,80).
att(300,254).
att(206,37).
att(289,165).
att(80,237).
att(64,244).
att(42,254).
att(99,229).
att(44,76).
att(199,38).
att(281,29).
att(25,84).
att(173,42).
att(106,56).
att(114,54).
att(240,33).
att(270,30).
att(69,67).
att(211,188).
att(53,249).
att(104,227).
att(186,40).
att(164,204).
att(271,170).
att(40,255).
att(297,255).
att(37,79).
att(55,72).
att(184,197).
att(4,94).
att(193,39).
att(109,225).
att(212,284).
att(241,33).
att(114,223).
att(174,42).
att(132,50).
att(190,195).
att(15,267).
att(38,256).
att(107,56).
att(61,70).
att(187,40).
att(251,32).
att(137,49).
att(45,76).
att(64,69).
att(76,65).
att(272,30).
att(17,88).
att(163,44).
att(242,33).
att(147,47).
att(181,41).
att(53,73).
att(247,177).
att(132,216).
att(226,279).
att(15,89).
att(209,37).
att(1,274).
att(36,257).
att(3,273).
att(124,52).
att(196,290).
att(69,242).
att(133,50).
att(56,72).
att(273,30).
att(60,246).
att(11,91).
att(43,77).
att(120,53).
att(234,34).
att(148,210).
att(254,175).
att(9,92).
att(116,54).
att(127,218).
att(288,258).
att(3,95).
att(51,74).
att(170,300).
att(226,35).
att(76,239).
att(77,65).
att(159,206).
att(65,69).
att(74,66).
att(244,33).
att(107,226).
att(290,165).
att(159,45).
att(71,67).
att(41,78).
att(286,29).
att(285,259).
att(183,295).
att(87,62).
att(112,224).
att(275,30).
att(154,46).
att(121,53).
att(227,35).
att(135,215).
att(207,286).
att(149,47).
att(84,63).
att(219,36).
att(299,28).
att(245,33).
att(287,29).
att(236,34).
att(265,31).
att(251,176).
att(197,39).
att(143,212).
att(81,64).
att(91,61).
att(14,90).
att(191,292).
att(160,45).
att(276,30).
att(212,188).
att(63,70).
att(228,35).
att(45,253).
att(300,28).
att(184,41).
att(212,37).
att(155,46).
att(220,36).
att(264,266).
att(72,67).
att(69,68).
att(270,264).
att(172,43).
att(150,47).
att(2,96).
att(4,95).
att(37,80).
att(209,189).
att(47,76).
att(205,38).
att(55,73).
att(198,39).
att(65,244).
att(110,56).
att(206,190).
att(235,276).
att(203,191).
att(238,34).
att(105,227).
att(138,214).
att(50,75).
att(136,50).
att(278,30).
att(19,88).
att(127,52).
att(82,64).
att(35,81).
att(156,46).
att(179,42).
att(146,211).
att(61,71).
att(45,77).
att(141,49).
att(238,180).
att(287,166).
att(151,47).
att(168,203).
att(93,232).
att(146,48).
att(76,66).
att(89,62).
att(107,57).
att(15,90).
att(132,51).
att(119,54).
att(96,60).
att(70,68).
att(222,36).
att(202,288).
att(255,175).
att(269,171).
att(168,301).
att(86,235).
att(180,42).
att(56,73).
att(157,46).
att(193,40).
att(222,185).
att(200,39).
att(249,33).
att(18,266).
att(31,83).
att(240,34).
att(5,95).
att(83,64).
att(223,36).
att(259,32).
att(241,274).
att(124,53).
att(104,58).
att(245,178).
att(16,267).
att(51,75).
att(213,284).
att(219,186).
att(14,268).
att(128,218).
att(90,62).
att(270,31).
att(169,44).
att(112,56).
att(97,60).
att(232,35).
att(281,30).
att(160,206).
att(41,79).
att(175,43).
att(12,269).
att(61,246).
att(54,74).
att(293,29).
att(153,47).
att(252,176).
att(101,59).
att(232,182).
att(4,273).
att(2,274).
att(34,82).
att(57,73).
att(205,287).
att(125,53).
att(189,293).
att(284,167).
att(113,224).
att(105,58).
att(261,32).
att(294,29).
att(134,51).
att(247,272).
att(202,39).
att(35,258).
att(217,37).
att(25,86).
att(176,43).
att(12,92).
att(117,55).
att(32,83).
att(139,50).
att(98,60).
att(250,271).
att(154,47).
att(252,33).
att(183,198).
att(210,189).
att(189,41).
att(68,243).
att(149,48).
att(75,67).
att(165,45).
att(230,278).
att(243,34).
att(196,40).
att(42,79).
att(207,190).
att(183,42).
att(21,88).
att(288,166).
att(131,217).
att(273,31).
att(296,29).
att(253,33).
att(155,208).
att(201,192).
att(31,260).
att(58,73).
att(195,194).
att(198,193).
att(35,82).
att(50,76).
att(184,295).
att(226,184).
att(208,286).
att(155,47).
att(82,237).
att(145,49).
att(57,248).
att(40,80).
att(45,78).
att(197,40).
att(270,171).
att(139,214).
att(219,282).
att(274,263).
att(147,211).
att(169,203).
att(172,44).
att(64,71).
att(79,66).
att(292,165).
att(264,32).
att(265,266).
att(67,70).
att(76,67).
att(236,35).
att(70,69).
att(212,38).
att(89,63).
att(281,168).
att(48,77).
att(24,87).
att(228,36).
att(298,29).
att(158,207).
att(220,37).
att(198,40).
att(246,178).
att(111,57).
att(151,48).
att(265,32).
att(134,216).
att(237,35).
att(173,44).
att(25,263).
att(83,65).
att(299,29).
att(222,281).
att(299,255).
att(274,170).
att(42,255).
att(128,53).
att(142,213).
att(104,59).
att(266,32).
att(65,71).
att(161,206).
att(18,90).
att(168,45).
att(124,54).
att(239,275).
att(300,29).
att(97,61).
att(277,31).
att(16,91).
att(133,52).
att(243,179).
att(230,36).
att(203,288).
att(296,256).
att(14,92).
att(163,46).
att(101,60).
att(124,220).
att(12,93).
att(138,51).
att(129,53).
att(92,233).
att(225,280).
att(60,73).
att(84,65).
att(230,183).
att(169,45).
att(289,166).
att(15,268).
att(6,96).
att(175,44).
att(81,66).
att(258,33).
att(184,198).
att(148,49).
att(223,37).
att(145,212).
att(250,177).
att(85,236).
att(194,41).
att(208,190).
att(66,71).
att(78,67).
att(47,78).
att(113,57).
att(30,85).
att(201,40).
att(240,35).
att(21,89).
att(11,270).
att(55,75).
att(182,296).
att(271,171).
att(188,42).
att(167,204).
att(7,272).
att(259,33).
att(3,274).
att(130,53).
att(257,175).
att(97,231).
att(199,193).
att(132,217).
att(224,37).
att(144,50).
att(60,247).
att(17,91).
att(149,49).
att(209,39).
att(49,252).
att(287,259).
att(61,73).
att(122,55).
att(82,66).
att(260,33).
att(170,203).
att(251,271).
att(102,229).
att(297,164).
att(198,290).
att(33,84).
att(90,234).
att(247,178).
att(281,31).
att(237,181).
att(79,67).
att(217,283).
att(225,37).
att(171,45).
att(160,47).
att(76,68).
att(242,35).
att(196,41).
att(210,39).
att(83,237).
att(9,95).
att(254,270).
att(231,278).
att(7,96).
att(89,64).
att(203,40).
att(32,260).
att(282,31).
att(22,89).
att(166,46).
att(107,59).
att(252,34).
att(243,35).
att(36,83).
att(172,300).
att(30,261).
att(29,86).
att(211,39).
att(161,47).
att(178,44).
att(176,201).
att(218,187).
att(46,79).
att(100,61).
att(93,63).
att(283,31).
att(209,286).
att(220,282).
att(234,277).
att(80,67).
att(162,206).
att(151,49).
att(143,213).
att(68,71).
att(104,60).
att(71,70).
att(290,166).
att(90,64).
att(273,32).
att(128,54).
att(279,169).
att(81,238).
att(49,78).
att(137,52).
att(284,31).
att(100,230).
att(185,43).
att(179,44).
att(26,263).
att(12,94).
att(162,47).
att(251,177).
att(43,255).
att(296,30).
att(228,37).
att(157,48).
att(274,32).
att(6,97).
att(23,89).
att(52,77).
att(272,171).
att(209,190).
att(241,180).
att(125,220).
att(105,228).
att(24,264).
att(180,297).
att(37,83).
att(138,215).
att(81,67).
att(206,191).
att(228,184).
att(66,72).
att(146,212).
att(138,52).
att(191,196).
att(283,168).
att(55,76).
att(229,37).
att(298,164).
att(63,246).
att(35,84).
att(113,58).
att(117,57).
att(50,78).
att(58,75).
att(214,39).
att(153,49).
att(169,46).
att(134,53).
att(45,80).
att(175,45).
att(294,257).
att(181,44).
att(61,74).
att(33,85).
att(13,94).
att(194,42).
att(126,55).
att(144,51).
att(222,186).
att(70,243).
att(12,270).
att(110,59).
att(99,62).
att(170,46).
att(246,273).
att(201,41).
att(269,172).
att(73,70).
att(61,247).
att(3,99).
att(10,271).
att(31,86).
att(56,76).
att(223,38).
att(262,174).
att(231,37).
att(8,272).
att(174,202).
att(176,45).
att(300,30).
att(235,182).
att(91,234).
att(50,252).
att(59,75).
att(229,279).
att(219,187).
att(288,259).
att(183,296).
att(108,227).
att(36,84).
att(51,78).
att(96,63).
att(84,237).
att(268,33).
att(280,169).
att(209,40).
att(207,287).
att(145,51).
att(155,49).
att(150,50).
att(252,271).
att(152,210).
att(27,88).
att(93,64).
att(48,253).
att(16,93).
att(191,293).
att(259,34).
att(68,72).
att(144,213).
att(14,94).
att(166,47).
att(74,70).
att(255,270).
att(196,42).
att(250,35).
att(49,79).
att(273,171).
att(25,89).
att(90,65).
att(104,61).
att(242,180).
att(183,199).
att(279,262).
att(280,32).
att(172,46).
att(190,43).
att(266,173).
att(260,34).
att(31,261).
att(60,75).
att(46,254).
att(299,164).
att(166,205).
att(207,191).
att(137,53).
att(57,249).
att(155,209).
att(167,47).
att(226,38).
att(21,91).
att(29,262).
att(47,80).
att(204,41).
att(192,196).
att(261,34).
att(191,43).
att(271,33).
att(19,92).
att(78,69).
att(243,36).
att(169,204).
att(28,88).
att(91,65).
att(301,255).
att(27,263).
att(293,31).
att(235,37).
att(58,76).
att(40,83).
att(109,60).
att(212,40).
att(168,47).
att(88,66).
att(272,33).
att(125,56).
att(113,59).
att(270,172).
att(253,35).
att(117,58).
att(263,174).
att(134,217).
att(174,46).
att(294,31).
att(87,236).
att(53,78).
att(220,39).
att(64,246).
att(134,54).
att(228,38).
att(158,49).
att(148,51).
att(5,99).
att(273,33).
att(3,100).
att(48,80).
att(67,73).
att(142,214).
att(21,266).
att(70,72).
att(76,70).
att(254,35).
att(169,47).
att(284,32).
att(40,257).
att(20,92).
att(175,46).
att(264,34).
att(29,88).
att(187,44).
att(296,165).
att(244,274).
att(217,188).
att(178,201).
att(17,268).
att(214,40).
att(18,93).
att(233,183).
att(246,36).
att(255,35).
att(227,280).
att(62,75).
att(189,294).
att(34,86).
att(214,189).
att(153,210).
att(238,37).
att(14,95).
att(140,53).
att(230,38).
att(68,73).
att(11,271).
att(9,272).
att(165,48).
att(49,80).
att(289,259).
att(7,273).
att(123,57).
att(32,87).
att(8,98).
att(160,49).
att(150,51).
att(90,66).
att(266,34).
att(276,33).
att(187,198).
att(2,101).
att(223,39).
att(69,244).
att(171,47).
att(104,62).
att(60,76).
att(205,192).
att(52,79).
att(257,35).
att(289,167).
att(21,92).
att(30,88).
att(177,46).
att(216,40).
att(253,271).
att(184,296).
att(202,42).
att(196,195).
att(47,81).
att(209,41).
att(267,34).
att(256,270).
att(94,65).
att(140,215).
att(127,220).
att(288,32).
att(28,89).
att(69,73).
att(116,59).
att(196,43).
att(156,50).
att(17,94).
att(172,47).
att(233,278).
att(293,166).
att(190,44).
att(203,42).
att(278,33).
att(262,268).
att(45,82).
att(105,62).
att(210,41).
att(184,45).
att(112,226).
att(159,208).
att(117,224).
att(241,37).
att(33,87).
att(247,179).
att(61,76).
att(95,233).
att(53,79).
att(9,98).
att(147,52).
att(7,99).
att(279,33).
att(157,50).
att(113,60).
att(221,187).
att(125,57).
att(138,54).
att(102,63).
att(82,69).
att(176,202).
att(185,45).
att(56,78).
att(143,214).
att(254,177).
att(88,236).
att(76,71).
att(234,183).
att(20,93).
att(286,168).
att(26,264).
att(130,219).
att(43,256).
att(261,175).
att(51,80).
att(99,64).
att(130,56).
att(205,42).
att(158,50).
att(212,41).
att(261,35).
att(227,39).
att(180,46).
att(139,54).
att(126,57).
att(54,251).
att(122,58).
att(118,59).
att(86,68).
att(96,65).
att(165,206).
att(14,96).
att(169,48).
att(292,32).
att(154,210).
att(65,75).
att(83,69).
att(279,170).
att(25,91).
att(135,55).
att(68,74).
att(164,49).
att(20,267).
att(63,247).
att(193,44).
att(253,36).
att(188,198).
att(6,100).
att(2,102).
att(154,51).
att(206,192).
att(100,64).
att(191,197).
att(228,185).
att(168,205).
att(245,274).
att(194,196).
att(60,77).
att(90,67).
att(200,43).
att(245,37).
att(123,58).
att(294,166).
att(265,174).
att(228,280).
att(229,39).
att(87,68).
att(273,34).
att(248,273).
att(194,44).
att(55,79).
att(28,90).
att(160,50).
att(66,75).
att(84,69).
att(225,186).
att(10,272).
att(198,291).
att(37,259).
att(35,87).
att(155,51).
att(17,95).
att(177,299).
att(8,273).
att(248,179).
att(69,74).
att(94,66).
att(103,230).
att(298,165).
att(50,253).
att(2,276).
att(78,71).
att(101,64).
att(295,32).
att(287,260).
att(112,61).
att(251,272).
att(274,34).
att(26,91).
att(58,78).
att(230,39).
att(160,208).
att(35,260).
att(84,238).
att(123,222).
att(11,98).
att(166,49).
att(146,53).
att(118,224).
att(113,226).
att(287,168).
att(161,50).
att(151,52).
att(53,80).
att(275,34).
att(257,270).
att(269,173).
att(64,76).
att(262,175).
att(177,202).
att(22,93).
att(43,84).
att(172,48).
att(109,62).
att(209,42).
att(85,69).
att(278,263).
att(152,211).
att(95,66).
att(113,61).
att(163,207).
att(248,37).
att(263,268).
att(275,264).
att(266,267).
att(167,49).
att(184,46).
att(269,266).
att(121,59).
att(51,81).
att(152,52).
att(59,78).
att(157,51).
att(232,184).
att(106,63).
att(131,219).
att(298,32).
att(252,178).
att(62,77).
att(258,36).
att(225,40).
att(186,199).
att(155,210).
att(242,181).
att(25,92).
att(130,57).
att(106,229).
att(148,53).
att(96,66).
att(139,216).
att(189,198).
att(259,176).
att(212,286).
att(218,41).
att(299,32).
att(300,256).
att(44,84).
att(32,89).
att(122,59).
att(6,101).
att(2,103).
att(57,79).
att(71,74).
att(80,71).
att(77,72).
att(74,73).
att(259,36).
att(284,169).
att(116,225).
att(240,276).
att(107,63).
att(242,38).
att(37,87).
att(289,33).
att(21,94).
att(30,90).
att(60,78).
att(188,295).
att(186,46).
att(239,182).
att(111,62).
att(90,68).
att(279,34).
att(212,42).
att(87,237).
att(19,95).
att(251,37).
att(149,53).
att(164,50).
att(226,281).
att(154,52).
att(159,51).
att(175,48).
att(55,80).
att(119,60).
att(104,64).
att(277,171).
att(199,44).
att(123,59).
att(270,35).
att(15,97).
att(19,268).
att(50,82).
att(26,92).
att(72,74).
att(129,220).
att(136,56).
att(94,67).
att(161,208).
att(104,230).
att(101,65).
att(291,259).
att(112,62).
att(220,188).
att(246,180).
att(15,270).
att(7,101).
att(271,35).
att(1,104).
att(91,68).
att(281,34).
att(3,103).
att(124,222).
att(53,81).
att(38,87).
att(292,167).
att(13,271).
att(51,253).
att(253,37).
att(31,90).
att(207,43).
att(22,94).
att(85,238).
att(114,226).
att(98,66).
att(292,33).
att(137,217).
att(56,80).
att(245,38).
att(282,34).
att(181,201).
att(145,214).
att(237,39).
att(36,88).
att(178,299).
att(151,53).
att(177,48).
att(60,249).
att(76,73).
att(255,271).
att(274,172).
att(51,82).
att(156,52).
att(49,254).
att(215,42).
att(282,262).
att(183,47).
att(189,46).
att(132,219).
att(273,35).
att(125,59).
att(230,40).
att(187,199).
att(230,185).
att(62,78).
att(106,64).
att(90,236).
att(12,99).
att(54,81).
att(264,36).
att(156,210).
att(190,198).
att(102,231).
att(76,242).
att(89,69).
att(223,41).
att(193,197).
att(178,48).
att(270,266).
att(209,43).
att(6,102).
att(110,63).
att(199,195).
att(196,45).
att(58,250).
att(134,57).
att(184,47).
att(57,80).
att(83,71).
att(227,186).
att(170,205).
att(71,75).
att(30,263).
att(37,88).
att(117,225).
att(159,209).
att(42,86).
att(210,43).
att(238,277).
att(248,38).
att(301,256).
att(197,45).
att(100,66).
att(296,33).
att(163,51).
att(74,243).
att(135,57).
att(286,34).
att(15,98).
att(204,44).
att(26,265).
att(293,167).
att(97,67).
att(115,62).
att(221,188).
att(100,232).
att(84,71).
att(282,170).
att(11,100).
att(169,50).
att(123,60).
att(72,75).
att(198,45).
att(267,36).
att(9,101).
att(140,56).
att(24,94).
att(186,47).
att(192,46).
att(7,102).
att(5,103).
att(277,35).
att(108,64).
att(54,252).
att(61,79).
att(234,184).
att(205,44).
att(298,33).
att(31,91).
att(175,49).
att(275,172).
att(125,222).
att(145,55).
att(268,36).
att(64,78).
att(110,228).
att(154,211).
att(244,181).
att(199,45).
att(132,58).
att(288,34).
att(138,217).
att(120,224).
att(63,248).
att(261,176).
att(268,174).
att(116,62).
att(56,81).
att(128,59).
att(193,46).
att(299,33).
att(36,89).
att(120,61).
att(86,238).
att(292,259).
att(79,241).
att(85,71).
att(185,200).
att(212,191).
att(18,97).
att(269,36).
att(16,270).
att(79,73).
att(16,98).
att(176,49).
att(46,85).
att(109,64).
att(27,93).
att(243,39).
att(14,99).
att(34,90).
att(200,45).
att(184,297).
att(12,272).
att(182,48).
att(251,179).
att(203,194).
att(194,197).
att(113,63).
att(12,100).
att(157,210).
att(133,58).
att(54,82).
att(228,41).
att(252,38).
att(270,36).
att(117,62).
att(208,288).
att(290,34).
att(261,37).
att(4,276).
att(2,277).
att(6,103).
att(156,53).
att(32,91).
att(236,40).
att(244,39).
att(280,35).
att(99,67).
att(44,86).
att(23,95).
att(128,221).
att(171,205).
att(68,77).
att(201,45).
att(200,291).
att(233,279).
att(183,48).
att(147,55).
att(37,89).
att(96,68).
att(225,187).
att(172,50).
att(74,75).
att(77,74).
att(160,209).
att(245,39).
att(60,80).
att(222,42).
att(174,204).
att(118,225).
att(167,51).
att(33,262).
att(178,49).
att(222,188).
att(35,90).
att(107,65).
att(100,67).
att(230,41).
att(190,47).
att(40,88).
att(148,55).
att(174,301).
att(46,256).
att(216,43).
att(69,77).
att(9,102).
att(58,81).
att(89,237).
att(72,76).
att(104,66).
att(262,176).
att(1,106).
att(163,52).
att(115,63).
att(131,59).
att(66,247).
att(38,89).
att(119,62).
att(31,92).
att(61,80).
att(94,69).
att(239,40).
att(210,44).
att(174,50).
att(27,265).
att(294,34).
att(274,36).
att(232,185).
att(126,222).
att(101,67).
att(225,282).
att(91,70).
att(186,200).
att(29,93).
att(169,51).
att(154,54).
att(56,82).
att(242,276).
att(204,45).
att(291,168).
att(55,252).
att(94,235).
att(18,98).
att(252,179).
att(248,39).
att(159,53).
att(242,182).
att(207,193).
att(51,84).
att(225,42).
att(275,36).
att(42,258).
att(82,73).
att(198,196).
att(14,100).
att(175,50).
att(79,74).
att(124,61).
att(273,173).
att(25,95).
att(296,34).
att(62,80).
att(53,253).
att(6,104).
att(286,35).
att(32,92).
att(199,46).
att(44,87).
att(113,64).
att(187,48).
att(142,216).
att(17,270).
att(146,56).
att(89,71).
att(71,245).
att(117,63).
att(234,41).
att(68,78).
att(104,231).
att(62,249).
att(15,271).
att(86,72).
att(206,45).
att(277,36).
att(125,61).
att(151,55).
att(175,204).
att(161,209).
att(83,73).
att(74,76).
att(227,42).
att(77,75).
att(166,52).
att(110,65).
att(28,94).
att(298,34).
att(288,169).
att(114,227).
att(7,275).
att(236,184).
att(185,297).
att(235,41).
att(3,277).
att(270,174).
att(137,218).
att(177,50).
att(243,40).
att(55,83).
att(207,45).
att(257,271).
att(26,95).
att(260,38).
att(269,37).
att(60,250).
att(97,234).
att(69,246).
att(234,279).
att(152,55).
att(299,34).
att(33,92).
att(278,264).
att(9,103).
att(263,269).
att(201,291).
att(34,262).
att(275,265).
att(24,96).
att(87,72).
att(279,36).
att(5,105).
att(289,35).
att(292,168).
att(269,267).
att(214,191).
att(261,38).
att(38,90).
att(178,50).
att(253,179).
att(61,81).
att(32,263).
att(167,207).
att(115,64).
att(222,43).
att(156,211).
att(280,36).
att(135,59).
att(184,49).
att(290,35).
att(173,51).
att(253,39).
att(274,173).
att(119,63).
att(29,94).
att(131,60).
att(140,217).
att(158,54).
att(56,83).
att(101,68).
att(301,34).
att(267,175).
att(202,195).
att(209,45).
att(170,206).
att(281,36).
att(51,85).
att(291,35).
att(70,78).
att(14,101).
att(98,69).
att(73,77).
att(185,49).
att(246,40).
att(159,210).
att(74,244).
att(263,38).
att(79,75).
att(197,47).
att(25,96).
att(136,59).
att(10,103).
att(8,104).
att(173,205).
att(6,105).
att(2,107).
att(164,53).
att(145,57).
att(81,241).
att(128,61).
att(180,50).
att(109,66).
att(100,233).
att(257,178).
att(24,267).
att(273,37).
att(247,40).
att(150,56).
att(186,49).
att(176,204).
att(175,51).
att(89,72).
att(294,259).
att(22,268).
att(19,99).
att(99,69).
att(137,59).
att(221,189).
att(86,73).
att(247,181).
att(52,85).
att(42,89).
att(225,43).
att(218,44).
att(47,87).
att(146,57).
att(125,223).
att(35,92).
att(205,46).
att(96,70).
att(282,171).
att(187,49).
att(79,242).
att(63,81).
att(86,239).
att(234,185).
att(39,260).
att(233,42).
att(52,254).
att(16,271).
att(218,285).
att(212,45).
att(226,43).
att(295,35).
att(24,97).
att(166,53).
att(285,36).
att(3,107).
att(12,273).
att(275,173).
att(58,83).
att(206,46).
att(69,79).
att(147,57).
att(107,67).
att(10,274).
att(87,73).
att(188,200).
att(122,63).
att(72,78).
att(234,42).
att(258,39).
att(126,62).
att(194,48).
att(50,255).
att(296,35).
att(48,87).
att(143,58).
att(111,66).
att(200,196).
att(35,262).
att(235,279).
att(128,222).
att(18,100).
att(183,50).
att(207,46).
att(167,53).
att(251,180).
att(16,101).
att(91,72).
att(214,45).
att(51,86).
att(228,43).
att(33,263).
att(14,102).
att(118,226).
att(34,93).
att(88,73).
att(144,58).
att(96,235).
att(10,104).
att(85,74).
att(272,174).
att(76,77).
att(184,50).
att(298,35).
att(265,176).
att(31,264).
att(269,38).
att(168,53).
att(105,68).
att(32,94).
att(62,82).
att(229,43).
att(196,48).
att(152,213).
att(44,89).
att(49,87).
att(136,60).
att(29,265).
att(279,37).
att(21,99).
att(261,39).
att(132,61).
att(270,38).
att(66,248).
att(154,56).
att(289,36).
att(128,62).
att(298,258).
att(68,80).
att(253,40).
att(189,296).
att(159,55).
att(44,258).
att(42,90).
att(164,54).
att(216,45).
att(230,43).
att(255,179).
att(17,101).
att(197,48).
att(86,74).
att(244,276).
att(227,282).
att(35,93).
att(183,202).
att(150,57).
att(238,42).
att(139,218).
att(94,236).
att(111,229).
att(26,97).
att(63,82).
att(186,201).
att(23,268).
att(40,91).
att(175,52).
att(133,61).
att(217,45).
att(281,37).
att(301,35).
att(204,47).
att(146,58).
att(110,67).
att(45,89).
att(7,106).
att(170,53).
att(87,239).
att(5,107).
att(165,54).
att(93,72).
att(184,298).
att(21,269).
att(192,199).
att(207,194).
att(169,207).
att(53,254).
att(114,66).
att(134,220).
att(252,180).
att(19,270).
att(201,196).
att(100,70).
att(280,172).
att(208,289).
att(232,43).
att(289,261).
att(176,52).
att(118,65).
att(84,75).
att(264,39).
att(17,271).
att(205,47).
att(48,88).
att(81,76).
att(78,77).
att(71,246).
att(219,285).
att(259,178).
att(18,101).
att(286,262).
att(130,62).
att(200,292).
att(129,222).
att(104,232).
att(256,40).
att(13,273).
att(283,37).
att(226,188).
att(27,97).
att(41,91).
att(143,59).
att(152,57).
att(124,224).
att(295,168).
att(46,89).
att(115,66).
att(1,279).
att(206,47).
att(280,264).
att(139,60).
att(70,80).
att(101,70).
att(194,49).
att(119,65).
att(223,189).
att(265,269).
att(60,251).
att(4,108).
att(137,219).
att(213,46).
att(69,247).
att(236,279).
att(76,78).
att(211,288).
att(82,76).
att(275,38).
att(234,43).
att(34,263).
att(98,71).
att(164,209).
att(207,47).
att(153,57).
att(105,69).
att(144,59).
att(95,72).
att(181,203).
att(37,93).
att(132,221).
att(90,238).
att(195,294).
att(267,39).
att(173,53).
att(217,191).
att(47,257).
att(235,43).
att(168,54).
att(68,81).
att(83,241).
att(17,102).
att(47,89).
att(233,186).
att(167,208).
att(214,192).
att(132,62).
att(156,212).
att(243,42).
att(127,223).
att(182,299).
att(251,41).
att(268,39).
att(211,193).
att(145,59).
att(113,67).
att(299,258).
att(122,225).
att(148,215).
att(281,172).
att(45,258).
att(112,229).
att(55,86).
att(236,43).
att(63,83).
att(208,194).
att(45,90).
att(169,54).
att(117,66).
att(222,45).
att(229,44).
att(260,40).
att(230,187).
att(185,51).
att(74,245).
att(150,58).
att(209,47).
att(206,290).
att(22,100).
att(191,50).
att(135,220).
att(81,242).
att(38,93).
att(133,62).
att(65,249).
att(198,293).
att(288,37).
att(298,36).
att(20,101).
att(227,188).
att(72,80).
att(175,53).
att(87,75).
att(223,45).
att(48,89).
att(285,171).
att(29,97).
att(151,214).
att(18,102).
att(186,51).
att(107,69).
att(210,47).
att(142,60).
att(41,260).
att(16,103).
att(192,50).
att(105,232).
att(97,72).
att(204,48).
att(20,270).
att(238,43).
att(290,261).
att(41,92).
att(181,52).
att(122,65).
att(126,64).
att(12,105).
att(46,90).
att(130,63).
att(104,70).
att(246,42).
att(67,82).
att(110,230).
att(147,59).
att(10,106).
att(25,99).
att(120,226).
att(254,273).
att(221,190).
att(289,170).
att(8,107).
att(161,56).
att(209,289).
att(6,108).
att(70,81).
att(138,219).
att(4,109).
att(271,175).
att(115,67).
att(154,213).
att(14,273).
att(220,285).
att(101,71).
att(23,100).
att(32,96).
att(73,80).
att(205,48).
att(165,209).
att(12,274).
att(108,69).
att(281,38).
att(62,84).
att(79,78).
att(182,52).
att(247,42).
att(37,262).
att(139,61).
att(8,276).
att(6,277).
att(98,72).
att(61,251).
att(4,278).
att(135,62).
att(185,202).
att(50,256).
att(148,59).
att(57,86).
att(264,40).
att(272,267).
att(254,180).
att(95,73).
att(168,208).
att(206,48).
att(188,201).
att(219,46).
att(200,49).
att(103,233).
att(248,42).
att(77,244).
att(233,44).
att(47,90).
att(144,60).
att(92,74).
att(292,37).
att(153,58).
att(223,284).
att(128,223).
att(102,71).
att(13,105).
att(48,257).
att(140,61).
att(120,66).
att(33,264).
att(74,80).
att(178,53).
att(123,225).
att(124,65).
att(80,78).
att(274,39).
att(9,107).
att(113,229).
att(5,109).
att(293,37).
att(168,55).
att(227,45).
att(241,184).
att(251,181).
att(145,60).
att(38,94).
att(214,47).
att(117,67).
att(275,39).
att(243,277).
att(179,53).
att(190,51).
att(141,61).
att(279,173).
att(110,69).
att(221,46).
att(82,242).
att(196,50).
att(101,234).
att(66,249).
att(137,62).
att(202,49).
att(150,59).
att(61,85).
att(177,205).
att(285,38).
att(238,185).
att(265,177).
att(100,72).
att(81,78).
att(114,68).
att(295,37).
att(64,84).
att(229,282).
att(180,53).
att(126,224).
att(34,96).
att(209,48).
att(191,296).
att(10,107).
att(286,38).
att(25,100).
att(268,40).
att(219,191).
att(199,293).
att(8,108).
att(178,301).
att(121,226).
att(170,55).
att(122,66).
att(94,74).
att(296,37).
att(235,186).
att(116,228).
att(59,86).
att(138,62).
att(183,203).
att(291,261).
att(39,94).
att(216,47).
att(255,180).
att(147,216).
att(21,270).
att(73,81).
att(54,88).
att(223,46).
att(49,90).
att(147,60).
att(62,85).
att(115,68).
att(101,72).
att(192,51).
att(269,40).
att(19,271).
att(85,77).
att(278,39).
att(108,70).
att(204,49).
att(189,201).
att(269,176).
att(169,208).
att(186,298).
att(166,56).
att(217,47).
att(15,273).
att(17,104).
att(258,272).
att(288,38).
att(204,196).
att(139,62).
att(201,197).
att(270,40).
att(224,46).
att(298,37).
att(15,105).
att(35,96).
att(131,64).
att(211,48).
att(142,218).
att(92,238).
att(261,271).
att(193,51).
att(242,184).
att(9,276).
att(13,106).
att(26,100).
att(92,75).
att(276,266).
att(5,278).
att(3,279).
att(85,241).
att(36,263).
att(3,111).
att(280,39).
att(63,85).
att(153,59).
att(60,252).
att(238,279).
att(69,248).
att(99,73).
att(263,41).
att(124,66).
att(266,177).
att(97,236).
att(38,95).
att(290,38).
att(132,64).
att(158,58).
att(213,288).
att(96,74).
att(300,37).
att(153,214).
att(20,103).
att(272,40).
att(281,39).
att(145,217).
att(43,93).
att(295,169).
att(29,99).
att(168,56).
att(117,68).
att(189,52).
att(241,278).
att(72,82).
att(213,48).
att(132,222).
att(58,253).
att(181,204).
att(236,186).
att(201,50).
att(273,40).
att(30,266).
att(14,106).
att(282,39).
att(56,88).
att(241,44).
att(159,58).
att(298,259).
att(277,174).
att(299,168).
att(217,192).
att(10,108).
att(51,90).
att(179,54).
att(292,38).
att(249,43).
att(28,267).
att(190,52).
att(169,56).
att(214,48).
att(257,42).
att(122,226).
att(214,193).
att(59,87).
att(283,39).
att(23,102).
att(146,61).
att(208,49).
att(155,59).
att(184,299).
att(211,194).
att(221,47).
att(111,70).
att(44,93).
att(208,195).
att(88,240).
att(43,260).
att(230,282).
att(266,41).
att(49,91).
att(160,58).
att(62,86).
att(205,196).
att(196,199).
att(30,99).
att(243,184).
att(19,104).
att(130,65).
att(191,52).
att(215,48).
att(275,40).
att(284,39).
att(101,73).
att(230,188).
att(292,170).
att(197,51).
att(57,88).
att(108,71).
att(243,44).
att(203,50).
att(42,94).
att(147,61).
att(98,74).
att(236,45).
att(20,271).
att(47,92).
att(119,68).
att(130,223).
att(251,43).
att(72,247).
att(68,84).
att(233,281).
att(227,189).
att(63,251).
att(60,87).
att(216,48).
att(139,63).
att(176,55).
att(127,66).
att(110,231).
att(16,273).
att(79,244).
att(52,256).
att(131,65).
att(24,102).
att(198,51).
att(283,264).
att(86,241).
att(55,89).
att(89,77).
att(224,190).
att(116,69).
att(260,42).
att(211,289).
att(277,40).
att(138,220).
att(148,61).
att(157,59).
att(109,71).
att(265,270).
att(10,276).
att(31,99).
att(154,214).
att(38,96).
att(37,263).
att(8,277).
att(6,278).
att(182,54).
att(70,248).
att(2,280).
att(193,52).
att(221,191).
att(144,62).
att(195,295).
att(50,257).
att(182,204).
att(253,43).
att(18,105).
att(29,100).
att(106,72).
att(96,75).
att(48,92).
att(133,222).
att(271,176).
att(188,53).
att(72,83).
att(103,234).
att(218,48).
att(14,107).
att(149,61).
att(75,82).
att(246,44).
att(215,193).
att(288,39).
att(110,71).
att(84,79).
att(33,265).
att(279,40).
att(34,98).
att(59,253).
att(262,42).
att(163,58).
att(212,194).
att(25,102).
att(46,93).
att(145,62).
att(8,110).
att(6,111).
att(168,57).
att(191,201).
att(298,38).
att(254,181).
att(2,113).
att(173,56).
att(282,173).
att(209,195).
att(206,196).
att(114,70).
att(171,208).
att(299,259).
att(39,96).
att(137,64).
att(197,199).
att(96,237).
att(46,259).
att(263,42).
att(159,59).
att(54,90).
att(226,47).
att(299,38).
att(245,277).
att(228,283).
att(29,267).
att(268,177).
att(30,100).
att(164,58).
att(104,73).
att(174,207).
att(82,243).
att(169,57).
att(297,169).
att(66,250).
att(241,185).
att(17,106).
att(155,60).
att(82,80).
att(251,182).
att(152,215).
att(248,276).
att(264,42).
att(15,107).
att(131,223).
att(196,52).
att(214,49).
att(177,206).
att(68,85).
att(202,51).
att(291,39).
att(9,110).
att(94,238).
att(301,38).
att(3,113).
att(257,43).
att(147,62).
att(180,205).
att(64,251).
att(272,176).
att(265,178).
att(45,94).
att(123,68).
att(193,296).
att(155,214).
att(80,244).
att(50,92).
att(63,87).
att(186,54).
att(19,272).
att(83,80).
att(209,50).
att(40,262).
att(147,217).
att(161,59).
att(38,97).
att(20,105).
att(266,42).
att(66,86).
att(109,72).
att(192,53).
att(293,39).
att(283,173).
att(62,252).
att(36,98).
att(216,49).
att(189,202).
att(275,267).
att(157,60).
att(198,52).
att(158,213).
att(106,73).
att(212,289).
att(210,50).
att(72,84).
att(187,54).
att(267,42).
att(104,234).
att(259,43).
att(93,77).
att(7,278).
att(12,109).
att(129,224).
att(195,200).
att(1,281).
att(75,83).
att(136,65).
att(182,55).
att(153,61).
att(87,79).
att(6,112).
att(117,70).
att(237,46).
att(4,113).
att(124,226).
att(114,230).
att(268,42).
att(119,228).
att(149,62).
att(32,100).
att(67,86).
att(229,189).
att(39,97).
att(161,212).
att(205,51).
att(295,39).
att(245,45).
att(226,284).
att(175,207).
att(44,95).
att(137,221).
att(163,59).
att(107,73).
att(231,47).
att(238,46).
att(183,300).
att(129,67).
att(154,61).
att(194,53).
att(168,58).
att(243,278).
att(300,259).
att(178,56).
att(73,84).
att(94,77).
att(76,246).
att(47,259).
att(259,180).
att(17,107).
att(296,39).
att(178,206).
att(58,254).
att(102,235).
att(206,51).
att(164,211).
att(79,82).
att(273,176).
att(15,108).
att(85,80).
att(225,48).
att(266,178).
att(67,250).
att(246,277).
att(191,297).
att(52,92).
att(232,47).
att(146,63).
att(254,44).
att(219,49).
att(9,111).
att(297,39).
att(199,294).
att(220,192).
att(115,71).
att(130,67).
att(201,52).
att(213,50).
att(218,287).
att(140,220).
att(95,238).
att(56,255).
att(284,173).
att(122,227).
att(247,45).
att(226,48).
att(74,247).
att(117,229).
att(55,91).
att(256,181).
att(240,46).
att(233,47).
att(50,93).
att(160,60).
att(271,42).
att(63,88).
att(105,74).
att(255,44).
att(187,203).
att(232,282).
att(31,101).
att(252,275).
att(81,244).
att(214,194).
att(38,98).
att(89,79).
att(196,53).
att(86,80).
att(147,63).
att(123,69).
att(190,202).
att(170,58).
att(102,75).
att(100,236).
att(175,57).
att(255,274).
att(127,68).
att(208,51).
att(227,48).
att(272,42).
att(41,262).
att(241,46).
att(48,94).
att(288,172).
att(16,108).
att(256,44).
att(20,272).
att(69,86).
att(285,264).
att(258,273).
att(290,40).
att(221,49).
att(143,219).
att(130,224).
att(173,208).
att(96,77).
att(186,55).
att(197,53).
att(41,97).
att(93,239).
att(215,50).
att(16,274).
att(56,91).
att(148,63).
att(228,48).
att(300,39).
att(52,257).
att(46,95).
att(242,46).
att(267,270).
att(64,88).
att(257,44).
att(78,83).
att(273,268).
att(144,64).
att(87,80).
att(260,180).
att(103,75).
att(32,101).
att(138,221).
att(267,178).
att(250,45).
att(6,279).
att(4,280).
att(301,39).
att(187,55).
att(70,249).
att(44,96).
att(224,191).
att(121,70).
att(149,63).
att(97,77).
att(165,211).
att(241,279).
att(73,85).
att(205,292).
att(285,173).
att(275,42).
att(129,68).
att(91,79).
att(84,243).
att(65,88).
att(230,48).
att(259,44).
att(293,40).
att(85,81).
att(154,62).
att(185,204).
att(11,111).
att(111,73).
att(128,225).
att(264,179).
att(101,76).
att(40,98).
att(150,63).
att(122,70).
att(159,61).
att(294,40).
att(46,260).
att(71,86).
att(260,44).
att(55,92).
att(146,64).
att(115,72).
att(200,53).
att(50,94).
att(209,196).
att(230,283).
att(171,209).
att(295,261).
att(142,65).
att(206,52).
att(254,182).
att(77,84).
att(92,79).
att(89,241).
att(244,185).
att(105,75).
att(225,49).
att(89,80).
att(174,58).
att(83,82).
att(195,54).
att(286,41).
att(112,73).
att(219,287).
att(151,63).
att(160,61).
att(53,93).
att(36,100).
att(48,95).
att(261,180).
att(201,53).
att(190,55).
att(213,51).
att(131,224).
att(147,64).
att(278,42).
att(296,40).
att(99,77).
att(256,274).
att(156,62).
att(139,66).
att(135,67).
att(94,239).
att(6,114).
att(180,57).
att(196,54).
att(64,252).
att(2,116).
att(4,115).
att(247,46).
att(297,170).
att(46,96).
att(106,75).
att(80,245).
att(87,242).
att(279,42).
att(236,281).
att(90,80).
att(297,40).
att(19,273).
att(40,263).
att(280,266).
att(39,99).
att(87,81).
att(288,41).
att(124,70).
att(148,64).
att(67,88).
att(103,76).
att(59,91).
att(227,49).
att(277,267).
att(166,60).
att(274,268).
att(186,56).
att(144,65).
att(117,72).
att(197,54).
att(234,48).
att(110,74).
att(241,47).
att(176,58).
att(280,42).
att(13,276).
att(134,223).
att(17,109).
att(203,53).
att(51,258).
att(215,51).
att(272,43).
att(121,71).
att(7,279).
att(158,214).
att(78,246).
att(214,289).
att(76,85).
att(57,92).
att(114,73).
att(35,101).
att(65,89).
att(47,96).
att(149,64).
att(125,70).
att(91,80).
att(187,56).
att(192,202).
att(88,81).
att(9,113).
att(85,82).
att(290,41).
att(150,217).
att(172,59).
att(104,76).
att(158,62).
att(1,117).
att(60,254).
att(195,201).
att(273,43).
att(207,197).
att(69,250).
att(68,88).
att(114,231).
att(294,171).
att(137,67).
att(201,199).
att(60,91).
att(262,180).
att(50,95).
att(299,260).
att(31,103).
att(269,178).
att(32,267).
att(63,90).
att(108,75).
att(217,288).
att(173,59).
att(90,241).
att(298,170).
att(205,53).
att(217,51).
att(252,183).
att(29,104).
att(80,84).
att(283,42).
att(16,110).
att(142,66).
att(36,101).
att(48,96).
att(53,94).
att(231,283).
att(14,111).
att(259,45).
att(293,262).
att(107,234).
att(169,60).
att(127,226).
att(239,187).
att(184,57).
att(284,42).
att(151,64).
att(206,53).
att(6,115).
att(252,46).
att(293,41).
att(2,117).
att(212,52).
att(231,49).
att(112,232).
att(74,248).
att(201,294).
att(56,93).
att(46,97).
att(291,172).
att(273,177).
att(195,55).
att(43,262).
att(75,86).
att(260,45).
att(65,252).
att(184,205).
att(131,69).
att(24,271).
att(268,44).
att(135,68).
att(78,85).
att(81,245).
att(257,274).
att(90,81).
att(201,54).
att(187,204).
att(67,89).
att(54,257).
att(185,57).
att(30,104).
att(19,109).
att(135,223).
att(54,94).
att(180,58).
att(124,71).
att(214,195).
att(20,273).
att(263,272).
att(37,101).
att(261,45).
att(161,62).
att(70,88).
att(269,44).
att(72,249).
att(223,286).
att(188,299).
att(211,196).
att(100,78).
att(117,73).
att(295,41).
att(233,189).
att(42,99).
att(144,66).
att(205,198).
att(263,180).
att(13,112).
att(151,217).
att(157,63).
att(208,53).
att(173,209).
att(214,52).
att(247,47).
att(107,76).
att(262,45).
att(1,118).
att(5,116).
att(125,227).
att(91,81).
att(82,84).
att(24,107).
att(120,229).
att(288,173).
att(37,265).
att(6,280).
att(203,54).
att(55,94).
att(118,73).
att(248,47).
att(263,45).
att(31,104).
att(50,96).
att(145,66).
att(101,78).
att(227,191).
att(133,69).
att(158,63).
att(288,42).
att(154,216).
att(281,175).
att(63,91).
att(98,79).
att(179,207).
att(177,59).
att(240,187).
att(77,247).
att(108,76).
att(274,177).
att(133,224).
att(103,236).
att(154,64).
att(95,80).
att(280,43).
att(84,244).
att(250,184).
att(229,284).
att(89,82).
att(83,84).
att(193,56).
att(242,48).
att(298,41).
att(86,83).
att(105,77).
att(31,268).
att(146,66).
att(188,57).
att(159,63).
att(168,211).
att(61,92).
att(112,75).
att(34,103).
att(142,67).
att(6,116).
att(141,221).
att(138,68).
att(102,78).
att(285,174).
att(123,228).
att(46,261).
att(218,194).
att(149,218).
att(257,182).
att(72,88).
att(46,98).
att(290,42).
att(188,204).
att(223,51).
att(23,108).
att(51,96).
att(243,48).
att(215,195).
att(252,276).
att(194,56).
att(217,52).
att(116,74).
att(212,196).
att(234,189).
att(151,65).
att(127,71).
att(78,86).
att(258,46).
att(44,262).
att(230,50).
att(136,223).
att(30,105).
att(131,70).
att(106,77).
att(184,58).
att(179,59).
att(251,47).
att(143,67).
att(37,102).
att(224,51).
att(244,48).
att(113,75).
att(235,282).
att(206,54).
att(218,52).
att(285,265).
att(212,53).
att(165,62).
att(131,225).
att(62,92).
att(73,249).
att(282,266).
att(301,41).
att(231,50).
att(292,42).
att(100,79).
att(64,253).
att(267,45).
att(190,57).
att(26,107).
att(117,74).
att(163,213).
att(9,115).
att(177,208).
att(80,246).
att(5,117).
att(161,63).
att(19,274).
att(261,181).
att(238,281).
att(293,172).
att(132,70).
att(213,290).
att(79,86).
att(207,54).
att(284,43).
att(219,52).
att(107,77).
att(139,222).
att(17,275).
att(60,93).
att(251,184).
att(15,276).
att(22,109).
att(104,78).
att(71,250).
att(239,49).
att(50,97).
att(125,72).
att(246,48).
att(20,110).
att(38,102).
att(153,65).
att(186,58).
att(297,171).
att(118,74).
att(238,188).
att(5,281).
att(29,106).
att(74,88).
att(277,44).
att(269,45).
att(78,247).
att(197,56).
att(58,94).
att(77,87).
att(167,62).
att(169,211).
att(158,215).
att(279,176).
att(192,57).
att(265,180).
att(49,260).
att(83,85).
att(203,55).
att(89,83).
att(295,42).
att(34,104).
att(177,60).
att(105,78).
att(2,119).
att(290,173).
att(247,278).
att(234,50).
att(208,292).
att(230,284).
att(198,56).
att(56,95).
att(102,79).
att(76,248).
att(142,68).
att(228,51).
att(295,262).
att(21,110).
att(30,269).
att(109,77).
att(67,252).
att(30,106).
att(294,172).
att(183,59).
att(262,181).
att(153,217).
att(292,263).
att(229,191).
att(49,98).
att(54,96).
att(164,63).
att(87,84).
att(249,48).
att(297,42).
att(276,177).
att(269,179).
att(264,46).
att(28,107).
att(151,66).
att(164,213).
att(15,113).
att(256,275).
att(70,90).
att(289,264).
att(56,257).
att(252,184).
att(62,93).
att(113,76).
att(147,67).
att(42,101).
att(95,240).
att(139,69).
att(289,43).
att(222,287).
att(189,58).
att(43,263).
att(298,42).
att(181,207).
att(117,231).
att(65,253).
att(243,49).
att(124,73).
att(203,294).
att(265,46).
att(281,44).
att(24,109).
att(165,63).
att(167,212).
att(273,45).
att(230,51).
att(148,219).
att(94,82).
att(152,66).
att(82,86).
att(274,269).
att(290,43).
att(41,264).
att(91,83).
att(100,238).
att(60,94).
att(258,47).
att(299,42).
att(132,71).
att(212,54).
att(218,53).
att(55,96).
att(121,74).
att(136,70).
att(244,49).
att(72,250).
att(38,103).
att(214,290).
att(71,90).
att(104,79).
att(201,56).
att(231,51).
att(105,236).
att(291,43).
att(74,89).
att(193,203).
att(111,77).
att(79,247).
att(36,104).
att(14,114).
att(86,244).
att(196,202).
att(48,99).
att(129,72).
att(213,54).
att(252,48).
att(53,97).
att(37,266).
att(205,199).
att(275,45).
att(6,281).
att(4,282).
att(115,232).
att(176,61).
att(108,78).
att(92,83).
att(292,43).
att(4,119).
att(41,102).
att(232,51).
att(122,74).
att(141,69).
att(50,260).
att(263,181).
att(69,91).
att(98,239).
att(35,267).
att(208,55).
att(268,46).
att(197,57).
att(51,98).
att(72,90).
att(185,301).
att(39,103).
att(253,184).
att(154,217).
att(299,171).
att(91,242).
att(119,75).
att(130,72).
att(48,261).
att(103,237).
att(179,208).
att(261,47).
att(187,59).
att(231,284).
att(134,71).
att(78,88).
att(138,70).
att(17,113).
att(251,277).
att(109,78).
att(269,46).
att(49,99).
att(123,74).
att(247,49).
att(31,269).
att(93,83).
att(84,86).
att(294,43).
att(168,63).
att(198,57).
att(215,54).
att(182,207).
att(128,227).
att(281,176).
att(46,262).
att(62,94).
att(267,180).
att(96,240).
att(11,116).
att(193,58).
att(234,283).
att(292,173).
att(75,249).
att(1,121).
att(113,77).
att(47,100).
att(120,75).
att(149,219).
att(183,60).
att(24,110).
att(27,271).
att(66,253).
att(188,205).
att(65,93).
att(33,106).
att(100,81).
att(139,70).
att(260,274).
att(22,111).
att(110,78).
att(287,44).
att(235,51).
att(263,273).
att(257,183).
att(285,175).
att(237,282).
att(45,101).
att(247,186).
att(160,215).
att(55,258).
att(271,46).
att(31,107).
att(279,45).
att(23,273).
att(197,202).
att(38,104).
att(196,297).
att(272,270).
att(179,61).
att(269,271).
att(184,60).
att(200,201).
att(18,113).
att(264,181).
att(71,91).
att(64,254).
att(121,75).
att(94,241).
att(63,94).
att(114,77).
att(288,44).
att(271,179).
att(36,105).
att(144,69).
att(74,90).
att(19,275).
att(280,45).
att(126,228).
att(40,265).
att(87,244).
att(58,96).
att(53,259).
att(27,109).
att(243,50).
att(116,232).
att(289,174).
att(53,98).
att(250,49).
att(66,93).
att(111,78).
att(230,52).
att(180,61).
att(15,277).
att(4,120).
att(25,110).
att(34,106).
att(224,53).
att(41,103).
att(95,83).
att(13,278).
att(166,64).
att(83,87).
att(99,239).
att(92,84).
att(298,43).
att(69,92).
att(273,46).
att(153,67).
att(147,220).
att(282,176).
att(133,72).
att(56,97).
att(244,50).
att(7,281).
att(166,213).
att(1,284).
att(149,68).
att(115,77).
att(21,112).
att(225,193).
att(162,65).
att(141,70).
att(246,279).
att(229,285).
att(64,94).
att(191,59).
att(225,53).
att(19,113).
att(218,289).
att(44,102).
att(59,96).
att(202,57).
att(259,48).
att(34,268).
att(238,189).
att(245,50).
att(67,93).
att(297,262).
att(249,278).
att(219,195).
att(124,229).
att(297,172).
att(197,58).
att(150,219).
att(32,269).
att(138,71).
att(252,277).
att(70,92).
att(294,263).
att(62,95).
att(210,292).
att(76,249).
att(213,197).
att(195,203).
att(73,91).
att(253,49).
att(159,66).
att(127,74).
att(292,44).
att(210,198).
att(137,224).
att(255,276).
att(33,107).
att(204,200).
att(268,47).
att(102,238).
att(76,90).
att(284,45).
att(131,73).
att(175,210).
att(45,102).
att(151,68).
att(164,65).
att(193,59).
att(68,93).
att(139,71).
att(261,274).
att(55,98).
att(183,61).
att(56,258).
att(91,85).
att(18,114).
att(88,86).
att(264,273).
att(285,45).
att(160,66).
att(95,241).
att(229,192).
att(283,176).
att(43,264).
att(169,64).
att(277,46).
att(270,271).
att(262,182).
att(24,273).
att(65,254).
att(43,103).
att(14,116).
att(262,48).
att(242,188).
att(241,51).
att(294,44).
att(12,117).
att(104,81).
att(48,101).
att(255,49).
att(194,59).
att(53,99).
att(54,259).
att(205,294).
att(179,62).
att(77,90).
att(189,60).
att(41,265).
att(4,121).
att(205,57).
att(167,213).
att(278,46).
att(241,281).
att(61,96).
att(170,64).
att(83,88).
att(95,84).
att(211,56).
att(298,172).
att(86,87).
att(227,286).
att(216,290).
att(256,49).
att(51,100).
att(220,195).
att(187,206).
att(39,105).
att(271,47).
att(105,237).
att(170,212).
att(79,248).
att(180,62).
att(133,73).
att(19,114).
att(64,95).
att(190,60).
att(236,52).
att(130,227).
att(185,61).
att(217,196).
att(86,245).
att(10,280).
att(266,181).
att(143,222).
att(44,103).
att(264,48).
att(151,219).
att(214,197).
att(141,71).
att(230,53).
att(59,97).
att(102,82).
att(247,279).
att(49,101).
att(162,66).
att(126,75).
att(291,174).
att(196,203).
att(120,231).
att(70,252).
att(173,211).
att(199,202).
att(298,262).
att(96,84).
att(256,184).
att(219,289).
att(162,215).
att(26,111).
att(207,57).
att(138,224).
att(62,96).
att(70,93).
att(265,48).
att(123,76).
att(213,56).
att(258,49).
att(116,78).
att(91,243).
att(73,92).
att(154,218).
att(84,246).
att(263,182).
att(40,105).
att(295,173).
att(146,70).
att(172,64).
att(22,113).
att(163,66).
att(179,209).
att(211,292).
att(177,63).
att(20,114).
att(256,276).
att(120,77).
att(245,51).
att(187,61).
att(259,49).
att(68,94).
att(131,74).
att(282,46).
att(97,84).
att(96,241).
att(236,283).
att(57,258).
att(155,68).
att(123,230).
att(288,175).
att(16,116).
att(135,73).
att(124,76).
att(224,194).
att(27,272).
att(117,78).
att(147,70).
att(260,183).
att(44,264).
att(27,111).
att(107,81).
att(185,207).
att(246,51).
att(268,272).
att(283,46).
att(277,269).
att(233,53).
att(53,100).
att(25,273).
att(6,121).
att(4,122).
att(239,282).
att(188,61).
att(188,206).
att(225,287).
att(55,259).
att(77,91).
att(218,196).
att(132,74).
att(204,58).
att(268,48).
att(156,68).
att(191,205).
att(160,216).
att(98,84).
att(46,103).
att(194,204).
att(106,237).
att(64,255).
att(261,49).
att(21,114).
att(140,72).
att(210,57).
att(148,70).
att(242,281).
att(39,106).
att(144,71).
att(234,53).
att(198,297).
att(19,276).
att(197,203).
att(80,248).
att(234,191).
att(203,201).
att(184,62).
att(189,61).
att(64,96).
att(228,286).
att(293,45).
att(17,116).
att(170,65).
att(285,46).
att(163,215).
att(217,290).
att(59,98).
att(49,102).
att(248,51).
att(38,267).
att(271,180).
att(62,256).
att(67,95).
att(235,53).
att(78,91).
att(153,69).
att(9,281).
att(11,119).
att(51,261).
att(7,282).
att(35,108).
att(180,63).
att(141,72).
att(217,56).
att(229,54).
att(5,283).
att(1,285).
att(299,262).
att(231,285).
att(286,46).
att(228,193).
att(209,293).
att(206,58).
att(92,243).
att(24,113).
att(134,226).
att(109,81).
att(249,51).
att(130,75).
att(73,93).
att(60,257).
att(225,194).
att(116,79).
att(106,82).
att(254,277).
att(158,217).
att(142,223).
att(191,61).
att(186,62).
att(169,213).
att(124,230).
att(114,234).
att(38,107).
att(207,58).
att(250,51).
att(293,174).
att(119,232).
att(68,95).
att(97,241).
att(47,263).
att(29,111).
att(290,265).
att(257,276).
att(296,45).
att(97,85).
att(58,258).
att(85,89).
att(30,271).
att(94,86).
att(202,59).
att(71,94).
att(287,266).
att(27,112).
att(177,64).
att(83,247).
att(258,184).
att(196,298).
att(8,121).
att(195,204).
att(45,264).
att(6,122).
att(258,50).
att(74,93).
att(210,199).
att(198,203).
att(34,109).
att(41,106).
att(143,72).
att(238,53).
att(147,71).
att(204,201).
att(278,269).
att(275,270).
att(56,259).
att(279,178).
att(153,219).
att(164,67).
att(128,76).
att(214,57).
att(175,211).
att(107,237).
att(245,52).
att(266,49).
att(43,265).
att(95,242).
att(24,274).
att(69,95).
att(226,287).
att(178,64).
att(215,291).
att(160,68).
att(65,255).
att(259,50).
att(301,172).
att(19,116).
att(92,87).
att(89,88).
att(209,58).
att(274,48).
att(290,175).
att(122,231).
att(188,62).
att(239,53).
att(30,111).
att(156,69).
att(125,77).
att(54,260).
att(140,224).
att(191,300).
att(20,276).
att(215,57).
att(108,82).
att(233,54).
att(246,52).
att(75,93).
att(49,103).
att(18,277).
att(283,177).
att(11,120).
att(275,48).
att(78,92).
att(291,46).
att(26,113).
att(210,58).
att(269,181).
att(194,61).
att(5,123).
att(268,49).
att(70,95).
att(84,90).
att(216,57).
att(234,54).
att(79,249).
att(47,104).
att(87,89).
att(86,246).
att(93,87).
att(205,59).
att(126,77).
att(222,56).
att(228,55).
att(6,283).
att(52,102).
att(254,51).
att(141,73).
att(4,284).
att(2,285).
att(119,79).
att(249,279).
att(149,71).
att(220,196).
att(109,82).
att(61,257).
att(125,230).
att(298,173).
att(210,293).
att(120,232).
att(217,197).
att(252,278).
att(195,61).
att(162,68).
att(76,93).
att(193,205).
att(38,108).
att(60,99).
att(217,57).
att(262,50).
att(280,178).
att(229,55).
att(223,56).
att(293,46).
att(16,118).
att(211,199).
att(199,203).
att(162,216).
att(208,200).
att(285,47).
att(138,74).
att(176,65).
att(91,244).
att(43,106).
att(142,73).
att(36,109).
att(150,71).
att(146,72).
att(63,98).
att(71,95).
att(212,58).
att(103,239).
att(233,192).
att(176,211).
att(291,175).
att(288,266).
att(256,185).
att(31,271).
att(48,104).
att(6,123).
att(191,62).
att(294,46).
att(25,114).
att(133,227).
att(256,51).
att(261,275).
att(34,110).
att(286,47).
att(41,107).
att(108,237).
att(189,301).
att(29,272).
att(165,215).
att(66,97).
att(96,242).
att(263,183).
att(75,251).
att(155,70).
att(202,60).
att(273,271).
att(61,99).
att(205,295).
att(243,189).
att(27,273).
att(151,71).
att(143,73).
att(141,224).
att(69,96).
att(182,64).
att(82,248).
att(121,79).
att(95,87).
att(17,118).
att(208,59).
att(111,82).
att(160,69).
att(49,104).
att(59,100).
att(136,75).
att(125,78).
att(251,52).
att(280,48).
att(299,173).
att(108,83).
att(288,47).
att(54,102).
att(73,252).
att(244,281).
att(183,64).
att(35,110).
att(232,55).
att(106,238).
att(5,124).
att(105,84).
att(19,277).
att(192,300).
att(40,267).
att(208,294).
att(144,223).
att(53,261).
att(17,278).
att(81,92).
att(111,236).
att(247,280).
att(289,47).
att(84,91).
att(252,52).
att(197,204).
att(40,108).
att(239,54).
att(93,88).
att(90,89).
att(179,65).
att(11,281).
att(137,75).
att(62,257).
att(20,117).
att(170,67).
att(126,78).
att(71,253).
att(163,216).
att(9,282).
att(31,112).
att(157,70).
att(227,56).
att(99,241).
att(51,262).
att(45,106).
att(246,53).
att(153,71).
att(267,50).
att(50,104).
att(253,52).
att(175,66).
att(130,77).
att(216,58).
att(211,293).
att(14,120).
att(205,60).
att(43,107).
att(134,227).
att(275,49).
att(12,121).
att(82,92).
att(299,46).
att(60,258).
att(271,181).
att(195,299).
att(256,277).
att(69,254).
att(71,96).
att(113,82).
att(283,48).
att(195,62).
att(228,194).
att(88,90).
att(94,88).
att(58,101).
att(53,103).
att(120,80).
att(34,111).
att(154,71).
att(142,74).
att(32,271).
att(150,72).
att(300,173).
att(176,66).
att(286,267).
att(167,68).
att(217,58).
att(262,275).
att(158,218).
att(276,49).
att(119,233).
att(32,112).
att(107,84).
att(284,48).
att(292,47).
att(46,106).
att(280,269).
att(222,196).
att(39,109).
att(51,104).
att(56,102).
att(104,85).
att(196,62).
att(225,288).
att(69,97).
att(212,59).
att(191,63).
att(28,273).
att(30,113).
att(45,265).
att(275,180).
att(102,240).
att(219,197).
att(86,91).
att(206,295).
att(293,47).
att(37,110).
att(198,298).
att(72,96).
att(151,72).
att(195,205).
att(270,50).
att(13,121).
att(198,204).
att(107,238).
att(43,266).
att(202,61).
att(263,51).
att(132,77).
att(153,220).
att(210,200).
att(75,95).
att(26,115).
att(213,59).
att(65,256).
att(197,62).
att(108,84).
att(243,54).
att(125,79).
att(294,47).
att(81,249).
att(88,246).
att(24,116).
att(297,174).
att(265,183).
att(140,75).
att(250,53).
att(271,50).
att(81,93).
att(33,112).
att(70,97).
att(232,193).
att(144,74).
att(102,86).
att(169,68).
att(152,72).
att(272,181).
att(122,80).
att(203,61).
att(245,189).
att(96,88).
att(20,118).
att(214,59).
att(93,89).
att(255,186).
att(16,279).
att(31,113).
att(295,47).
att(198,62).
att(165,69).
att(193,63).
att(174,67).
att(38,110).
att(220,58).
att(93,244).
att(209,60).
att(232,56).
att(10,282).
att(79,250).
att(105,239).
att(6,284).
att(262,184).
att(79,94).
att(106,85).
att(12,122).
att(204,61).
att(43,108).
att(145,74).
att(130,229).
att(234,285).
att(199,62).
att(143,224).
att(273,50).
att(194,63).
att(276,180).
att(71,97).
att(293,265).
att(25,116).
att(221,58).
att(125,231).
att(58,102).
att(88,91).
att(97,88).
att(259,52).
att(98,242).
att(113,83).
att(91,90).
att(220,197).
att(239,191).
att(41,109).
att(223,289).
att(127,79).
att(193,206).
att(77,251).
att(204,296).
att(110,84).
att(158,71).
att(259,185).
att(46,107).
att(142,75).
att(59,259).
att(263,275).
att(154,72).
att(61,101).
att(39,110).
att(287,177).
att(199,204).
att(211,200).
att(236,192).
att(31,272).
att(190,64).
att(117,82).
att(234,56).
att(282,49).
att(298,47).
att(278,270).
att(269,273).
att(17,120).
att(124,80).
att(146,223).
att(176,212).
att(154,220).
att(280,179).
att(133,228).
att(15,121).
att(37,111).
att(101,87).
att(215,292).
att(163,70).
att(114,83).
att(13,122).
att(206,61).
att(75,252).
att(27,274).
att(172,68).
att(268,51).
att(121,81).
att(113,236).
att(261,52).
att(283,49).
att(299,47).
att(26,116).
att(143,75).
att(291,176).
att(191,64).
att(42,109).
att(147,74).
att(151,73).
att(89,246).
att(212,60).
att(25,275).
att(199,298).
att(248,54).
att(78,95).
att(157,219).
att(118,82).
att(47,107).
att(125,80).
att(255,53).
att(218,59).
att(105,86).
att(40,110).
att(284,49).
att(57,103).
att(262,52).
att(84,93).
att(277,180).
att(173,68).
att(73,253).
att(160,71).
att(230,57).
att(64,257).
att(197,63).
att(99,88).
att(192,64).
att(129,79).
att(73,97).
att(249,280).
att(240,191).
att(112,84).
att(29,115).
att(301,47).
att(144,224).
att(55,104).
att(76,96).
att(133,78).
att(219,59).
att(119,82).
att(27,116).
att(36,112).
att(126,80).
att(43,109).
att(297,264).
att(252,279).
att(299,174).
att(11,282).
att(10,124).
att(203,62).
att(137,77).
att(188,65).
att(174,68).
att(237,192).
att(174,213).
att(2,128).
att(3,286).
att(214,60).
att(1,287).
att(63,101).
att(212,200).
att(141,76).
att(267,183).
att(103,87).
att(255,278).
att(235,285).
att(58,103).
att(53,105).
att(85,93).
att(274,181).
att(264,52).
att(153,73).
att(100,88).
att(244,55).
att(220,59).
att(74,97).
att(113,84).
att(226,58).
att(32,114).
att(232,57).
att(21,119).
att(257,186).
att(34,271).
att(147,223).
att(60,259).
att(199,63).
att(287,49).
att(194,64).
att(138,77).
att(258,53).
att(166,216).
att(30,115).
att(162,71).
att(231,194).
att(32,272).
att(197,299).
att(267,274).
att(282,269).
att(158,72).
att(15,122).
att(210,61).
att(146,75).
att(270,273).
att(280,50).
att(117,83).
att(239,56).
att(244,190).
att(114,236).
att(104,87).
att(97,243).
att(296,175).
att(86,93).
att(101,88).
att(158,219).
att(241,283).
att(26,117).
att(135,78).
att(114,84).
att(92,91).
att(169,215).
att(266,52).
att(3,128).
att(35,113).
att(28,274).
att(246,55).
att(121,82).
att(102,241).
att(240,56).
att(137,227).
att(26,275).
att(181,67).
att(222,197).
att(289,49).
att(289,177).
att(234,57).
att(300,174).
att(62,102).
att(172,69).
att(274,51).
att(147,75).
att(52,106).
att(57,104).
att(132,79).
att(43,267).
att(81,95).
att(200,298).
att(20,120).
att(105,87).
att(22,277).
att(153,221).
att(177,68).
att(102,88).
att(136,78).
att(38,112).
att(73,98).
att(90,92).
att(96,90).
att(41,268).
att(204,203).
att(122,233).
att(60,103).
att(117,235).
att(14,123).
att(268,52).
att(55,105).
att(258,186).
att(18,279).
att(112,85).
att(250,280).
att(173,69).
att(207,62).
att(43,110).
att(68,100).
att(192,65).
att(2,129).
att(52,263).
att(242,56).
att(253,279).
att(232,194).
att(12,282).
att(34,114).
att(82,95).
att(106,87).
att(295,265).
att(53,106).
att(41,111).
att(279,180).
att(165,71).
att(37,270).
att(85,94).
att(4,286).
att(2,287).
att(284,50).
att(208,62).
att(255,187).
att(21,120).
att(32,115).
att(300,48).
att(188,66).
att(39,112).
att(256,54).
att(289,267).
att(51,107).
att(170,70).
att(179,68).
att(170,215).
att(120,83).
att(214,293).
att(151,222).
att(262,185).
att(15,123).
att(283,269).
att(80,96).
att(225,289).
att(37,113).
att(223,197).
att(107,87).
att(278,51).
att(162,72).
att(142,77).
att(84,249).
att(7,127).
att(276,181).
att(173,214).
att(239,192).
att(68,256).
att(131,80).
att(199,64).
att(35,114).
att(158,73).
att(238,57).
att(98,90).
att(95,91).
att(215,61).
att(75,98).
att(294,49).
att(146,224).
att(202,204).
att(279,51).
att(205,203).
att(249,189).
att(57,261).
att(176,213).
att(185,67).
att(78,97).
att(111,86).
att(167,71).
att(272,52).
att(265,53).
att(287,50).
att(66,257).
att(31,116).
att(163,72).
att(81,96).
att(195,65).
att(143,77).
att(216,61).
att(89,247).
att(132,80).
att(193,301).
att(38,113).
att(16,123).
att(87,94).
att(246,56).
att(55,106).
att(228,59).
att(240,57).
att(220,291).
att(296,49).
att(168,216).
att(43,111).
att(8,127).
att(64,258).
att(177,69).
att(201,64).
att(291,177).
att(19,279).
att(164,72).
att(79,97).
att(144,77).
att(34,115).
att(160,73).
att(254,279).
att(53,107).
att(87,248).
att(173,70).
att(71,100).
att(82,96).
att(119,84).
att(223,60).
att(289,50).
att(267,53).
att(284,179).
att(111,238).
att(85,95).
att(229,59).
att(241,57).
att(11,283).
att(257,278).
att(46,110).
att(66,102).
att(74,99).
att(100,90).
att(254,55).
att(71,255).
att(282,51).
att(191,208).
att(121,234).
att(51,264).
att(5,286).
att(1,288).
att(91,93).
att(178,69).
att(218,61).
att(99,243).
att(260,277).
att(36,271).
att(218,199).
att(290,50).
att(17,123).
att(268,53).
att(77,98).
att(248,56).
att(224,60).
att(260,186).
att(145,77).
att(183,68).
att(263,276).
att(163,218).
att(69,101).
att(250,189).
att(37,114).
att(157,74).
att(149,76).
att(242,57).
att(200,205).
att(13,125).
att(284,269).
att(237,193).
att(266,275).
att(49,265).
att(206,203).
att(215,293).
att(127,82).
att(272,273).
att(278,271).
att(49,109).
att(147,224).
att(193,66).
att(155,221).
att(1,131).
att(198,65).
att(291,50).
att(262,54).
att(281,180).
att(134,229).
att(35,115).
att(59,105).
att(179,69).
att(299,49).
att(269,53).
att(86,95).
att(249,56).
att(101,90).
att(166,217).
att(95,92).
att(131,81).
att(243,57).
att(207,296).
att(257,187).
att(67,102).
att(243,283).
att(237,58).
att(58,261).
att(175,70).
att(256,55).
att(209,63).
att(231,195).
att(277,52).
att(142,226).
att(78,98).
att(57,106).
att(270,53).
att(229,288).
att(67,257).
att(83,250).
att(31,117).
att(199,65).
att(128,82).
att(169,216).
att(228,196).
att(285,51).
att(139,79).
att(244,57).
att(26,276).
att(29,118).
att(186,210).
att(65,103).
att(257,55).
att(278,181).
att(185,68).
att(278,52).
att(163,73).
att(24,277).
att(60,105).
att(176,70).
att(27,119).
att(249,281).
att(190,67).
att(232,287).
att(8,128).
att(151,76).
att(251,56).
att(6,129).
att(76,99).
att(115,86).
att(161,219).
att(2,131).
att(95,245).
att(202,298).
att(68,102).
att(181,69).
att(81,251).
att(54,263).
att(261,186).
att(20,279).
att(294,50).
att(34,116).
att(63,104).
att(129,82).
att(195,207).
att(23,121).
att(18,280).
att(122,234).
att(58,106).
att(238,193).
att(186,68).
att(198,206).
att(211,63).
att(255,279).
att(213,201).
att(16,281).
att(268,184).
att(164,73).
att(144,78).
att(282,180).
att(72,255).
att(39,270).
att(287,51).
att(207,203).
att(275,182).
att(46,111).
att(19,123).
att(88,95).
att(10,284).
att(234,59).
att(173,71).
att(97,92).
att(51,109).
att(266,54).
att(148,224).
att(261,277).
att(205,297).
att(187,68).
att(253,56).
att(130,82).
att(113,87).
att(264,276).
att(141,79).
att(178,70).
att(296,50).
att(9,128).
att(207,64).
att(282,270).
att(110,239).
att(49,110).
att(229,60).
att(35,116).
att(161,74).
att(241,58).
att(235,59).
att(120,85).
att(59,106).
att(157,75).
att(115,237).
att(183,69).
att(24,121).
att(120,235).
att(255,188).
att(216,293).
att(289,51).
att(254,56).
att(89,95).
att(77,253).
att(67,103).
att(226,197).
att(47,111).
att(91,247).
att(84,250).
att(40,114).
att(242,192).
att(261,55).
att(208,64).
att(68,257).
att(193,67).
att(179,70).
att(244,283).
att(208,296).
att(78,99).
att(114,87).
att(242,58).
att(223,198).
att(46,267).
att(290,178).
att(290,51).
att(173,215).
att(301,175).
att(252,189).
att(150,77).
att(38,115).
att(158,75).
att(154,76).
att(57,262).
att(14,126).
att(247,282).
att(214,63).
att(283,180).
att(196,207).
att(108,240).
att(269,184).
att(27,276).
att(65,104).
att(128,83).
att(283,52).
att(12,127).
att(189,68).
att(96,245).
att(276,53).
att(139,80).
att(105,90).
att(269,54).
att(176,214).
att(66,258).
att(202,205).
att(36,116).
att(243,58).
att(118,86).
att(25,277).
att(291,51).
att(2,132).
att(82,251).
att(93,94).
att(250,281).
att(118,236).
att(76,100).
att(299,50).
att(143,79).
att(132,82).
att(68,103).
att(233,287).
att(55,263).
att(42,269).
att(141,227).
att(179,213).
att(23,122).
att(176,71).
att(226,61).
att(159,75).
att(79,99).
att(253,280).
att(53,109).
att(136,81).
att(112,88).
att(157,221).
att(190,68).
att(232,60).
att(292,51).
att(266,185).
att(19,280).
att(82,98).
att(238,59).
att(300,50).
att(109,89).
att(256,279).
att(181,70).
att(236,286).
att(80,252).
att(74,101).
att(168,73).
att(17,125).
att(51,110).
att(87,249).
att(278,53).
att(227,61).
att(56,108).
att(100,92).
att(185,211).
att(216,63).
att(13,127).
att(233,60).
att(9,285).
att(289,268).
att(262,277).
att(243,192).
att(225,290).
att(51,265).
att(291,178).
att(188,210).
att(116,237).
att(286,269).
att(265,276).
att(263,186).
att(222,62).
att(5,131).
att(26,121).
att(80,99).
att(123,85).
att(198,300).
att(206,297).
att(283,270).
att(271,274).
att(42,114).
att(83,98).
att(228,61).
att(270,184).
att(139,228).
att(277,182).
att(86,97).
att(107,90).
att(234,60).
att(85,250).
att(134,82).
att(67,104).
att(89,96).
att(228,289).
att(192,68).
att(40,115).
att(101,92).
att(200,206).
att(52,110).
att(260,187).
att(206,204).
att(250,190).
att(295,51).
att(57,108).
att(253,57).
att(183,70).
att(109,240).
att(229,61).
att(70,103).
att(131,83).
att(247,58).
att(129,232).
att(29,120).
att(209,296).
att(81,99).
att(241,59).
att(260,56).
att(267,185).
att(234,195).
att(201,299).
att(179,71).
att(146,79).
att(67,258).
att(28,276).
att(248,282).
att(193,68).
att(142,227).
att(224,62).
att(150,78).
att(208,65).
att(274,54).
att(6,131).
att(43,114).
att(158,76).
att(203,66).
att(25,122).
att(175,72).
att(248,58).
att(169,217).
att(289,52).
att(261,56).
att(43,269).
att(292,178).
att(299,265).
att(171,73).
att(74,255).
att(41,115).
att(125,85).
att(132,83).
att(244,192).
att(115,88).
att(58,108).
att(65,259).
att(275,54).
att(225,62).
att(107,241).
att(32,119).
att(167,74).
att(209,65).
att(296,266).
att(112,89).
att(225,198).
att(285,180).
att(54,264).
att(41,270).
att(20,280).
att(151,78).
att(204,298).
att(231,61).
att(136,82).
att(122,86).
att(145,226).
att(155,77).
att(278,182).
att(257,279).
att(17,126).
att(85,98).
att(222,199).
att(241,193).
att(51,111).
att(237,286).
att(16,282).
att(61,107).
att(140,81).
att(39,271).
att(72,256).
att(103,92).
att(28,121).
att(37,117).
att(100,244).
att(94,95).
att(226,62).
att(256,57).
att(11,129).
att(52,265).
att(263,277).
att(198,207).
att(126,85).
att(251,190).
att(7,131).
att(201,206).
att(5,132).
att(26,122).
att(232,61).
att(210,203).
att(6,287).
att(2,289).
att(226,290).
att(148,79).
att(240,285).
att(289,179).
att(35,118).
att(244,59).
att(79,253).
att(221,63).
att(93,247).
att(272,274).
att(186,70).
att(113,89).
att(275,273).
att(300,176).
att(24,123).
att(59,108).
att(268,185).
att(278,272).
att(72,103).
att(50,266).
att(135,230).
att(130,84).
att(235,195).
att(199,300).
att(33,119).
att(227,62).
att(86,98).
att(141,81).
att(167,218).
att(110,240).
att(67,105).
att(258,188).
att(120,87).
att(196,68).
att(89,97).
att(264,56).
att(285,53).
att(239,60).
att(62,107).
att(98,245).
att(18,126).
att(222,63).
att(278,54).
att(48,267).
att(149,79).
att(117,88).
att(184,212).
att(159,221).
att(161,76).
att(153,78).
att(293,52).
att(31,275).
att(151,224).
att(170,217).
att(91,248).
att(301,51).
att(124,86).
att(131,84).
att(265,56).
att(286,53).
att(187,211).
att(255,189).
att(29,276).
att(8,131).
att(36,118).
att(55,110).
att(60,108).
att(84,99).
att(207,66).
att(202,299).
att(223,63).
att(170,74).
att(121,87).
att(57,263).
att(259,57).
att(27,277).
att(108,241).
att(166,75).
att(128,85).
att(188,70).
att(229,62).
att(133,231).
att(162,76).
att(96,95).
att(220,200).
att(41,116).
att(118,88).
att(266,56).
att(262,187).
att(53,111).
att(196,208).
att(139,82).
att(290,179).
att(79,101).
att(247,59).
att(241,60).
att(89,249).
att(198,68).
att(23,279).
att(55,264).
att(71,104).
att(203,67).
att(297,266).
att(224,63).
att(46,114).
att(211,203).
att(260,57).
att(82,100).
att(39,117).
att(213,295).
att(171,74).
att(294,267).
att(258,279).
att(230,62).
att(189,70).
att(219,64).
att(167,75).
att(61,108).
att(281,54).
att(13,129).
att(40,271).
att(249,191).
att(236,61).
att(129,85).
att(259,188).
att(17,282).
att(248,59).
att(106,92).
att(194,69).
att(214,65).
att(159,77).
att(103,93).
att(7,132).
att(94,96).
att(209,66).
att(288,269).
att(264,277).
att(106,242).
att(80,253).
att(5,133).
att(233,196).
att(13,284).
att(289,53).
att(267,276).
att(64,107).
att(131,232).
att(287,180).
att(62,261).
att(220,64).
att(276,273).
att(59,109).
att(241,285).
att(275,55).
att(3,289).
att(51,266).
att(185,212).
att(230,197).
att(72,104).
att(33,120).
att(243,60).
att(160,221).
att(126,234).
att(298,177).
att(195,69).
att(40,117).
att(110,91).
att(130,85).
att(31,121).
att(200,300).
att(269,56).
att(62,108).
att(92,248).
att(57,110).
att(141,82).
att(224,199).
att(38,118).
att(230,289).
att(250,59).
att(174,216).
att(104,243).
att(173,74).
att(291,179).
att(70,105).
att(134,84).
att(244,60).
att(163,220).
att(253,190).
att(12,130).
att(10,131).
att(196,69).
att(218,201).
att(50,113).
att(227,63).
att(211,66).
att(134,231).
att(36,119).
att(270,56).
att(155,223).
att(114,90).
att(200,207).
att(138,83).
att(277,183).
att(299,52).
att(212,203).
att(177,215).
att(209,204).
att(178,73).
att(111,91).
att(114,239).
att(87,99).
att(237,195).
att(245,60).
att(250,191).
att(124,235).
att(301,265).
att(83,252).
att(203,299).
att(121,88).
att(41,117).
att(180,214).
att(93,97).
att(253,281).
att(222,292).
att(21,126).
att(63,108).
att(146,81).
att(135,84).
att(183,72).
att(271,56).
att(285,54).
att(99,95).
att(128,86).
att(300,52).
att(212,66).
att(234,196).
att(118,89).
att(267,186).
att(24,279).
att(71,105).
att(256,280).
att(74,256).
att(139,83).
att(240,61).
att(82,101).
att(115,90).
att(137,230).
att(125,87).
att(65,260).
att(15,129).
att(66,107).
att(286,54).
att(85,100).
att(20,281).
att(41,271).
att(279,55).
att(11,131).
att(44,116).
att(259,58).
att(262,278).
att(9,132).
att(109,92).
att(7,133).
att(203,68).
att(208,67).
att(244,193).
att(198,301).
att(145,227).
att(136,84).
att(91,98).
att(106,93).
att(77,103).
att(189,211).
att(127,234).
att(39,272).
att(167,76).
att(151,80).
att(266,57).
att(119,89).
att(24,125).
att(271,275).
att(254,190).
att(100,245).
att(54,112).
att(285,181).
att(22,126).
att(72,105).
att(116,90).
att(194,70).
att(260,58).
att(33,121).
att(6,288).
att(133,85).
att(83,101).
att(217,294).
att(164,220).
att(295,53).
att(93,248).
att(185,72).
att(236,62).
att(86,251).
att(31,122).
att(201,207).
att(242,61).
att(75,104).
att(123,88).
att(35,274).
att(238,195).
att(178,215).
att(70,258).
att(245,284).
att(89,99).
att(281,55).
att(130,86).
att(190,71).
att(164,77).
att(92,98).
att(29,123).
att(156,79).
att(14,130).
att(201,300).
att(231,63).
att(120,89).
att(98,96).
att(70,106).
att(231,289).
att(33,275).
att(167,219).
att(141,83).
att(268,186).
att(255,59).
att(177,74).
att(50,114).
att(2,136).
att(125,235).
att(81,102).
att(300,177).
att(55,112).
att(43,117).
att(60,110).
att(91,249).
att(84,252).
att(68,259).
att(232,197).
att(262,58).
att(149,81).
att(251,282).
att(151,225).
att(34,121).
att(182,73).
att(153,80).
att(87,100).
att(234,288).
att(212,296).
att(138,230).
att(90,99).
att(216,66).
att(229,198).
att(187,212).
att(53,113).
att(32,122).
att(201,69).
att(211,67).
att(283,55).
att(58,111).
att(265,187).
att(206,68).
att(102,95).
att(96,97).
att(204,299).
att(19,128).
att(190,211).
att(255,190).
att(46,116).
att(173,217).
att(71,106).
att(263,58).
att(39,119).
att(146,82).
att(118,90).
att(146,227).
att(82,253).
att(15,130).
att(222,65).
att(279,183).
att(193,210).
att(154,224).
att(242,194).
att(51,114).
att(170,76).
att(150,81).
att(183,73).
att(128,234).
att(28,124).
att(239,62).
att(297,178).
att(61,110).
att(139,84).
att(197,70).
att(217,66).
att(220,201).
att(245,61).
att(44,117).
att(162,78).
att(9,133).
att(202,69).
att(5,135).
att(262,188).
att(264,58).
att(188,72).
att(64,261).
att(141,229).
att(239,195).
att(266,277).
att(91,99).
att(53,266).
att(284,271).
att(94,98).
att(269,276).
att(199,301).
att(175,75).
att(271,57).
att(42,118).
att(179,215).
att(272,275).
att(157,223).
att(278,56).
att(59,111).
att(80,254).
att(80,103).
att(119,90).
att(301,177).
att(184,73).
att(33,122).
att(136,231).
att(87,251).
att(300,53).
att(7,288).
att(265,58).
att(116,91).
att(1,291).
att(126,88).
att(259,189).
att(67,108).
att(133,86).
att(86,101).
att(62,110).
att(224,65).
att(144,83).
att(279,56).
att(126,235).
att(99,246).
att(246,284).
att(253,60).
att(194,71).
att(301,53).
att(12,132).
att(219,66).
att(266,187).
att(152,225).
att(230,198).
att(148,82).
att(185,73).
att(70,107).
att(10,133).
att(104,95).
att(199,70).
att(60,263).
att(92,249).
att(214,67).
att(6,135).
att(202,300).
att(152,81).
att(294,54).
att(209,68).
att(256,190).
att(249,283).
att(65,109).
att(273,57).
att(156,80).
att(104,244).
att(260,59).
att(287,55).
att(25,126).
att(190,72).
att(280,56).
att(221,293).
att(191,211).
att(127,88).
att(174,217).
att(47,269).
att(34,122).
att(84,102).
att(248,61).
att(23,127).
att(30,277).
att(194,210).
att(177,75).
att(145,83).
att(48,116).
att(114,92).
att(220,66).
att(41,119).
att(68,108).
att(186,73).
att(76,105).
att(28,278).
att(288,55).
att(114,240).
att(67,260).
att(261,59).
att(58,112).
att(281,56).
att(19,129).
att(237,63).
att(90,250).
att(83,253).
att(212,204).
att(105,95).
att(209,205).
att(121,90).
att(226,65).
att(255,60).
att(26,279).
att(30,124).
att(71,107).
att(249,61).
att(284,182).
att(15,131).
att(296,54).
att(237,196).
att(180,215).
att(102,245).
att(51,115).
att(118,91).
att(135,86).
att(275,57).
att(261,279).
att(216,67).
att(150,226).
att(262,59).
att(22,281).
att(7,135).
att(206,69).
att(211,68).
att(26,126).
att(183,214).
att(234,197).
att(227,65).
att(244,62).
att(269,58).
att(297,54).
att(183,74).
att(270,276).
att(267,187).
att(282,272).
att(279,273).
att(290,55).
att(186,213).
att(197,71).
att(22,128).
att(59,112).
att(283,56).
att(208,298).
att(263,59).
att(39,273).
att(161,222).
att(217,67).
att(281,183).
att(72,258).
att(72,107).
att(129,88).
att(20,129).
att(188,73).
att(189,212).
att(228,199).
att(147,83).
att(100,246).
att(10,287).
att(175,76).
att(245,62).
att(6,289).
att(244,194).
att(52,115).
att(116,92).
att(192,211).
att(277,57).
att(126,89).
att(140,85).
att(184,74).
att(219,294).
att(284,56).
att(113,93).
att(247,284).
att(292,180).
att(50,268).
att(89,101).
att(105,244).
att(35,275).
att(10,134).
att(110,94).
att(219,202).
att(180,75).
att(144,84).
att(123,90).
att(241,195).
att(240,63).
att(299,54).
att(213,68).
att(148,227).
att(189,73).
att(271,58).
att(36,122).
att(211,297).
att(201,208).
att(204,207).
att(213,204).
att(137,86).
att(25,127).
att(210,205).
att(148,83).
att(278,57).
att(60,112).
att(48,269).
att(130,234).
att(98,247).
att(152,82).
att(167,220).
att(185,74).
att(222,293).
att(120,238).
att(300,54).
att(164,79).
att(181,215).
att(241,63).
att(68,260).
att(272,58).
att(253,61).
att(32,124).
att(114,93).
att(46,270).
att(235,197).
att(256,281).
att(298,267).
att(279,57).
att(159,223).
att(248,193).
att(266,59).
att(30,125).
att(27,279).
att(79,105).
att(282,183).
att(275,185).
att(259,280).
att(99,98).
att(258,190).
att(44,271).
att(173,77).
att(260,60).
att(51,116).
att(206,299).
att(239,287).
att(11,134).
att(292,269).
att(294,55).
att(96,248).
att(248,62).
att(142,85).
att(162,222).
att(245,194).
att(182,75).
att(55,266).
att(113,241).
att(286,271).
att(21,282).
att(115,93).
att(146,84).
att(24,128).
att(237,64).
att(123,237).
att(283,272).
att(69,109).
att(217,295).
att(295,55).
att(223,201).
att(73,258).
att(243,63).
att(150,83).
att(64,111).
att(139,86).
att(187,74).
att(196,210).
att(255,61).
att(221,67).
att(17,284).
att(33,124).
att(201,71).
att(94,100).
att(279,184).
att(106,96).
att(97,99).
att(165,221).
att(103,97).
att(15,285).
att(72,108).
att(202,208).
att(13,286).
att(80,255).
att(143,85).
att(245,285).
att(18,131).
att(192,73).
att(208,206).
att(38,274).
att(11,287).
att(106,244).
att(297,179).
att(179,216).
att(252,192).
att(157,224).
att(262,189).
att(87,252).
att(136,87).
att(62,263).
att(14,133).
att(244,63).
att(250,62).
att(71,259).
att(220,294).
att(168,220).
att(269,59).
att(89,102).
att(217,68).
att(269,187).
att(99,247).
att(50,117).
att(171,78).
att(110,95).
att(121,238).
att(283,183).
att(43,120).
att(163,80).
att(95,100).
att(107,96).
att(184,75).
att(160,223).
att(259,190).
att(104,97).
att(233,198).
att(60,264).
att(101,98).
att(283,57).
att(245,63).
att(251,62).
att(85,253).
att(23,129).
att(130,89).
att(137,87).
att(223,67).
att(188,213).
att(21,130).
att(246,194).
att(47,270).
att(218,68).
att(299,267).
att(208,70).
att(117,93).
att(266,188).
att(277,58).
att(19,131).
att(240,64).
att(17,132).
att(160,81).
att(90,102).
att(164,80).
att(224,201).
att(45,271).
att(155,225).
att(67,261).
att(96,100).
att(90,251).
att(293,269).
att(221,202).
att(28,127).
att(181,76).
att(51,117).
att(299,55).
att(124,237).
att(119,239).
att(9,136).
att(177,217).
att(138,87).
att(278,58).
att(290,270).
att(200,209).
att(240,287).
att(56,115).
att(209,70).
att(214,69).
att(292,56).
att(3,139).
att(285,57).
att(215,204).
att(74,108).
att(206,207).
att(142,230).
att(209,206).
att(153,83).
att(35,124).
att(118,93).
att(253,62).
att(22,282).
att(186,75).
att(180,216).
att(157,82).
att(272,59).
att(42,121).
att(165,80).
att(150,227).
att(270,187).
att(200,72).
att(33,125).
att(137,232).
att(18,284).
att(277,185).
att(112,95).
att(182,76).
att(81,255).
att(210,70).
att(16,285).
att(97,100).
att(139,87).
att(150,84).
att(231,66).
att(132,234).
att(14,286).
att(273,59).
att(63,263).
att(12,287).
att(196,73).
att(295,180).
att(10,288).
att(145,229).
att(83,105).
att(122,238).
att(14,134).
att(29,127).
att(170,79).
att(143,86).
att(119,93).
att(12,135).
att(45,120).
att(162,81).
att(37,275).
att(86,104).
att(136,88).
att(221,68).
att(189,213).
att(8,137).
att(221,294).
att(216,69).
att(261,61).
att(4,139).
att(274,186).
att(147,85).
att(89,103).
att(50,269).
att(70,110).
att(35,276).
att(105,245).
att(92,102).
att(244,195).
att(70,260).
att(140,87).
att(295,56).
att(164,222).
att(299,179).
att(34,125).
att(175,78).
att(33,277).
att(222,202).
att(135,233).
att(73,109).
att(48,270).
att(222,68).
att(41,122).
att(167,80).
att(262,61).
att(207,71).
att(98,248).
att(130,90).
att(120,93).
att(59,265).
att(205,300).
att(216,204).
att(204,208).
att(137,88).
att(193,74).
att(120,239).
att(68,261).
att(289,57).
att(117,94).
att(30,127).
att(29,279).
att(143,230).
att(228,67).
att(103,246).
att(263,61).
att(159,224).
att(27,280).
att(93,102).
att(37,124).
att(96,101).
att(108,97).
att(44,272).
att(44,121).
att(56,116).
att(25,281).
att(66,262).
att(270,277).
att(74,109).
att(121,93).
att(138,88).
att(208,299).
att(282,273).
att(23,282).
att(248,194).
att(24,130).
att(240,65).
att(187,214).
att(55,267).
att(89,252).
att(289,182).
att(42,273).
att(22,131).
att(54,117).
att(153,84).
att(128,91).
att(252,63).
att(229,200).
att(154,226).
att(115,95).
att(219,69).
att(291,57).
att(20,132).
att(235,66).
att(135,89).
att(73,259).
att(245,195).
att(47,120).
att(112,96).
att(94,102).
att(193,212).
att(109,97).
att(15,286).
att(146,86).
att(16,134).
att(176,218).
att(141,231).
att(52,118).
att(278,59).
att(11,288).
att(182,77).
att(67,112).
att(247,64).
att(38,124).
att(293,181).
att(259,62).
att(253,63).
att(57,116).
att(9,289).
att(7,290).
att(191,75).
att(10,137).
att(5,291).
att(1,293).
att(233,290).
att(250,284).
att(220,69).
att(215,70).
att(286,183).
att(211,206).
att(143,87).
att(136,89).
att(196,74).
att(111,243).
att(170,80).
att(116,95).
att(166,81).
att(266,61).
att(231,67).
att(279,59).
att(131,235).
att(262,190).
att(65,113).
att(99,248).
att(260,62).
att(126,92).
att(23,131).
att(34,126).
att(201,73).
att(49,270).
att(226,68).
att(183,77).
att(60,265).
att(21,132).
att(140,88).
att(133,90).
att(101,100).
att(237,66).
att(236,198).
att(85,254).
att(216,70).
att(179,78).
att(69,261).
att(152,227).
att(171,220).
att(155,84).
att(280,59).
att(104,246).
att(232,67).
att(144,87).
att(276,186).
att(30,128).
att(171,80).
att(167,81).
att(255,63).
att(262,280).
att(292,270).
att(28,280).
att(28,129).
att(45,272).
att(51,119).
att(1,142).
att(212,71).
att(242,287).
att(56,117).
att(180,78).
att(96,102).
att(227,201).
att(61,115).
att(99,101).
att(233,67).
att(102,100).
att(82,107).
att(274,276).
att(119,240).
att(56,267).
att(176,79).
att(224,202).
att(24,282).
att(243,196).
att(177,218).
att(49,120).
att(160,83).
att(145,87).
att(228,68).
att(102,247).
att(221,203).
att(22,132).
att(142,231).
att(166,222).
att(69,112).
att(218,204).
att(65,263).
att(223,69).
att(282,59).
att(20,133).
att(64,114).
att(118,95).
att(245,65).
att(54,268).
att(158,225).
att(298,180).
att(40,124).
att(47,121).
att(234,67).
att(81,256).
att(91,104).
att(115,96).
att(153,85).
att(142,88).
att(72,111).
att(80,108).
att(14,136).
att(157,84).
att(63,264).
att(38,125).
att(291,182).
att(161,83).
att(270,188).
att(72,260).
att(52,269).
att(169,81).
att(83,107).
att(224,69).
att(212,298).
att(8,139).
att(234,290).
att(251,284).
att(75,110).
att(132,91).
att(186,77).
att(219,70).
att(117,241).
att(246,65).
att(2,142).
att(284,184).
att(145,230).
att(277,186).
att(139,89).
att(264,62).
att(260,191).
att(186,215).
att(182,78).
att(223,294).
att(79,257).
att(254,283).
att(93,251).
att(55,118).
att(61,265).
att(86,254).
att(231,200).
att(23,132).
att(191,76).
att(298,57).
att(158,84).
att(237,289).
att(295,181).
att(174,80).
att(267,189).
att(21,133).
att(95,103).
att(247,65).
att(192,213).
att(228,201).
att(166,82).
att(175,219).
att(98,102).
att(107,99).
att(278,60).
att(260,281).
att(274,187).
att(195,212).
att(123,94).
att(156,226).
att(281,185).
att(292,58).
att(201,74).
att(231,68).
att(222,203).
att(240,288).
att(76,110).
att(293,270).
att(178,218).
att(192,76).
att(120,240).
att(299,180).
att(206,73).
att(216,205).
att(264,190).
att(9,139).
att(241,197).
att(159,84).
att(137,90).
att(287,272).
att(272,277).
att(163,83).
att(243,287).
att(56,118).
att(181,217).
att(127,93).
att(61,116).
att(44,273).
att(96,103).
att(159,225).
att(151,228).
att(25,282).
att(75,259).
att(24,132).
att(99,102).
att(108,99).
att(102,101).
att(66,263).
att(251,194).
att(170,221).
att(267,62).
att(108,245).
att(23,283).
att(22,133).
att(85,107).
att(261,191).
att(42,274).
att(69,113).
att(235,199).
att(217,71).
att(301,57).
att(77,110).
att(131,92).
att(294,58).
att(160,84).
att(113,243).
att(88,106).
att(187,215).
att(172,81).
att(138,90).
att(198,75).
att(274,61).
att(31,129).
att(168,82).
att(162,224).
att(118,96).
att(296,181).
att(128,237).
att(118,241).
att(244,66).
att(232,200).
att(233,68).
att(91,105).
att(115,97).
att(80,109).
att(128,93).
att(14,137).
att(190,214).
att(15,287).
att(52,120).
att(94,104).
att(250,65).
att(112,98).
att(258,192).
att(67,114).
att(194,76).
att(208,73).
att(45,123).
att(57,118).
att(38,276).
att(106,100).
att(295,58).
att(80,257).
att(252,284).
att(181,79).
att(141,232).
att(213,72).
att(94,251).
att(2,143).
att(4,142).
att(226,202).
att(213,298).
att(157,85).
att(106,246).
att(177,80).
att(62,265).
att(51,270).
att(161,84).
att(255,283).
att(132,92).
att(234,68).
att(43,124).
att(157,226).
att(251,65).
att(204,74).
att(34,128).
att(89,106).
att(202,210).
att(179,218).
att(186,78).
att(217,205).
att(21,134).
att(211,207).
att(92,105).
att(116,97).
att(49,271).
att(276,61).
att(143,89).
att(126,238).
att(182,79).
att(32,129).
att(154,86).
att(136,91).
att(246,66).
att(144,231).
att(182,217).
att(239,198).
att(92,252).
att(32,279).
att(216,297).
att(178,80).
att(85,255).
att(191,77).
att(227,293).
att(39,126).
att(262,191).
att(58,118).
att(47,272).
att(241,288).
att(30,280).
att(13,138).
att(205,74).
att(123,95).
att(241,67).
att(277,61).
att(28,131).
att(297,181).
att(151,87).
att(1,144).
att(5,142).
att(215,72).
att(51,121).
att(273,277).
att(279,275).
att(44,124).
att(130,93).
att(269,189).
att(233,200).
att(155,86).
att(236,68).
att(144,89).
att(298,58).
att(230,292).
att(259,192).
att(24,133).
att(114,98).
att(90,253).
att(230,201).
att(56,268).
att(231,69).
att(278,61).
att(167,83).
att(119,241).
att(105,101).
att(247,286).
att(22,284).
att(211,299).
att(85,108).
att(124,95).
att(197,76).
att(177,219).
att(299,58).
att(266,190).
att(224,203).
att(266,63).
att(184,79).
att(41,275).
att(47,123).
att(233,291).
att(166,223).
att(18,286).
att(202,75).
att(131,93).
att(243,197).
att(222,295).
att(193,77).
att(81,257).
att(16,287).
att(118,97).
att(29,131).
att(80,110).
att(215,206).
att(207,74).
att(180,218).
att(38,127).
att(176,81).
att(287,184).
att(212,207).
att(164,84).
att(227,70).
att(286,60).
att(45,124).
att(168,83).
att(212,73).
att(6,142).
att(63,265).
att(52,270).
att(198,76).
att(169,222).
att(253,194).
att(83,109).
att(267,63).
att(6,292).
att(263,191).
att(117,242).
att(25,133).
att(280,61).
att(301,268).
att(127,238).
att(122,240).
att(43,125).
att(233,69).
att(225,294).
att(206,301).
att(244,67).
att(55,120).
att(298,269).
att(208,74).
att(65,116).
att(60,118).
att(89,107).
att(250,195).
att(86,255).
att(161,85).
att(234,200).
att(48,123).
att(173,82).
att(268,63).
att(32,130).
att(190,78).
att(262,281).
att(19,136).
att(199,76).
att(73,113).
att(189,215).
att(150,88).
att(265,280).
att(136,92).
att(110,100).
att(31,280).
att(107,101).
att(289,272).
att(154,87).
att(104,102).
att(242,288).
att(59,267).
att(268,279).
att(46,124).
att(295,59).
att(84,109).
att(195,77).
att(98,250).
att(267,190).
att(156,227).
att(158,86).
att(274,277).
att(283,274).
att(269,63).
att(115,243).
att(130,237).
att(84,256).
att(257,65).
att(87,108).
att(147,89).
att(51,122).
att(225,203).
att(120,241).
att(125,239).
att(174,82).
att(71,114).
att(191,78).
att(44,125).
att(27,282).
att(79,111).
att(57,268).
att(201,211).
att(103,248).
att(219,205).
att(24,134).
att(220,296).
att(207,209).
att(210,208).
att(49,123).
att(144,90).
att(96,105).
att(252,66).
att(241,198).
att(137,92).
att(155,87).
att(111,100).
att(283,61).
att(20,136).
att(138,234).
att(69,115).
att(85,109).
att(21,285).
att(212,299).
att(201,76).
att(59,119).
att(184,217).
att(47,124).
att(77,112).
att(124,96).
att(247,67).
att(236,69).
att(292,183).
att(14,139).
att(29,132).
att(152,88).
att(128,238).
att(12,140).
att(285,185).
att(235,200).
att(15,288).
att(265,64).
att(91,107).
att(10,141).
att(80,111).
att(101,249).
att(8,142).
att(154,228).
att(45,125).
att(6,143).
att(4,144).
att(145,90).
att(94,106).
att(138,92).
att(115,99).
att(237,290).
att(232,201).
att(80,258).
att(97,105).
att(7,292).
att(25,134).
att(237,69).
att(141,233).
att(87,255).
att(106,102).
att(43,126).
att(36,278).
att(260,282).
att(23,135).
att(207,75).
att(165,224).
att(34,130).
att(142,91).
att(232,70).
att(240,289).
att(196,213).
att(198,77).
att(89,108).
att(122,97).
att(41,127).
att(293,271).
att(157,87).
att(116,243).
att(202,211).
att(203,76).
att(273,63).
att(126,239).
att(194,78).
att(121,241).
att(168,223).
att(30,132).
att(255,66).
att(208,209).
att(214,207).
att(85,256).
att(177,82).
att(267,64).
att(68,116).
att(284,274).
att(233,70).
att(278,276).
att(110,101).
att(190,79).
att(104,248).
att(228,71).
att(143,91).
att(160,226).
att(5,144).
att(223,72).
att(152,229).
att(44,126).
att(171,222).
att(239,69).
att(287,61).
att(45,274).
att(204,76).
att(79,112).
att(24,135).
att(182,81).
att(147,90).
att(195,78).
att(294,60).
att(232,292).
att(61,119).
att(140,92).
att(162,86).
att(234,70).
att(188,216).
att(93,107).
att(49,124).
att(281,62).
att(174,83).
att(114,244).
att(170,84).
att(147,231).
att(43,275).
att(151,89).
att(249,196).
att(297,182).
att(219,73).
att(200,77).
att(119,242).
att(99,105).
att(251,67).
att(144,91).
att(18,138).
att(108,102).
att(240,69).
att(105,103).
att(252,285).
att(235,291).
att(85,110).
att(187,80).
att(213,299).
att(20,286).
att(290,184).
att(41,276).
att(142,233).
att(159,87).
att(183,81).
att(246,197).
att(177,220).
att(124,97).
att(227,203).
att(134,94).
att(81,258).
att(38,129).
att(52,123).
att(10,142).
att(224,204).
att(175,83).
att(80,112).
att(2,146).
att(4,145).
att(220,73).
att(192,79).
att(201,77).
att(238,290).
att(266,191).
att(221,205).
att(300,269).
att(256,194).
att(152,89).
att(52,271).
att(94,107).
att(180,219).
att(264,65).
att(112,245).
att(215,207).
att(212,208).
att(37,278).
att(115,100).
att(50,124).
att(138,93).
att(206,76).
att(283,62).
att(216,298).
att(297,270).
att(112,101).
att(100,250).
att(247,68).
att(127,239).
att(70,116).
att(145,232).
att(50,272).
att(277,63).
att(35,279).
att(60,120).
att(226,72).
att(78,113).
att(93,253).
att(161,226).
att(263,192).
att(271,64).
att(267,280).
att(259,66).
att(153,229).
att(288,273).
att(186,217).
att(285,274).
att(273,278).
att(92,108).
att(132,95).
att(250,196).
att(95,107).
att(146,91).
att(189,216).
att(59,268).
att(139,93).
att(185,81).
att(28,134).
att(98,106).
att(227,72).
att(164,225).
att(5,145).
att(222,73).
att(148,231).
att(243,69).
att(192,215).
att(285,62).
att(203,77).
att(194,79).
att(91,254).
att(87,110).
att(126,97).
att(292,61).
att(249,68).
att(35,131).
att(233,292).
att(299,60).
att(123,98).
att(233,71).
att(257,194).
att(213,75).
att(66,265).
att(93,108).
att(186,81).
att(267,65).
att(223,73).
att(20,138).
att(74,115).
att(23,285).
att(82,112).
att(207,210).
att(216,207).
att(151,230).
att(253,285).
att(18,139).
att(159,227).
att(204,77).
att(210,209).
att(181,219).
att(82,258).
att(69,117).
att(293,61).
att(178,83).
att(47,126).
att(64,119).
att(111,102).
att(250,68).
att(254,195).
att(144,92).
att(264,192).
att(113,245).
att(256,67).
att(12,142).
att(234,71).
att(268,65).
att(6,145).
att(224,73).
att(101,250).
att(239,290).
att(11,291).
att(187,217).
att(205,77).
att(80,259).
att(251,68).
att(240,70).
att(94,108).
att(235,201).
att(118,100).
att(87,256).
att(51,272).
att(43,128).
att(217,298).
att(97,107).
att(210,76).
att(152,90).
att(141,234).
att(190,216).
att(285,186).
att(288,62).
att(292,272).
att(138,94).
att(106,104).
att(268,280).
att(248,197).
att(209,301).
att(271,279).
att(165,225).
att(286,274).
att(78,114).
att(282,63).
att(111,246).
att(229,203).
att(268,191).
att(89,110).
att(125,98).
att(241,70).
att(196,214).
att(78,260).
att(135,95).
att(184,82).
att(32,281).
att(164,87).
att(39,130).
att(122,99).
att(264,66).
att(81,113).
att(69,264).
att(220,297).
att(85,257).
att(172,85).
att(275,189).
att(47,274).
att(9,144).
att(28,135).
att(289,185).
att(95,108).
att(231,72).
att(220,206).
att(30,282).
att(144,233).
att(1,148).
att(5,146).
att(283,63).
att(217,207).
att(116,101).
att(37,131).
att(214,208).
att(211,209).
att(146,92).
att(26,136).
att(101,106).
att(113,102).
att(253,68).
att(51,125).
att(189,81).
att(28,283).
att(255,195).
att(110,103).
att(104,105).
att(300,182).
att(87,111).
att(24,137).
att(234,292).
att(35,132).
att(251,286).
att(109,247).
att(66,119).
att(61,121).
att(136,95).
att(239,200).
att(143,93).
att(43,276).
att(194,80).
att(227,73).
att(222,74).
att(114,245).
att(203,78).
att(147,232).
att(163,226).
att(129,239).
att(119,243).
att(237,291).
att(124,241).
att(96,108).
att(174,222).
att(272,65).
att(65,266).
att(69,118).
att(140,94).
att(155,229).
att(64,120).
att(41,277).
att(257,284).
att(54,271).
att(233,202).
att(249,69).
att(285,63).
att(213,76).
att(233,72).
att(38,131).
att(182,83).
att(52,125).
att(95,253).
att(137,95).
att(2,148).
att(195,80).
att(204,78).
att(292,62).
att(12,291).
att(273,65).
att(72,263).
att(155,90).
att(276,189).
att(150,231).
att(290,185).
att(2,296).
att(158,228).
att(209,77).
att(112,246).
att(283,187).
att(50,126).
att(218,298).
att(180,220).
att(141,94).
att(229,294).
att(118,101).
att(287,274).
att(272,279).
att(127,240).
att(215,208).
att(293,62).
att(122,242).
att(219,75).
att(183,83).
att(70,118).
att(275,278).
att(278,277).
att(281,276).
att(65,120).
att(86,112).
att(196,80).
att(205,78).
att(245,70).
att(274,65).
att(48,127).
att(175,85).
att(240,200).
att(294,184).
att(273,190).
att(89,111).
att(30,135).
att(192,81).
att(39,131).
att(280,188).
att(11,144).
att(81,114).
att(215,76).
att(281,64).
att(92,110).
att(188,82).
att(28,136).
att(230,73).
att(63,121).
att(142,94).
att(3,148).
att(225,74).
att(98,252).
att(95,109).
att(263,67).
att(246,70).
att(164,88).
att(269,66).
att(29,283).
att(46,275).
att(189,217).
att(197,80).
att(132,97).
att(51,126).
att(176,85).
att(175,222).
att(153,91).
att(298,183).
att(235,292).
att(241,71).
att(270,191).
att(252,69).
att(57,270).
att(211,77).
att(71,118).
att(146,93).
att(295,62).
att(87,112).
att(231,203).
att(25,285).
att(202,79).
att(291,185).
att(255,285).
att(221,75).
att(33,134).
att(226,74).
att(247,198).
att(23,286).
att(289,63).
att(198,214).
att(167,225).
att(238,291).
att(185,83).
att(207,78).
att(198,80).
att(96,253).
att(82,114).
att(82,259).
att(242,71).
att(69,119).
att(267,192).
att(19,288).
att(47,128).
att(14,143).
att(64,121).
att(212,77).
att(181,220).
att(29,136).
att(237,72).
att(261,283).
att(85,113).
att(77,116).
att(102,107).
att(265,67).
att(15,290).
att(38,132).
att(271,66).
att(297,271).
att(170,224).
att(53,272).
att(130,98).
att(2,149).
att(27,137).
att(190,82).
att(123,242).
att(288,186).
att(38,279).
att(146,233).
att(9,293).
att(254,196).
att(7,294).
att(127,99).
att(80,115).
att(5,295).
att(264,193).
att(270,280).
att(94,254).
att(244,289).
att(51,273).
att(43,130).
att(219,298).
att(174,86).
att(87,257).
att(285,275).
att(106,249).
att(71,264).
att(291,63).
att(134,97).
att(233,73).
att(21,140).
att(55,125).
att(228,74).
att(235,202).
att(211,301).
att(19,141).
att(100,108).
att(86,113).
att(255,69).
att(111,247).
att(244,71).
att(149,232).
att(99,252).
att(163,89).
att(32,282).
att(30,136).
att(233,293).
att(39,132).
att(53,126).
att(167,88).
att(138,96).
att(183,84).
att(222,297).
att(92,255).
att(196,215).
att(11,145).
att(171,87).
att(46,129).
att(47,275).
att(219,76).
att(30,283).
att(224,75).
att(229,74).
att(179,221).
att(268,192).
att(37,133).
att(104,250).
att(192,82).
att(236,292).
att(214,300).
att(280,65).
att(205,212).
att(76,262).
att(98,109).
att(262,68).
att(208,211).
att(293,63).
att(160,228).
att(275,190).
att(26,285).
att(116,103).
att(71,119).
att(22,140).
att(220,76).
att(42,131).
att(172,87).
att(287,64).
att(43,277).
att(20,141).
att(239,291).
att(134,238).
att(22,287).
att(257,69).
att(259,284).
att(157,91).
att(239,201).
att(129,240).
att(119,244).
att(20,288).
att(31,136).
att(74,263).
att(147,233).
att(16,143).
att(40,132).
att(82,115).
att(136,97).
att(59,124).
att(174,223).
att(64,122).
att(12,145).
att(96,110).
att(242,290).
att(10,146).
att(120,102).
att(295,272).
att(236,73).
att(265,282).
att(185,84).
att(99,109).
att(39,279).
att(117,103).
att(286,187).
att(181,85).
att(12,292).
att(198,81).
att(207,79).
att(173,87).
att(282,65).
att(107,249).
att(105,107).
att(10,293).
att(108,106).
att(52,273).
att(271,280).
att(147,94).
att(264,68).
att(6,295).
att(130,99).
att(194,216).
att(4,296).
att(2,297).
att(286,275).
att(274,279).
att(270,67).
att(37,280).
att(280,277).
att(212,78).
att(150,232).
att(23,140).
att(289,64).
att(259,195).
att(237,73).
att(151,93).
att(132,239).
att(200,214).
att(50,274).
att(75,118).
att(222,76).
att(117,245).
att(94,111).
att(83,115).
att(227,75).
att(166,89).
att(296,63).
att(276,190).
att(248,288).
att(19,142).
att(199,81).
att(70,120).
att(97,110).
att(121,102).
att(93,255).
att(265,68).
att(86,258).
att(206,212).
att(70,265).
att(48,129).
att(100,109).
att(118,103).
att(215,209).
att(86,114).
att(15,144).
att(213,78).
att(243,72).
att(195,82).
att(112,105).
att(106,107).
att(251,287).
att(161,228).
att(266,193).
att(131,99).
att(13,145).
att(153,231).
att(159,91).
att(204,80).
att(223,76).
att(228,75).
att(81,116).
att(138,97).
att(152,93).
att(278,66).
att(98,253).
att(63,123).
att(92,112).
att(145,95).
att(167,89).
att(200,81).
att(237,292).
att(135,238).
att(294,185).
att(91,256).
att(291,64).
att(27,285).
att(179,86).
att(95,111).
att(189,218).
att(84,115).
att(156,92).
att(255,70).
att(287,187).
att(196,82).
att(285,65).
att(119,103).
att(71,120).
att(234,203).
att(234,74).
att(42,132).
att(132,99).
att(279,66).
att(113,105).
att(110,106).
att(143,235).
att(195,216).
att(231,204).
att(90,113).
att(129,100).
att(139,97).
att(82,260).
att(31,137).
att(54,127).
att(146,95).
att(198,215).
att(299,63).
att(47,130).
att(82,116).
att(286,65).
att(277,190).
att(17,290).
att(93,112).
att(69,121).
att(138,237).
att(201,214).
att(225,206).
att(64,123).
att(262,69).
att(64,268).
att(269,281).
att(220,77).
att(15,291).
att(206,80).
att(96,111).
att(268,68).
att(38,134).
att(225,76).
att(2,151).
att(85,115).
att(219,208).
att(77,118).
att(11,293).
att(161,91).
att(99,110).
att(120,103).
att(45,131).
att(213,210).
att(281,277).
att(133,99).
att(211,79).
att(72,120).
att(165,90).
att(246,72).
att(80,261).
att(287,65).
att(88,114).
att(232,294).
att(67,122).
att(62,269).
att(80,117).
att(87,258).
att(241,73).
att(43,132).
att(71,265).
att(295,185).
att(34,136).
att(91,113).
att(275,67).
att(198,82).
att(221,77).
att(127,101).
att(288,187).
att(238,202).
att(60,125).
att(212,79).
att(60,270).
att(78,262).
att(32,283).
att(136,238).
att(203,81).
att(252,287).
att(99,253).
att(282,66).
att(224,297).
att(69,266).
att(118,104).
att(217,78).
att(186,85).
att(276,67).
att(157,230).
att(271,192).
att(170,89).
att(193,217).
att(85,259).
att(182,86).
att(109,107).
att(174,88).
att(222,77).
att(46,131).
att(28,139).
att(5,150).
att(89,114).
att(131,100).
att(227,76).
att(3,151).
att(58,126).
att(196,216).
att(292,186).
att(37,135).
att(179,222).
att(259,70).
att(285,188).
att(92,113).
att(45,277).
att(51,129).
att(44,132).
att(152,94).
att(67,267).
att(271,68).
att(227,296).
att(84,116).
att(223,207).
att(160,229).
att(24,287).
att(254,71).
att(187,85).
att(139,237).
att(122,103).
att(238,74).
att(223,77).
att(171,89).
att(42,133).
att(228,76).
att(66,123).
att(290,65).
att(179,87).
att(104,109).
att(18,144).
att(113,106).
att(294,273).
att(185,220).
att(16,145).
att(278,67).
att(124,243).
att(102,252).
att(291,274).
att(14,146).
att(244,73).
att(205,81).
att(265,194).
att(164,91).
att(139,98).
att(14,292).
att(239,74).
att(12,293).
att(168,90).
att(188,85).
att(229,76).
att(10,294).
att(210,80).
att(261,70).
att(172,89).
att(184,86).
att(8,295).
att(300,184).
att(123,103).
att(191,218).
att(72,265).
att(267,69).
att(233,294).
att(72,121).
att(150,95).
att(177,223).
att(105,109).
att(150,233).
att(279,190).
att(206,81).
att(256,71).
att(43,133).
att(80,118).
att(220,78).
att(286,188).
att(35,282).
att(50,275).
att(240,74).
att(193,84).
att(249,199).
att(132,240).
att(165,91).
att(91,114).
att(140,98).
att(262,70).
att(19,144).
att(251,72).
att(214,301).
att(200,215).
att(41,134).
att(253,287).
att(94,113).
att(181,87).
att(246,200).
att(137,99).
att(15,146).
att(246,73).
att(97,112).
att(30,139).
att(198,83).
att(257,71).
att(293,65).
att(209,212).
att(212,211).
att(86,116).
att(39,135).
att(151,95).
att(144,97).
att(276,191).
att(153,232).
att(11,148).
att(9,149).
att(28,140).
att(118,105).
att(236,75).
att(29,285).
att(290,187).
att(1,153).
att(68,267).
att(73,121).
att(112,107).
att(109,108).
att(252,72).
att(256,197).
att(58,127).
att(166,91).
att(89,115).
att(269,69).
att(281,67).
att(37,136).
att(212,80).
att(266,194).
att(186,220).
att(155,94).
att(81,118).
att(170,90).
att(57,272).
att(148,96).
att(294,65).
att(262,284).
att(44,278).
att(24,142).
att(25,287).
att(148,234).
att(301,184).
att(298,272).
att(242,74).
att(95,113).
att(175,224).
att(75,264).
att(273,192).
att(264,70).
att(66,268).
att(125,103).
att(227,77).
att(71,122).
att(61,126).
att(253,72).
att(276,68).
att(263,195).
att(55,273).
att(271,281).
att(18,145).
att(87,116).
att(135,100).
att(213,80).
att(96,255).
att(191,85).
att(274,280).
att(108,250).
att(286,276).
att(283,277).
att(280,278).
att(195,217).
att(40,135).
att(171,90).
att(40,280).
att(14,147).
att(142,98).
att(132,101).
att(15,292).
att(179,88).
att(289,66).
att(151,233).
att(53,274).
att(200,83).
att(73,265).
att(10,149).
att(113,248).
att(283,67).
att(238,75).
att(260,196).
att(271,69).
att(4,152).
att(38,136).
att(129,102).
att(254,72).
att(298,185).
att(247,200).
att(225,207).
att(5,297).
att(296,65).
att(234,294).
att(128,242).
att(96,113).
att(80,262).
att(51,275).
att(210,212).
att(146,235).
att(216,210).
att(36,282).
att(57,128).
att(123,104).
att(136,100).
att(72,122).
att(87,259).
att(244,201).
att(184,221).
att(188,86).
att(172,90).
att(266,70).
att(157,94).
att(257,197).
att(162,229).
att(176,89).
att(105,110).
att(117,106).
att(272,69).
att(80,119).
att(239,75).
att(34,283).
att(114,107).
att(133,101).
att(254,287).
att(234,76).
att(173,225).
att(241,202).
att(187,220).
att(91,115).
att(32,139).
att(250,73).
att(140,99).
att(94,114).
att(257,286).
att(206,82).
att(295,186).
att(15,147).
att(193,85).
att(190,219).
att(238,203).
att(30,140).
att(267,70).
att(281,190).
att(165,228).
att(149,234).
att(116,247).
att(30,285).
att(285,67).
att(13,148).
att(97,113).
att(273,69).
att(39,136).
att(189,86).
att(279,68).
att(131,241).
att(86,117).
att(124,104).
att(298,65).
att(7,151).
att(158,94).
att(202,83).
att(193,218).
att(46,133).
att(181,88).
att(230,77).
att(3,153).
att(103,111).
att(37,137).
att(26,142).
att(292,66).
att(26,287).
att(63,126).
att(68,124).
att(229,296).
att(81,119).
att(266,283).
att(243,291).
att(261,196).
att(299,185).
att(44,134).
att(268,70).
att(286,67).
att(199,216).
att(229,206).
att(35,138).
att(56,273).
att(141,99).
att(155,95).
att(22,144).
att(257,72).
att(226,207).
att(272,281).
att(170,91).
att(84,118).
att(182,222).
att(205,214).
att(287,276).
att(186,87).
att(212,81).
att(182,88).
att(49,132).
att(281,278).
att(66,125).
att(138,100).
att(74,265).
att(41,280).
att(125,104).
att(65,269).
att(18,146).
att(171,226).
att(268,194).
att(18,291).
att(232,295).
att(119,246).
att(87,117).
att(79,120).
att(217,80).
att(147,235).
att(107,110).
att(116,107).
att(222,79).
att(113,108).
att(249,289).
att(163,229).
att(29,141).
att(10,295).
att(88,259).
att(8,296).
att(6,152).
att(69,124).
att(232,77).
att(174,225).
att(63,270).
att(52,275).
att(4,298).
att(171,91).
att(149,97).
att(27,142).
att(204,83).
att(282,190).
att(142,237).
att(52,131).
att(265,195).
att(239,203).
att(183,88).
att(45,134).
att(179,89).
att(252,288).
att(77,121).
att(301,65).
att(276,69).
att(139,100).
att(35,283).
att(150,234).
att(146,98).
att(62,127).
att(123,105).
att(243,75).
att(272,193).
att(117,247).
att(228,78).
att(33,284).
att(233,205).
att(216,301).
att(105,111).
att(262,196).
att(122,245).
att(168,92).
att(117,107).
att(108,110).
att(192,86).
att(289,67).
att(19,146).
att(114,108).
att(254,73).
att(157,95).
att(48,277).
att(55,130).
att(230,206).
att(279,191).
att(41,136).
att(176,90).
att(48,133).
att(180,89).
att(169,227).
att(261,285).
att(30,141).
att(94,115).
att(13,149).
att(300,272).
att(244,75).
att(206,214).
att(246,201).
att(221,209).
att(264,284).
att(209,213).
att(97,114).
att(127,104).
att(229,78).
att(218,210).
att(28,142).
att(1,155).
att(78,121).
att(215,211).
att(297,273).
att(27,287).
att(267,283).
att(100,113).
att(124,105).
att(272,70).
att(91,258).
att(284,68).
att(215,81).
att(58,129).
att(169,92).
att(206,83).
att(73,123).
att(297,186).
att(89,117).
att(189,87).
att(250,74).
att(24,144).
att(177,90).
att(181,89).
att(151,97).
att(134,102).
att(245,75).
att(225,79).
att(211,82).
att(189,220).
att(21,290).
att(55,274).
att(247,290).
att(131,103).
att(235,77).
att(256,73).
att(42,136).
att(285,68).
att(19,291).
att(82,262).
att(49,133).
att(66,126).
att(148,98).
att(237,204).
att(192,219).
att(128,104).
att(89,259).
att(207,83).
att(170,92).
att(31,141).
att(262,72).
att(64,270).
att(125,105).
att(263,196).
att(178,224).
att(101,113).
att(159,95).
att(294,187).
att(138,239).
att(12,150).
att(178,90).
att(122,106).
att(246,75).
att(9,296).
att(104,112).
att(38,282).
att(145,99).
att(1,300).
att(8,152).
att(241,76).
att(59,129).
att(231,206).
att(90,117).
att(231,78).
att(286,68).
att(236,77).
att(101,254).
att(38,138).
att(253,288).
att(69,125).
att(118,247).
att(27,143).
att(199,85).
att(201,216).
att(51,276).
att(181,223).
att(123,245).
att(52,132).
att(93,116).
att(270,194).
att(94,257).
att(260,197).
att(170,227).
att(252,74).
att(25,144).
att(156,96).
att(208,83).
att(36,139).
att(195,86).
att(71,267).
att(77,122).
att(149,98).
att(219,210).
att(34,284).
att(247,75).
att(213,212).
att(175,91).
att(67,126).
att(126,105).
att(21,146).
att(237,77).
att(141,238).
att(123,106).
att(80,121).
att(257,198).
att(153,97).
att(78,264).
att(32,141).
att(267,195).
att(200,85).
att(301,272).
att(55,131).
att(69,268).
att(108,111).
att(218,81).
att(264,72).
att(47,278).
att(30,286).
att(136,240).
att(75,123).
att(209,83).
att(265,284).
att(133,103).
att(143,100).
att(248,75).
att(165,229).
att(39,138).
att(192,87).
att(282,69).
att(295,274).
att(5,154).
att(53,132).
att(233,78).
att(46,135).
att(292,275).
att(271,282).
att(78,122).
att(67,269).
att(274,281).
att(281,191).
att(127,105).
att(26,144).
att(288,189).
att(286,277).
att(24,289).
att(295,67).
att(100,114).
att(280,279).
att(201,85).
att(154,97).
att(147,99).
att(168,228).
att(137,102).
att(109,251).
att(121,107).
att(224,80).
att(109,111).
att(244,76).
att(229,79).
att(92,117).
att(134,103).
att(234,78).
att(65,270).
att(56,131).
att(173,92).
att(74,266).
att(223,299).
att(206,84).
att(215,82).
att(189,88).
att(299,186).
att(185,89).
att(49,134).
att(84,120).
att(266,72).
att(61,129).
att(18,148).
att(71,125).
att(102,254).
att(129,243).
att(124,245).
att(14,294).
att(141,101).
att(214,212).
att(272,71).
att(147,236).
att(98,115).
att(250,75).
att(284,69).
att(245,202).
att(10,296).
att(54,132).
att(87,119).
att(8,297).
att(225,80).
att(237,294).
att(163,230).
att(52,276).
att(63,271).
att(10,152).
att(101,114).
att(245,76).
att(8,153).
att(230,79).
att(2,156).
att(170,93).
att(226,298).
att(142,238).
att(242,203).
att(216,82).
att(69,126).
att(159,96).
att(267,72).
att(257,287).
att(116,109).
att(190,88).
att(178,91).
att(275,193).
att(50,277).
att(112,250).
att(296,187).
att(79,264).
att(61,272).
att(260,286).
att(166,229).
att(77,123).
att(132,104).
att(262,73).
att(142,101).
att(177,225).
att(33,285).
att(93,258).
att(86,261).
att(156,97).
att(62,129).
att(199,86).
att(236,205).
att(50,134).
att(298,67).
att(127,244).
att(149,99).
att(67,127).
att(48,278).
att(252,200).
att(31,286).
att(217,82).
att(126,106).
att(243,292).
att(88,119).
att(292,68).
att(266,284).
att(197,218).
att(102,114).
att(180,224).
att(145,237).
att(48,135).
att(46,279).
att(136,103).
att(263,73).
att(114,110).
att(70,126).
att(153,234).
att(203,216).
att(27,288).
att(227,80).
att(110,251).
att(140,239).
att(183,223).
att(237,78).
att(269,72).
att(53,133).
att(221,210).
att(157,97).
att(78,123).
att(259,198).
att(269,195).
att(66,270).
att(73,125).
att(148,236).
att(103,254).
att(125,245).
att(63,129).
att(264,73).
att(180,91).
att(300,67).
att(164,230).
att(243,203).
att(124,107).
att(81,122).
att(22,147).
att(256,199).
att(175,226).
att(297,187).
att(238,78).
att(109,112).
att(118,109).
att(17,293).
att(56,132).
att(115,110).
att(283,191).
att(288,69).
att(240,204).
att(18,149).
att(61,130).
att(169,94).
att(13,295).
att(84,121).
att(71,126).
att(11,296).
att(66,128).
att(16,150).
att(255,288).
att(31,143).
att(95,117).
att(301,67).
att(9,297).
att(7,298).
att(14,151).
att(167,229).
att(178,225).
att(113,250).
att(40,139).
att(193,88).
att(5,299).
att(131,105).
att(79,123).
att(159,232).
att(258,287).
att(101,255).
att(185,90).
att(162,96).
att(227,298).
att(133,242).
att(80,264).
att(4,156).
att(260,74).
att(277,71).
att(128,244).
att(123,246).
att(125,107).
att(64,129).
att(181,224).
att(71,268).
att(261,286).
att(220,82).
att(107,113).
att(52,134).
att(82,122).
att(287,190).
att(119,109).
att(25,146).
att(110,112).
att(211,84).
att(113,111).
att(106,253).
att(36,141).
att(159,97).
att(145,101).
att(135,104).
att(23,147).
att(57,132).
att(174,93).
att(194,88).
att(154,234).
att(260,198).
att(219,211).
att(267,284).
att(297,274).
att(245,77).
att(290,69).
att(207,85).
att(244,292).
att(216,83).
att(235,79).
att(182,91).
att(50,135).
att(72,126).
att(284,70).
att(111,251).
att(67,128).
att(30,287).
att(173,227).
att(99,116).
att(291,276).
att(32,143).
att(203,86).
att(17,150).
att(116,249).
att(267,73).
att(282,279).
att(58,274).
att(212,84).
att(149,236).
att(284,191).
att(297,68).
att(139,103).
att(171,94).
att(26,289).
att(11,153).
att(120,109).
att(176,226).
att(70,127).
att(65,129).
att(231,80).
att(146,101).
att(136,104).
att(236,79).
att(28,145).
att(191,89).
att(94,118).
att(254,200).
att(56,275).
att(97,257).
att(274,194).
att(26,146).
att(37,141).
att(133,105).
att(78,124).
att(109,252).
att(204,86).
att(143,102).
att(179,225).
att(196,219).
att(235,206).
att(24,147).
att(168,95).
att(41,282).
att(227,81).
att(225,299).
att(160,232).
att(251,201).
att(22,148).
att(140,103).
att(16,294).
att(242,78).
att(237,79).
att(20,149).
att(202,217).
att(161,97).
att(56,133).
att(106,114).
att(129,244).
att(109,113).
att(18,150).
att(188,90).
att(239,294).
att(154,99).
att(258,75).
att(226,209).
att(261,198).
att(184,91).
att(137,104).
att(4,300).
att(223,82).
att(275,72).
att(214,213).
att(217,212).
att(37,284).
att(14,152).
att(185,223).
att(299,187).
att(163,231).
att(144,102).
att(155,234).
att(158,98).
att(248,77).
att(47,137).
att(292,189).
att(2,158).
att(4,157).
att(174,227).
att(35,285).
att(50,278).
att(38,141).
att(141,103).
att(128,107).
att(61,273).
att(64,130).
att(79,265).
att(193,89).
att(177,93).
att(100,256).
att(298,274).
att(33,286).
att(45,138).
att(90,120).
att(104,115).
att(189,90).
att(276,72).
att(185,91).
att(25,147).
att(268,284).
att(82,123).
att(224,82).
att(36,142).
att(288,70).
att(231,297).
att(150,236).
att(86,262).
att(138,104).
att(93,259).
att(132,243).
att(48,279).
att(271,283).
att(110,113).
att(23,148).
att(275,194).
att(158,233).
att(31,287).
att(249,77).
att(34,143).
att(244,78).
att(21,149).
att(135,105).
att(105,254).
att(283,279).
att(29,288).
att(19,150).
att(220,83).
att(260,75).
att(289,190).
att(46,280).
att(194,89).
att(99,117).
att(55,134).
att(233,207).
att(15,152).
att(255,76).
att(129,107).
att(110,252).
att(182,92).
att(102,116).
att(153,235).
att(161,232).
att(216,84).
att(250,77).
att(251,290).
att(9,155).
att(183,224).
att(7,156).
att(91,120).
att(167,96).
att(245,78).
att(115,250).
att(3,158).
att(240,79).
att(23,291).
att(83,123).
att(120,110).
att(53,135).
att(117,111).
att(114,112).
att(120,248).
att(221,83).
att(221,211).
att(278,72).
att(42,282).
att(218,212).
att(254,289).
att(26,147).
att(94,119).
att(160,98).
att(215,213).
att(284,71).
att(153,100).
att(195,89).
att(73,127).
att(44,139).
att(63,131).
att(40,283).
att(183,92).
att(208,86).
att(231,81).
att(15,295).
att(189,222).
att(64,272).
att(273,73).
att(13,296).
att(240,294).
att(53,277).
att(143,239).
att(89,121).
att(81,124).
att(150,101).
att(262,75).
att(38,284).
att(256,200).
att(5,300).
att(18,151).
att(106,115).
att(124,109).
att(192,221).
att(76,126).
att(16,152).
att(257,76).
att(31,145).
att(112,113).
att(151,236).
att(101,256).
att(66,130).
att(227,82).
att(290,190).
att(176,94).
att(62,273).
att(159,233).
att(252,77).
att(95,119).
att(192,90).
att(128,245).
att(8,156).
att(47,138).
att(253,201).
att(218,84).
att(292,70).
att(98,118).
att(59,133).
att(181,225).
att(273,195).
att(146,238).
att(263,198).
att(221,301).
att(231,208).
att(69,129).
att(101,117).
att(32,287).
att(52,136).
att(250,202).
att(201,88).
att(141,104).
att(284,279).
att(281,280).
att(82,124).
att(280,193).
att(228,82).
att(173,95).
att(162,232).
att(23,149).
att(225,210).
att(184,224).
att(30,288).
att(197,89).
att(122,110).
att(287,191).
att(210,215).
att(248,78).
att(155,100).
att(238,80).
att(85,263).
att(181,93).
att(247,203).
att(50,137).
att(270,196).
att(58,275).
att(72,128).
att(166,97).
att(187,223).
att(45,281).
att(32,145).
att(224,300).
att(206,87).
att(131,244).
att(224,83).
att(270,74).
att(104,255).
att(159,99).
att(165,231).
att(152,101).
att(88,122).
att(24,291).
att(30,146).
att(276,73).
att(190,222).
att(257,200).
att(11,155).
att(298,188).
att(43,282).
att(102,117).
att(75,127).
att(22,292).
att(1,160).
att(5,158).
att(239,80).
att(267,197).
att(211,86).
att(105,116).
att(90,261).
att(20,293).
att(193,221).
att(149,102).
att(46,139).
att(123,110).
att(186,92).
att(120,111).
att(260,76).
att(37,143).
att(225,83).
att(74,268).
att(167,97).
att(152,236).
att(114,251).
att(160,233).
att(86,123).
att(230,82).
att(73,128).
att(283,72).
att(264,198).
att(97,119).
att(289,71).
att(119,249).
att(153,101).
att(235,81).
att(133,107).
att(81,265).
att(251,202).
att(175,95).
att(221,84).
att(89,122).
att(288,191).
att(229,209).
att(42,141).
att(130,108).
att(244,293).
att(183,93).
att(191,91).
att(267,285).
att(226,210).
att(107,254).
att(127,109).
att(208,216).
att(76,127).
att(157,100).
att(31,146).
att(106,116).
att(278,73).
att(297,275).
att(14,154).
att(92,121).
att(155,235).
att(220,212).
att(270,284).
att(217,85).
att(217,213).
att(40,142).
att(121,111).
att(84,124).
att(294,276).
att(118,112).
att(115,113).
att(10,156).
att(273,283).
att(291,277).
att(54,136).
att(112,252).
att(79,266).
att(288,278).
att(278,194).
att(79,126).
att(154,101).
att(87,123).
att(93,260).
att(134,107).
att(132,244).
att(166,231).
att(279,73).
att(25,149).
att(45,140).
att(165,98).
att(192,91).
att(297,70).
att(184,93).
att(242,205).
att(257,77).
att(209,87).
att(177,227).
att(90,122).
att(104,117).
att(128,109).
att(169,97).
att(239,206).
att(255,201).
att(21,151).
att(43,141).
att(77,127).
att(274,74).
att(173,96).
att(113,114).
att(162,99).
att(236,207).
att(265,198).
att(85,124).
att(67,131).
att(25,291).
att(91,261).
att(177,95).
att(153,236).
att(292,71).
att(258,77).
att(161,233).
att(55,136).
att(239,295).
att(135,107).
att(13,155).
att(48,139).
att(210,87).
att(75,268).
att(66,272).
att(219,85).
att(230,209).
att(21,293).
att(135,243).
att(132,108).
att(120,249).
att(75,128).
att(243,80).
att(152,102).
att(206,217).
att(130,245).
att(272,196).
att(227,210).
att(28,148).
att(275,74).
att(262,199).
att(172,229).
att(228,299).
att(65,132).
att(70,130).
att(209,216).
att(129,109).
att(91,122).
att(83,125).
att(40,284).
att(242,294).
att(202,89).
att(287,72).
att(108,116).
att(164,232).
att(259,77).
att(156,235).
att(13,297).
att(149,103).
att(24,150).
att(94,121).
att(78,127).
att(156,101).
att(73,269).
att(9,299).
att(259,200).
att(286,192).
att(143,240).
att(293,190).
att(22,151).
att(220,85).
att(268,285).
att(68,131).
att(269,197).
att(113,252).
att(146,104).
att(207,88).
att(138,242).
att(295,276).
att(101,257).
att(81,126).
att(153,102).
att(133,108).
att(288,72).
att(192,222).
att(216,86).
att(49,139).
att(159,234).
att(71,270).
att(143,105).
att(61,134).
att(175,96).
att(128,246).
att(34,287).
att(14,155).
att(71,130).
att(164,99).
att(49,280).
att(234,297).
att(10,157).
att(84,125).
att(106,255).
att(283,193).
att(54,137).
att(6,159).
att(240,81).
att(4,160).
att(112,115).
att(121,112).
att(191,92).
att(301,70).
att(60,275).
att(115,114).
att(266,76).
att(181,226).
att(253,202).
att(168,98).
att(208,88).
att(137,107).
att(226,84).
att(47,281).
att(147,104).
att(161,100).
att(172,97).
att(237,296).
att(184,225).
att(250,203).
att(231,83).
att(92,261).
att(28,290).
att(58,276).
att(23,151).
att(82,126).
att(144,105).
att(226,300).
att(301,188).
att(131,109).
att(173,229).
att(280,194).
att(57,136).
att(267,76).
att(219,213).
att(43,142).
att(296,71).
att(290,72).
att(76,268).
att(192,92).
att(126,247).
att(294,190).
att(188,93).
att(247,204).
att(187,224).
att(287,192).
att(19,153).
att(260,200).
att(93,122).
att(141,106).
att(110,116).
att(270,197).
att(67,132).
att(169,98).
att(209,88).
att(262,77).
att(116,114).
att(22,293).
att(260,288).
att(176,228).
att(13,156).
att(232,83).
att(20,294).
att(48,140).
att(279,74).
att(11,157).
att(155,102).
att(9,158).
att(252,79).
att(263,287).
att(285,73).
att(88,124).
att(5,160).
att(60,135).
att(135,108).
att(3,161).
att(223,85).
att(193,222).
att(145,105).
att(266,286).
att(132,109).
att(284,193).
att(274,75).
att(39,285).
att(299,275).
att(91,123).
att(37,145).
att(83,126).
att(160,234).
att(238,207).
att(159,101).
att(129,110).
att(134,244).
att(269,285).
att(6,301).
att(170,98).
att(142,106).
att(219,86).
att(258,78).
att(280,74).
att(129,246).
att(272,284).
att(78,128).
att(111,116).
att(88,263).
att(35,146).
att(286,73).
att(120,113).
att(292,72).
att(51,139).
att(63,134).
att(174,97).
att(290,278).
att(73,130).
att(86,125).
att(243,81).
att(147,239).
att(264,199).
att(20,153).
att(156,102).
att(107,255).
att(202,90).
att(224,85).
att(215,87).
att(178,96).
att(18,154).
att(42,143).
att(264,77).
att(155,236).
att(281,194).
att(81,127).
att(194,92).
att(16,155).
att(190,93).
att(100,120).
att(142,241).
att(295,190).
att(211,216).
att(31,148).
att(211,88).
att(112,253).
att(14,156).
att(61,135).
att(299,71).
att(76,129).
att(220,86).
att(153,103).
att(70,271).
att(287,73).
att(174,229).
att(40,144).
att(71,131).
att(252,291).
att(254,79).
att(137,243).
att(143,106).
att(239,82).
att(249,80).
att(127,111).
att(109,117).
att(124,112).
att(112,116).
att(203,90).
att(166,232).
att(265,77).
att(118,114).
att(278,195).
att(25,151).
att(183,95).
att(68,272).
att(64,134).
att(227,300).
att(52,139).
att(187,94).
att(288,73).
att(69,132).
att(285,193).
att(145,240).
att(147,105).
att(84,265).
att(44,283).
att(240,82).
att(134,109).
att(250,80).
att(154,103).
att(57,137).
att(43,143).
att(197,221).
att(50,140).
att(144,106).
att(217,87).
att(176,97).
att(236,208).
att(161,234).
att(21,294).
att(75,269).
att(107,118).
att(283,74).
att(55,278).
att(264,287).
att(135,244).
att(41,144).
att(125,112).
att(261,78).
att(158,102).
att(103,257).
att(233,209).
att(13,157).
att(183,226).
att(55,138).
att(196,92).
att(130,246).
att(30,149).
att(282,194).
att(48,141).
att(256,79).
att(300,275).
att(222,86).
att(230,210).
att(296,190).
att(169,99).
att(289,192).
att(80,128).
att(251,80).
att(96,260).
att(138,108).
att(246,81).
att(13,298).
att(227,211).
att(270,285).
att(278,75).
att(209,89).
att(209,217).
att(99,121).
att(267,77).
att(162,101).
att(108,255).
att(65,134).
att(173,98).
att(273,284).
att(284,74).
att(143,241).
att(145,106).
att(83,127).
att(132,110).
att(175,229).
att(201,91).
att(105,119).
att(166,100).
att(189,224).
att(36,287).
att(181,96).
att(129,111).
att(80,267).
att(44,143).
att(108,118).
att(22,153).
att(159,102).
att(193,93).
att(142,107).
att(63,135).
att(279,75).
att(123,113).
att(118,251).
att(86,126).
att(117,115).
att(87,264).
att(243,206).
att(192,223).
att(133,245).
att(210,89).
att(178,228).
att(49,281).
att(291,73).
att(56,138).
att(253,291).
att(163,101).
att(219,87).
att(263,78).
att(81,128).
att(240,207).
att(60,276).
att(256,202).
att(100,121).
att(61,136).
att(12,158).
att(258,79).
att(78,268).
att(30,290).
att(146,106).
att(256,290).
att(66,134).
att(198,221).
att(29,150).
att(182,96).
att(266,199).
att(239,296).
att(6,161).
att(2,163).
att(4,162).
att(111,254).
att(47,142).
att(92,124).
att(194,93).
att(106,119).
att(130,111).
att(286,74).
att(283,194).
att(234,209).
att(297,190).
att(141,242).
att(253,203).
att(298,72).
att(27,151).
att(228,300).
att(211,89).
att(45,283).
att(231,210).
att(26,292).
att(115,116).
att(220,87).
att(275,76).
att(52,140).
att(87,126).
att(175,98).
att(263,200).
att(121,250).
att(273,197).
att(67,273).
att(250,204).
att(225,212).
att(210,217).
att(281,75).
att(219,214).
att(216,215).
att(244,82).
att(225,86).
att(57,138).
att(183,96).
att(299,72).
att(83,266).
att(268,286).
att(230,85).
att(294,191).
att(16,297).
att(93,124).
att(295,277).
att(85,127).
att(13,158).
att(235,84).
att(208,90).
att(292,278).
att(48,142).
att(12,299).
att(113,117).
att(248,293).
att(240,83).
att(139,243).
att(122,114).
att(10,300).
att(193,223).
att(119,115).
att(1,164).
att(141,108).
att(234,298).
att(245,82).
att(250,81).
att(294,73).
att(80,129).
att(179,228).
att(28,151).
att(180,97).
att(241,207).
att(277,196).
att(200,92).
att(124,249).
att(65,135).
att(46,143).
att(266,78).
att(70,133).
att(72,271).
att(148,106).
att(24,153).
att(162,102).
att(147,240).
att(91,125).
att(236,84).
att(50,281).
att(35,148).
att(44,144).
att(22,154).
att(272,77).
att(20,155).
att(205,91).
att(112,254).
att(100,259).
att(111,118).
att(126,113).
att(86,127).
att(33,149).
att(18,156).
att(208,218).
att(120,115).
att(185,96).
att(16,157).
att(257,290).
att(232,85).
att(197,93).
att(137,244).
att(117,252).
att(49,142).
att(220,214).
att(262,79).
att(81,129).
att(59,277).
att(223,87).
att(12,159).
att(188,225).
att(290,74).
att(61,137).
att(150,239).
att(295,191).
att(10,160).
att(261,201).
att(76,131).
att(242,83).
att(29,151).
att(66,135).
att(174,99).
att(271,198).
att(2,164).
att(4,163).
att(247,82).
att(77,269).
att(68,273).
att(146,107).
att(84,128).
att(38,147).
att(263,288).
att(178,98).
att(206,91).
att(106,120).
att(44,284).
att(130,112).
att(110,255).
att(233,85).
att(285,75).
att(258,202).
att(127,113).
att(198,93).
att(186,96).
att(194,223).
att(242,207).
att(291,74).
att(215,89).
att(52,141).
att(64,136).
att(121,115).
att(224,87).
att(274,77).
att(21,295).
att(232,299).
att(180,228).
att(75,270).
att(42,285).
att(115,253).
att(296,277).
att(34,149).
att(57,139).
att(280,76).
att(229,86).
att(269,78).
att(50,142).
att(90,126).
att(101,122).
att(137,110).
att(220,88).
att(236,209).
att(200,221).
att(207,91).
att(284,281).
att(32,150).
att(287,280).
att(281,282).
att(286,75).
att(77,131).
att(249,293).
att(147,107).
att(15,158).
att(234,85).
att(89,264).
att(64,275).
att(53,280).
att(11,300).
att(168,101).
att(183,97).
att(235,298).
att(13,159).
att(275,77).
att(216,89).
att(108,256).
att(131,112).
att(239,84).
att(225,87).
att(195,94).
att(7,162).
att(144,108).
att(244,83).
att(254,81).
att(164,234).
att(1,165).
att(28,152).
att(125,114).
att(212,90).
att(221,214).
att(119,116).
att(51,281).
att(230,86).
att(80,268).
att(62,276).
att(151,106).
att(26,153).
att(46,144).
att(176,99).
att(221,88).
att(272,198).
att(70,134).
att(158,104).
att(208,91).
att(189,225).
att(235,85).
att(118,252).
att(24,154).
att(180,98).
att(138,110).
att(151,239).
att(83,129).
att(102,122).
att(148,107).
att(167,233).
att(58,139).
att(169,101).
att(217,89).
att(22,155).
att(226,87).
att(188,96).
att(51,142).
att(105,121).
att(155,105).
att(300,190).
att(145,108).
att(213,90).
att(30,291).
att(293,192).
att(294,74).
att(99,260).
att(49,143).
att(111,255).
att(166,102).
att(181,228).
att(85,266).
att(142,109).
att(92,263).
att(12,160).
att(159,104).
att(141,243).
att(244,295).
att(89,127).
att(26,293).
att(237,209).
att(227,87).
att(2,165).
att(100,123).
att(267,287).
att(185,97).
att(201,221).
att(66,136).
att(170,101).
att(149,107).
att(54,141).
att(189,96).
att(136,245).
att(76,270).
att(193,95).
att(67,274).
att(300,276).
att(184,227).
att(301,73).
att(270,286).
att(104,258).
att(163,103).
att(283,195).
att(84,129).
att(156,105).
att(232,86).
att(43,285).
att(267,79).
att(207,219).
att(106,121).
att(133,112).
att(278,77).
att(59,139).
att(294,278).
att(276,284).
att(291,279).
att(225,213).
att(165,234).
att(74,133).
att(127,114).
att(242,84).
att(284,76).
att(285,281).
att(69,135).
att(109,256).
att(87,128).
att(65,275).
att(54,280).
att(290,75).
att(57,140).
att(190,225).
att(198,94).
att(39,287).
att(114,254).
att(233,86).
att(268,79).
att(90,127).
att(150,107).
att(101,123).
att(301,190).
att(41,147).
att(152,239).
att(270,199).
att(244,207).
att(294,192).
att(72,134).
att(11,161).
att(129,248).
att(72,272).
att(48,144).
att(93,126).
att(134,112).
att(274,78).
att(1,166).
att(5,164).
att(291,75).
att(28,153).
att(220,89).
att(256,291).
att(50,282).
att(107,257).
att(183,98).
att(277,197).
att(228,301).
att(187,97).
att(122,116).
att(33,290).
att(53,142).
att(37,149).
att(79,269).
att(99,124).
att(70,273).
att(151,107).
att(239,85).
att(242,296).
att(31,291).
att(291,193).
att(58,140).
att(83,130).
att(158,105).
att(292,75).
att(91,127).
att(102,123).
att(249,83).
att(185,227).
att(51,143).
att(20,157).
att(229,212).
att(29,292).
att(221,89).
att(274,198).
att(174,231).
att(251,205).
att(231,300).
att(33,151).
att(226,213).
att(46,284).
att(270,79).
att(169,102).
att(223,214).
att(204,93).
att(94,126).
att(220,215).
att(77,270).
att(27,293).
att(16,159).
att(155,106).
att(68,274).
att(200,94).
att(268,287).
att(49,144).
att(166,234).
att(226,88).
att(12,161).
att(97,125).
att(123,116).
att(260,81).
att(98,261).
att(299,74).
att(261,202).
att(245,84).
att(255,82).
att(213,91).
att(110,256).
att(89,128).
att(166,103).
att(271,199).
att(292,279).
att(47,145).
att(54,142).
att(21,296).
att(289,280).
att(66,275).
att(140,244).
att(115,254).
att(288,76).
att(180,229).
att(258,203).
att(251,293).
att(45,146).
att(294,75).
att(15,299).
att(300,74).
att(197,95).
att(52,143).
att(64,138).
att(268,200).
att(125,250).
att(130,248).
att(146,109).
att(256,82).
att(69,136).
att(96,262).
att(130,114).
att(64,276).
att(53,281).
att(87,129).
att(200,222).
att(214,91).
att(73,272).
att(292,193).
att(124,116).
att(232,87).
att(272,79).
att(236,210).
att(178,100).
att(167,103).
att(210,92).
att(160,105).
att(15,160).
att(237,86).
att(275,198).
att(240,297).
att(295,75).
att(41,148).
att(13,161).
att(77,133).
att(230,212).
att(143,243).
att(186,98).
att(171,102).
att(150,108).
att(101,260).
att(9,163).
att(257,82).
att(3,166).
att(260,290).
att(229,301).
att(175,231).
att(215,217).
att(221,215).
att(157,106).
att(282,196).
att(94,263).
att(28,154).
att(284,77).
att(118,253).
att(107,122).
att(189,226).
att(147,109).
att(233,87).
att(289,194).
att(32,291).
att(133,247).
att(262,202).
att(123,251).
att(263,289).
att(110,121).
att(128,249).
att(46,146).
att(167,234).
att(53,143).
att(128,115).
att(296,75).
att(106,258).
att(75,134).
att(159,237).
att(144,110).
att(119,118).
att(246,207).
att(78,270).
att(47,284).
att(183,99).
att(69,274).
att(99,125).
att(243,85).
att(232,300).
att(220,90).
att(229,88).
att(35,151).
att(248,84).
att(191,97).
att(199,95).
att(195,224).
att(111,256).
att(151,108).
att(85,267).
att(272,286).
att(170,233).
att(216,91).
att(296,278).
att(165,104).
att(138,112).
att(286,195).
att(297,75).
att(240,209).
att(293,279).
att(293,193).
att(278,284).
att(76,271).
att(249,294).
att(31,153).
att(281,283).
att(136,246).
att(180,100).
att(12,162).
att(264,81).
att(237,210).
att(201,222).
att(22,296).
att(10,163).
att(208,93).
att(129,115).
att(29,154).
att(114,120).
att(184,99).
att(221,90).
att(230,88).
att(254,83).
att(173,232).
att(117,119).
att(83,268).
att(204,94).
att(252,293).
att(149,241).
att(188,98).
att(76,134).
att(253,205).
att(47,146).
att(41,287).
att(292,76).
att(54,143).
att(90,265).
att(71,136).
att(217,91).
att(109,257).
att(74,272).
att(238,298).
att(14,300).
att(166,104).
att(216,217).
att(297,192).
att(59,141).
att(255,292).
att(263,202).
att(52,144).
att(136,113).
att(190,226).
att(52,282).
att(209,93).
att(21,158).
att(139,245).
att(74,135).
att(222,90).
att(258,291).
att(37,289).
att(34,152).
att(109,122).
att(133,114).
att(185,99).
att(87,130).
att(247,207).
att(119,253).
att(152,240).
att(205,94).
att(241,297).
att(124,251).
att(193,97).
att(127,116).
att(197,96).
att(271,80).
att(160,237).
att(179,230).
att(121,118).
att(62,140).
att(90,129).
att(266,81).
att(301,191).
att(287,195).
att(77,134).
att(11,163).
att(294,193).
att(147,242).
att(67,138).
att(223,90).
att(100,261).
att(199,223).
att(85,131).
att(112,256).
att(267,288).
att(171,103).
att(60,141).
att(93,264).
att(26,156).
att(283,78).
att(202,95).
att(267,201).
att(80,133).
att(190,98).
att(53,144).
att(219,91).
att(65,139).
att(96,127).
att(147,110).
att(75,135).
att(267,81).
att(297,278).
att(24,157).
att(228,89).
att(113,121).
att(232,212).
att(122,252).
att(128,116).
att(174,232).
att(208,220).
att(122,118).
att(278,79).
att(215,92).
att(288,281).
att(99,126).
att(154,108).
att(144,111).
att(58,142).
att(168,104).
att(285,282).
att(250,294).
att(25,295).
att(57,280).
att(233,88).
att(214,218).
att(223,215).
att(274,199).
att(158,238).
att(236,299).
att(33,153).
att(183,100).
att(273,80).
att(207,94).
att(16,161).
att(172,103).
att(191,226).
att(248,207).
att(66,276).
att(56,143).
att(220,91).
att(86,131).
att(281,197).
att(135,114).
att(279,79).
att(115,255).
att(40,150).
att(248,85).
att(6,166).
att(288,195).
att(295,193).
att(114,121).
att(129,116).
att(234,88).
att(180,230).
att(13,301).
att(180,101).
att(76,135).
att(225,90).
att(120,119).
att(38,151).
att(212,93).
att(64,277).
att(197,224).
att(100,126).
att(108,258).
att(221,91).
att(92,129).
att(268,201).
att(52,145).
att(196,97).
att(249,85).
att(262,290).
att(139,113).
att(64,140).
att(254,84).
att(285,196).
att(69,138).
att(74,136).
att(80,270).
att(143,244).
att(299,192).
att(43,149).
att(101,261).
att(87,131).
att(206,221).
att(57,143).
att(186,228).
att(50,146).
att(209,220).
att(94,264).
att(156,108).
att(175,232).
att(265,202).
att(252,206).
att(275,199).
att(212,219).
att(82,133).
att(163,106).
att(13,163).
att(62,141).
att(209,94).
att(215,218).
att(123,252).
att(11,164).
att(265,82).
att(231,89).
att(205,95).
att(67,139).
att(106,259).
att(174,103).
att(48,147).
att(255,84).
att(197,97).
att(78,271).
att(248,295).
att(295,279).
att(85,132).
att(262,203).
att(28,294).
att(140,113).
att(93,129).
att(192,226).
att(286,282).
att(99,262).
att(293,77).
att(146,243).
att(85,268).
att(150,110).
att(111,257).
att(246,208).
att(45,286).
att(137,114).
att(299,76).
att(92,265).
att(80,134).
att(53,145).
att(65,140).
att(96,128).
att(134,115).
att(266,82).
att(210,94).
att(88,131).
att(237,299).
att(223,91).
att(22,159).
att(164,106).
att(261,83).
att(113,122).
att(131,116).
att(147,111).
att(251,85).
att(206,95).
att(116,121).
att(279,198).
att(136,247).
att(198,97).
att(175,103).
att(219,92).
att(42,150).
att(102,126).
att(228,90).
att(184,229).
att(68,139).
att(240,298).
att(293,194).
att(90,266).
att(257,292).
att(173,233).
att(65,277).
att(204,222).
att(54,282).
att(12,164).
att(267,82).
att(74,273).
att(10,165).
att(86,132).
att(247,86).
att(40,151).
att(6,167).
att(207,221).
att(276,199).
att(257,84).
att(266,202).
att(108,124).
att(260,291).
att(187,228).
att(253,206).
att(278,80).
att(210,220).
att(135,115).
att(207,95).
att(111,123).
att(295,77).
att(203,96).
att(47,148).
att(97,128).
att(148,111).
att(66,140).
att(216,218).
att(222,216).
att(81,270).
att(38,152).
att(76,136).
att(219,217).
att(89,131).
att(63,278).
att(176,103).
att(220,92).
att(263,290).
att(139,246).
att(250,207).
att(88,267).
att(100,127).
att(243,87).
att(297,193).
att(124,252).
att(129,250).
att(142,113).
att(21,160).
att(212,94).
att(61,279).
att(152,110).
att(296,77).
att(79,271).
att(147,243).
att(95,129).
att(274,81).
att(280,198).
att(196,225).
att(70,275).
att(166,106).
att(196,98).
att(100,262).
att(15,163).
att(278,285).
att(177,103).
att(171,234).
att(133,116).
att(93,265).
att(142,245).
att(241,210).
att(98,128).
att(30,156).
att(115,122).
att(130,117).
att(9,166).
att(249,86).
att(127,118).
att(7,167).
att(170,105).
att(121,120).
att(259,84).
att(72,138).
att(202,223).
att(235,89).
att(238,211).
att(143,113).
att(235,212).
att(267,202).
att(60,143).
att(174,104).
att(254,206).
att(255,293).
att(222,92).
att(23,297).
att(98,263).
att(270,82).
att(80,135).
att(167,106).
att(229,214).
att(211,220).
att(65,141).
att(245,87).
att(188,228).
att(284,197).
att(110,258).
att(265,83).
att(96,129).
att(220,217).
att(35,154).
att(88,132).
att(298,77).
att(251,207).
att(134,116).
att(258,292).
att(20,161).
att(236,89).
att(17,300).
att(99,128).
att(276,81).
att(33,155).
att(122,120).
att(241,88).
att(14,164).
att(190,100).
att(102,127).
att(31,156).
att(73,138).
att(53,283).
att(293,78).
att(154,110).
att(246,87).
att(180,231).
att(125,252).
att(130,250).
att(264,290).
att(89,267).
att(282,80).
att(168,106).
att(40,152).
att(141,114).
att(179,103).
att(108,259).
att(197,225).
att(36,291).
att(151,111).
att(51,284).
att(277,81).
att(258,205).
att(66,141).
att(172,234).
att(200,224).
att(97,129).
att(111,124).
att(135,116).
att(172,105).
att(270,288).
att(300,278).
att(114,123).
att(132,117).
att(156,240).
att(165,107).
att(164,237).
att(143,245).
att(71,275).
att(117,122).
att(129,118).
att(126,119).
att(300,77).
att(123,120).
att(283,80).
att(49,285).
att(236,212).
att(176,104).
att(203,97).
att(252,86).
att(255,206).
att(206,222).
att(118,255).
att(138,247).
att(21,161).
att(282,284).
att(285,283).
att(103,127).
att(34,155).
att(79,136).
att(123,253).
att(238,89).
att(278,81).
att(128,251).
att(43,151).
att(299,193).
att(151,242).
att(78,272).
att(189,228).
att(32,156).
att(50,148).
att(95,130).
att(15,164).
att(139,115).
att(253,294).
att(159,239).
att(173,105).
att(109,125).
att(301,77).
att(212,95).
att(11,166).
att(85,269).
att(188,101).
att(82,135).
att(9,167).
att(111,258).
att(192,227).
att(98,129).
att(149,112).
att(208,96).
att(133,117).
att(258,85).
att(55,146).
att(282,198).
att(76,273).
att(146,113).
att(156,110).
att(246,209).
att(195,226).
att(56,282).
att(26,159).
att(163,108).
att(136,248).
att(37,154).
att(242,298).
att(53,147).
att(24,160).
att(131,250).
att(126,252).
att(83,270).
att(18,300).
att(269,83).
att(80,136).
att(262,291).
att(16,301).
att(70,140).
att(107,126).
att(140,115).
att(235,90).
att(54,283).
att(279,199).
att(96,130).
att(240,211).
att(44,151).
att(160,109).
att(269,202).
att(173,234).
att(110,125).
att(137,116).
att(39,290).
att(197,99).
att(18,163).
att(237,212).
att(204,223).
att(134,117).
att(99,129).
att(165,237).
att(207,222).
att(119,122).
att(14,165).
att(125,120).
att(293,195).
att(37,291).
att(78,137).
att(31,157).
att(63,279).
att(12,166).
att(231,214).
att(164,108).
att(102,128).
att(10,167).
att(301,278).
att(228,215).
att(8,168).
att(139,247).
att(248,296).
att(144,114).
att(186,102).
att(214,95).
att(260,85).
att(29,158).
att(227,92).
att(222,217).
att(154,111).
att(134,249).
att(50,285).
att(152,242).
att(175,105).
att(298,78).
att(292,281).
att(27,159).
att(194,100).
att(250,208).
att(289,282).
att(54,147).
att(108,126).
att(202,98).
att(283,284).
att(160,239).
att(276,82).
att(263,204).
att(111,125).
att(89,133).
att(237,300).
att(36,155).
att(247,209).
att(132,118).
att(266,84).
att(183,103).
att(117,123).
att(254,294).
att(126,120).
att(29,295).
att(123,121).
att(59,281).
att(64,143).
att(260,205).
att(182,231).
att(103,128).
att(145,114).
att(211,96).
att(280,199).
att(191,101).
att(74,139).
att(17,164).
att(242,89).
att(277,82).
att(240,299).
att(77,273).
att(195,100).
att(257,293).
att(224,93).
att(50,149).
att(106,127).
att(247,88).
att(272,83).
att(257,206).
att(11,167).
att(23,298).
att(7,169).
att(1,172).
att(257,86).
att(262,85).
att(48,150).
att(184,103).
att(159,110).
att(277,200).
att(267,203).
att(263,291).
att(149,113).
att(243,89).
att(226,216).
att(192,101).
att(46,151).
att(223,217).
att(177,233).
att(115,257).
att(24,161).
att(284,198).
att(103,262).
att(295,79).
att(253,87).
att(53,284).
att(264,204).
att(269,289).
att(221,94).
att(96,265).
att(274,201).
att(107,127).
att(239,90).
att(130,251).
att(96,131).
att(88,134).
att(272,288).
att(230,92).
att(194,227).
att(248,209).
att(180,232).
att(299,279).
att(174,106).
att(296,280).
att(63,144).
att(167,108).
att(189,102).
att(150,113).
att(14,166).
att(31,158).
att(281,199).
att(209,97).
att(91,133).
att(78,138).
att(34,293).
att(56,147).
att(73,140).
att(197,100).
att(172,235).
att(285,81).
att(254,87).
att(113,258).
att(101,263).
att(6,170).
att(264,85).
att(242,211).
att(40,154).
att(29,159).
att(49,286).
att(288,197).
att(171,107).
att(164,109).
att(94,132).
att(60,281).
att(186,230).
att(30,295).
att(66,143).
att(186,103).
att(297,79).
att(214,96).
att(69,277).
att(28,296).
att(161,110).
att(227,93).
att(23,162).
att(168,108).
att(138,117).
att(236,91).
att(286,81).
att(45,152).
att(59,146).
att(258,293).
att(206,98).
att(260,86).
att(202,99).
att(52,149).
att(21,163).
att(159,240).
att(45,288).
att(218,219).
att(132,119).
att(92,267).
att(129,120).
att(146,245).
att(299,194).
att(126,121).
att(92,133).
att(158,111).
att(79,138).
att(165,109).
att(74,140).
att(103,129).
att(22,299).
att(32,158).
att(15,166).
att(145,115).
att(13,167).
att(249,209).
att(141,247).
att(264,291).
att(87,135).
att(287,81).
att(106,128).
att(154,242).
att(170,236).
att(30,159).
att(176,106).
att(195,227).
att(7,170).
att(121,255).
att(191,102).
att(142,116).
att(181,232).
att(282,199).
att(83,271).
att(126,253).
att(246,210).
att(131,251).
att(207,98).
att(247,297).
att(54,284).
att(65,279).
att(272,202).
att(98,131).
att(77,139).
att(180,105).
att(242,90).
att(90,134).
att(270,289).
att(289,197).
att(26,161).
att(277,83).
att(300,279).
att(184,231).
att(118,124).
att(159,111).
att(149,114).
att(127,121).
att(24,162).
att(297,280).
att(272,84).
att(157,241).
att(165,238).
att(81,272).
att(63,280).
att(144,246).
att(229,93).
att(291,282).
att(80,138).
att(104,129).
att(269,203).
att(35,157).
att(70,142).
att(177,106).
att(156,112).
att(212,97).
att(35,293).
att(58,147).
att(143,116).
att(88,135).
att(170,108).
att(243,90).
att(176,234).
att(225,94).
att(300,79).
att(253,295).
att(134,250).
att(234,92).
att(228,216).
att(216,220).
att(61,281).
att(63,145).
att(14,167).
att(248,89).
att(253,208).
att(190,229).
att(266,204).
att(31,159).
att(137,118).
att(160,240).
att(185,104).
att(78,139).
att(48,287).
att(167,109).
att(40,155).
att(119,124).
att(131,120).
att(230,93).
att(128,121).
att(284,82).
att(213,97).
att(259,293).
att(178,106).
att(283,199).
att(242,299).
att(47,152).
att(209,98).
att(197,101).
att(105,129).
att(196,227).
att(235,92).
att(144,116).
att(68,278).
att(262,292).
att(108,128).
att(254,88).
att(122,255).
att(199,226).
att(285,82).
att(265,291).
att(241,212).
att(280,200).
att(98,265).
att(84,137).
att(151,114).
att(91,268).
att(270,203).
att(43,154).
att(268,290).
att(132,120).
att(245,90).
att(19,301).
att(194,102).
att(69,143).
att(129,121).
att(205,224).
att(291,81).
att(126,122).
att(32,159).
att(74,141).
att(15,167).
att(57,148).
att(287,198).
att(103,130).
att(158,112).
att(250,89).
att(208,223).
att(235,214).
att(145,246).
att(40,291).
att(301,194).
att(270,85).
att(297,80).
att(274,288).
att(211,222).
att(183,105).
att(95,133).
att(223,95).
att(106,129).
att(145,116).
att(265,86).
att(298,280).
att(103,263).
att(267,204).
att(229,216).
att(277,287).
att(241,91).
att(277,201).
att(226,217).
att(64,280).
att(280,286).
att(155,113).
att(28,161).
att(220,219).
att(292,282).
att(55,149).
att(120,256).
att(39,156).
att(67,144).
att(187,104).
att(142,117).
att(286,284).
att(176,107).
att(89,269).
att(72,142).
att(281,83).
att(98,132).
att(153,243).
att(246,90).
att(215,97).
att(36,293).
att(152,114).
att(284,199).
att(228,94).
att(37,157).
att(51,286).
att(46,153).
att(108,261).
att(237,92).
att(251,89).
att(180,106).
att(53,150).
att(133,120).
att(298,80).
att(271,85).
att(256,88).
att(266,86).
att(35,158).
att(224,95).
att(20,165).
att(184,105).
att(70,143).
att(101,264).
att(113,259).
att(233,93).
att(58,148).
att(18,166).
att(282,83).
att(183,232).
att(245,211).
att(51,151).
att(293,81).
att(96,133).
att(247,90).
att(60,282).
att(118,257).
att(277,84).
att(106,262).
att(288,82).
att(68,144).
att(186,231).
att(56,149).
att(267,86).
att(4,173).
att(29,161).
att(40,156).
att(151,244).
att(295,196).
att(116,126).
att(225,95).
att(58,283).
att(119,125).
att(160,112).
att(131,121).
att(283,83).
att(102,131).
att(27,162).
att(122,124).
att(234,93).
att(128,122).
att(185,105).
att(268,204).
att(278,201).
att(159,241).
att(189,230).
att(111,260).
att(24,299).
att(221,96).
att(212,222).
att(54,150).
att(230,216).
att(146,246).
att(67,279).
att(218,220).
att(178,234).
att(269,290).
att(157,113).
att(23,164).
att(289,82).
att(213,98).
att(263,87).
att(164,111).
att(171,109).
att(21,165).
att(104,263).
att(205,100).
att(249,297).
att(275,288).
att(226,95).
att(19,166).
att(295,81).
att(235,93).
att(17,167).
att(100,132).
att(74,276).
att(284,285).
att(186,105).
att(161,112).
att(117,126).
att(249,90).
att(287,284).
att(151,115).
att(50,152).
att(168,110).
att(126,123).
att(41,156).
att(238,301).
att(240,92).
att(52,286).
att(5,173).
att(148,116).
att(194,103).
att(243,212).
att(201,226).
att(106,130).
att(255,295).
att(289,198).
att(285,83).
att(202,101).
att(39,157).
att(245,91).
att(227,95).
att(26,163).
att(98,133).
att(280,84).
att(119,257).
att(258,294).
att(37,158).
att(24,164).
att(291,82).
att(255,89).
att(256,208).
att(210,223).
att(115,127).
att(22,165).
att(85,138).
att(169,110).
att(219,97).
att(232,94).
att(70,278).
att(286,83).
att(80,140).
att(222,219).
att(104,131).
att(18,167).
att(58,149).
att(29,297).
att(59,283).
att(179,234).
att(93,268).
att(16,168).
att(46,289).
att(193,229).
att(107,130).
att(250,210).
att(271,86).
att(247,298).
att(261,88).
att(155,243).
att(4,174).
att(171,237).
att(68,145).
att(44,290).
att(78,141).
att(298,81).
att(40,157).
att(182,233).
att(105,263).
att(122,256).
att(247,211).
att(192,104).
att(216,98).
att(273,203).
att(98,266).
att(300,280).
att(282,84).
att(229,95).
att(86,138).
att(244,212).
att(54,151).
att(150,245).
att(66,280).
att(125,124).
att(238,93).
att(150,116).
att(94,135).
att(160,113).
att(75,276).
att(294,282).
att(23,165).
att(76,142).
att(262,88).
att(253,296).
att(145,247).
att(238,214).
att(234,94).
att(157,114).
att(115,259).
att(257,208).
att(188,231).
att(103,264).
att(82,273).
att(34,160).
att(178,108).
att(17,168).
att(164,112).
att(140,249).
att(177,235).
att(96,267).
att(153,244).
att(217,221).
att(50,153).
att(125,255).
att(191,230).
att(11,171).
att(267,205).
att(135,121).
att(258,89).
att(108,262).
att(30,162).
att(7,173).
att(151,116).
att(123,125).
att(62,282).
att(129,123).
att(126,124).
att(34,295).
att(62,148).
att(168,111).
att(80,274).
att(48,154).
att(71,278).
att(39,158).
att(72,144).
att(197,228).
att(231,95).
att(279,85).
att(98,134).
att(24,165).
att(214,99).
att(254,90).
att(30,297).
att(118,258).
att(210,100).
att(142,119).
att(200,227).
att(28,298).
att(123,256).
att(35,160).
att(227,96).
att(106,263).
att(128,254).
att(162,113).
att(203,226).
att(70,145).
att(187,106).
att(248,298).
att(186,232).
att(18,168).
att(285,84).
att(169,111).
att(223,97).
att(151,245).
att(130,123).
att(175,236).
att(99,266).
att(239,214).
att(14,170).
att(149,117).
att(111,261).
att(159,242).
att(195,104).
att(251,297).
att(291,83).
att(260,89).
att(146,118).
att(270,87).
att(212,223).
att(83,140).
att(211,100).
att(265,88).
att(68,146).
att(29,163).
att(40,158).
att(110,130).
att(215,222).
att(255,209).
att(228,96).
att(227,218).
att(99,134).
att(156,115).
att(221,220).
att(91,137).
att(141,249).
att(27,164).
att(192,230).
att(65,281).
att(90,270).
att(137,121).
att(220,98).
att(181,234).
att(94,136).
att(195,229).
att(292,83).
att(109,262).
att(271,87).
att(45,156).
att(292,198).
att(275,203).
att(249,211).
att(52,287).
att(52,153).
att(208,101).
att(198,228).
att(174,110).
att(89,138).
att(167,112).
att(229,96).
att(247,92).
att(114,260).
att(184,233).
att(17,169).
att(84,140).
att(144,119).
att(165,240).
att(50,288).
att(243,213).
att(100,134).
att(263,293).
att(79,142).
att(139,250).
att(41,158).
att(262,89).
att(5,175).
att(187,232).
att(193,105).
att(117,128).
att(138,121).
att(289,199).
att(107,263).
att(135,122).
att(79,275).
att(182,108).
att(132,123).
att(299,82).
att(48,155).
att(205,102).
att(269,291).
att(168,239).
att(26,165).
att(106,132).
att(160,242).
att(190,231).
att(213,223).
att(231,217).
att(186,107).
att(72,145).
att(147,247).
att(219,221).
att(249,298).
att(222,220).
att(179,235).
att(98,135).
att(158,115).
att(258,90).
att(299,281).
att(253,210).
att(77,276).
att(268,88).
att(235,95).
att(179,109).
att(222,98).
att(35,161).
att(165,113).
att(44,291).
att(296,282).
att(266,206).
att(65,148).
att(172,111).
att(105,264).
att(101,134).
att(276,203).
att(139,121).
att(80,142).
att(93,137).
att(214,100).
att(250,211).
att(196,229).
att(182,234).
att(84,273).
att(163,241).
att(136,122).
att(206,102).
att(98,267).
att(91,270).
att(130,124).
att(295,83).
att(66,281).
att(247,212).
att(187,107).
att(255,296).
att(10,173).
att(150,246).
att(110,262).
att(283,201).
att(4,176).
att(269,88).
att(174,237).
att(56,152).
att(191,106).
att(290,84).
att(202,227).
att(241,301).
att(78,143).
att(146,119).
att(115,260).
att(27,165).
att(99,135).
att(166,113).
att(250,92).
att(64,282).
att(241,214).
att(205,226).
att(38,160).
att(61,150).
att(215,100).
att(188,232).
att(203,103).
att(120,258).
att(208,225).
att(238,215).
att(261,294).
att(280,86).
att(86,140).
att(270,205).
att(36,295).
att(135,252).
att(235,216).
att(211,224).
att(94,137).
att(130,254).
att(81,142).
att(122,127).
att(45,157).
att(71,146).
att(108,263).
att(131,124).
att(291,84).
att(128,125).
att(237,95).
att(226,219).
att(161,242).
att(80,275).
att(192,106).
att(254,210).
att(71,279).
att(17,170).
att(160,115).
att(267,292).
att(247,299).
att(43,158).
att(32,297).
att(101,266).
att(15,171).
att(147,119).
att(174,111).
att(281,86).
att(60,284).
att(111,131).
att(50,155).
att(212,101).
att(276,87).
att(5,176).
att(266,89).
att(271,88).
att(118,259).
att(273,290).
att(229,97).
att(197,229).
att(292,84).
att(250,298).
att(78,276).
att(117,129).
att(189,107).
att(138,122).
att(39,160).
att(171,112).
att(225,98).
att(297,282).
att(200,228).
att(26,300).
att(135,123).
att(45,291).
att(288,285).
att(193,106).
att(151,246).
att(298,197).
att(106,133).
att(151,118).
att(182,109).
att(234,96).
att(37,161).
att(197,105).
att(257,91).
att(24,167).
att(217,100).
att(242,214).
att(277,87).
att(60,151).
att(201,104).
att(76,277).
att(90,139).
att(168,113).
att(98,136).
att(206,226).
att(281,202).
att(167,240).
att(35,162).
att(189,232).
att(85,141).
att(236,216).
att(18,170).
att(212,224).
att(299,83).
att(83,274).
att(115,130).
att(141,250).
att(288,200).
att(58,152).
att(165,114).
att(253,92).
att(75,145).
att(54,287).
att(259,295).
att(172,112).
att(155,117).
att(230,218).
att(97,268).
att(90,271).
att(194,106).
att(227,219).
att(224,220).
att(295,198).
att(192,231).
att(136,252).
att(39,294).
att(31,164).
att(104,134).
att(131,254).
att(124,127).
att(170,239).
att(198,105).
att(294,84).
att(6,176).
att(273,88).
att(162,242).
att(262,294).
att(49,156).
att(52,288).
att(181,235).
att(68,148).
att(83,142).
att(169,113).
att(249,93).
att(245,300).
att(149,119).
att(289,85).
att(149,247).
att(73,146).
att(81,275).
att(91,139).
att(102,266).
att(114,261).
att(72,279).
att(38,161).
att(227,98).
att(47,157).
att(61,151).
att(249,212).
att(88,272).
att(180,110).
att(113,131).
att(95,269).
att(259,91).
att(279,87).
att(23,168).
att(86,141).
att(236,96).
att(33,297).
att(195,106).
att(66,149).
att(116,130).
att(219,100).
att(21,169).
att(81,143).
att(184,109).
att(137,123).
att(48,290).
att(134,253).
att(59,152).
att(203,104).
att(204,227).
att(134,124).
att(207,103).
att(70,280).
att(301,83).
att(131,125).
att(187,233).
att(301,281).
att(152,246).
att(17,171).
att(298,282).
att(89,140).
att(170,113).
att(43,159).
att(259,209).
att(280,288).
att(295,283).
att(100,267).
att(150,119).
att(160,243).
att(84,142).
att(296,84).
att(190,232).
att(192,107).
att(9,175).
att(234,217).
att(213,224).
att(7,176).
att(181,110).
att(111,132).
att(1,179).
att(3,178).
att(270,89).
att(68,281).
att(231,218).
att(216,223).
att(92,139).
att(77,277).
att(228,219).
att(62,151).
att(142,250).
att(216,101).
att(185,109).
att(233,97).
att(212,102).
att(208,103).
att(103,135).
att(122,258).
att(257,296).
att(137,252).
att(123,128).
att(132,254).
att(82,143).
att(178,111).
att(163,242).
att(126,127).
att(72,147).
att(229,98).
att(281,87).
att(46,158).
att(106,134).
att(22,169).
att(151,119).
att(53,155).
att(193,107).
att(90,140).
att(20,170).
att(65,150).
att(148,120).
att(221,100).
att(18,171).
att(252,93).
att(263,208).
att(175,112).
att(112,132).
att(201,105).
att(64,283).
att(158,244).
att(145,249).
att(205,104).
att(246,300).
att(14,173).
att(257,92).
att(115,131).
att(89,272).
att(96,269).
att(12,174).
att(36,296).
att(262,91).
att(140,251).
att(8,176).
att(277,88).
att(139,123).
att(190,108).
att(267,90).
att(136,124).
att(208,226).
att(135,253).
att(49,157).
att(124,128).
att(239,96).
att(130,255).
att(62,284).
att(272,291).
att(235,217).
att(73,147).
att(78,145).
att(270,206).
att(71,280).
att(38,162).
att(25,168).
att(91,140).
att(110,133).
att(169,114).
att(229,219).
att(299,84).
att(226,220).
att(278,289).
att(299,282).
att(87,273).
att(113,262).
att(210,103).
att(54,155).
att(252,298).
att(94,270).
att(30,299).
att(113,132).
att(146,121).
att(254,211).
att(231,98).
att(268,90).
att(47,291).
att(21,170).
att(102,136).
att(267,207).
att(78,277).
att(81,144).
att(180,111).
att(94,139).
att(69,281).
att(172,239).
att(227,99).
att(119,130).
att(138,252).
att(164,242).
att(58,286).
att(137,124).
att(133,254).
att(43,160).
att(248,213).
att(203,105).
att(108,134).
att(207,104).
att(264,91).
att(211,103).
att(170,114).
att(111,263).
att(150,120).
att(186,234).
att(76,278).
att(56,287).
att(79,145).
att(188,109).
att(203,228).
att(250,94).
att(159,244).
att(146,249).
att(41,294).
att(206,227).
att(48,158).
att(116,261).
att(290,86).
att(55,155).
att(144,122).
att(174,113).
att(54,288).
att(141,123).
att(141,251).
att(178,237).
att(95,139).
att(246,95).
att(258,210).
att(46,159).
att(77,146).
att(136,253).
att(126,257).
att(265,91).
att(154,246).
att(135,125).
att(215,224).
att(126,128).
att(22,170).
att(60,153).
att(106,135).
att(154,119).
att(192,232).
att(230,219).
att(218,223).
att(109,264).
att(35,164).
att(178,112).
att(20,171).
att(162,243).
att(63,284).
att(44,160).
att(151,120).
att(295,199).
att(161,117).
att(72,280).
att(58,154).
att(114,262).
att(14,174).
att(182,111).
att(12,175).
att(93,140).
att(95,270).
att(31,166).
att(247,95).
att(10,176).
att(115,132).
att(276,89).
att(157,245).
att(61,285).
att(184,235).
att(119,260).
att(201,106).
att(282,288).
att(118,131).
att(142,123).
att(186,110).
att(285,202).
att(288,286).
att(217,102).
att(205,105).
att(31,299).
att(139,252).
att(48,291).
att(209,104).
att(234,98).
att(96,139).
att(275,205).
att(27,168).
att(179,112).
att(127,128).
att(243,96).
att(73,148).
att(78,146).
att(257,93).
att(204,228).
att(187,234).
att(299,198).
att(152,247).
att(256,297).
att(25,169).
att(152,120).
att(46,292).
att(243,215).
att(194,108).
att(99,138).
att(110,134).
att(298,85).
att(277,89).
att(272,206).
att(68,282).
att(21,171).
att(147,249).
att(259,296).
att(190,233).
att(159,118).
att(81,145).
att(19,172).
att(34,165).
att(187,110).
att(59,154).
att(76,147).
att(116,132).
att(117,261).
att(52,157).
att(105,266).
att(289,201).
att(219,223).
att(15,174).
att(105,136).
att(296,199).
att(13,175).
att(64,152).
att(173,114).
att(66,283).
att(279,204).
att(11,176).
att(163,243).
att(249,95).
att(278,89).
att(240,97).
att(41,162).
att(153,120).
att(40,295).
att(184,111).
att(199,107).
att(248,300).
att(92,141).
att(266,208).
att(219,102).
att(62,153).
att(38,296).
att(199,230).
att(26,169).
att(289,87).
att(174,239).
att(103,267).
att(293,200).
att(103,137).
att(24,170).
att(89,273).
att(166,242).
att(96,270).
att(36,297).
att(247,214).
att(264,92).
att(46,160).
att(192,109).
att(120,260).
att(279,89).
att(141,124).
att(250,95).
att(274,90).
att(277,290).
att(140,252).
att(228,100).
att(298,283).
att(205,228).
att(106,136).
att(20,172).
att(196,108).
att(126,129).
att(188,234).
att(130,256).
att(132,127).
att(283,203).
att(283,288).
att(177,238).
att(289,286).
att(18,173).
att(65,152).
att(71,281).
att(237,98).
att(220,102).
att(290,87).
att(246,96).
att(171,115).
att(238,217).
att(51,158).
att(216,103).
att(70,150).
att(290,201).
att(212,104).
att(87,274).
att(301,85).
att(12,176).
att(75,148).
att(235,218).
att(214,225).
att(113,263).
att(31,167).
att(93,141).
att(8,178).
att(148,122).
att(232,219).
att(275,90).
att(115,133).
att(28,301).
att(168,116).
att(229,100).
att(56,156).
att(88,143).
att(142,124).
att(58,287).
att(260,296).
att(123,259).
att(238,98).
att(201,107).
att(127,129).
att(133,127).
att(155,120).
att(247,96).
att(85,275).
att(286,88).
att(92,272).
att(277,205).
att(99,139).
att(234,99).
att(151,248).
att(21,172).
att(45,161).
att(266,294).
att(86,144).
att(175,239).
att(113,134).
att(52,158).
att(146,250).
att(176,114).
att(83,276).
att(159,119).
att(65,284).
att(206,228).
att(32,167).
att(143,124).
att(141,252).
att(105,137).
att(242,216).
att(187,111).
att(122,131).
att(140,125).
att(9,178).
att(218,103).
att(50,159).
att(178,238).
att(30,168).
att(57,156).
att(125,130).
att(137,126).
att(1,182).
att(134,127).
att(131,128).
att(235,99).
att(180,113).
att(37,297).
att(74,149).
att(244,97).
att(215,225).
att(271,207).
att(153,121).
att(281,289).
att(162,244).
att(296,284).
att(218,224).
att(48,160).
att(111,135).
att(184,112).
att(150,122).
att(288,88).
att(114,263).
att(263,93).
att(114,134).
att(255,298).
att(240,98).
att(95,271).
att(283,89).
att(103,138).
att(160,119).
att(223,102).
att(268,92).
att(61,286).
att(22,172).
att(299,86).
att(77,148).
att(207,106).
att(157,246).
att(31,300).
att(211,105).
att(48,292).
att(35,166).
att(106,137).
att(139,253).
att(124,259).
att(181,113).
att(294,87).
att(126,130).
att(135,127).
att(132,128).
att(33,167).
att(16,175).
att(259,94).
att(265,209).
att(154,121).
att(86,275).
att(261,296).
att(58,156).
att(100,269).
att(196,109).
att(42,163).
att(228,101).
att(80,147).
att(176,239).
att(112,135).
att(279,90).
att(178,114).
att(68,283).
att(77,279).
att(160,245).
att(63,154).
att(57,288).
att(220,103).
att(299,199).
att(247,301).
att(295,87).
att(117,262).
att(88,144).
att(190,234).
att(27,170).
att(246,97).
att(118,133).
att(168,117).
att(260,94).
att(282,204).
att(182,113).
att(290,88).
att(259,211).
att(66,284).
att(139,126).
att(216,225).
att(55,289).
att(137,254).
att(91,273).
att(136,127).
att(231,220).
att(133,128).
att(130,129).
att(229,101).
att(228,221).
att(280,90).
att(225,222).
att(275,91).
att(289,202).
att(201,108).
att(110,136).
att(182,237).
att(19,174).
att(296,87).
att(296,200).
att(53,290).
att(238,99).
att(38,297).
att(300,283).
att(64,285).
att(17,175).
att(81,147).
att(247,97).
att(190,111).
att(253,299).
att(102,139).
att(297,284).
att(149,123).
att(115,263).
att(294,285).
att(291,286).
att(234,100).
att(199,231).
att(89,274).
att(96,271).
att(185,236).
att(266,209).
att(169,117).
att(105,138).
att(252,96).
att(281,90).
att(166,243).
att(5,181).
att(30,169).
att(3,182).
att(256,298).
att(243,98).
att(276,91).
att(122,132).
att(202,230).
att(97,141).
att(69,152).
att(140,126).
att(137,127).
att(135,255).
att(134,128).
att(293,201).
att(71,282).
att(205,229).
att(259,297).
att(206,107).
att(177,239).
att(26,171).
att(248,97).
att(173,116).
att(100,140).
att(214,105).
att(262,94).
att(153,122).
att(87,275).
att(60,287).
att(283,204).
att(273,207).
att(282,90).
att(214,226).
att(95,142).
att(78,279).
att(69,283).
att(235,219).
att(20,174).
att(160,120).
att(45,294).
att(227,102).
att(106,267).
att(156,247).
att(297,200).
att(240,99).
att(293,88).
att(223,103).
att(249,97).
att(248,301).
att(157,121).
att(98,141).
att(132,129).
att(211,106).
att(85,146).
att(92,273).
att(43,295).
att(109,137).
att(42,164).
att(174,116).
att(31,169).
att(10,179).
att(183,237).
att(254,213).
att(6,181).
att(112,136).
att(164,119).
att(63,155).
att(41,296).
att(40,165).
att(232,101).
att(151,123).
att(277,206).
att(171,117).
att(259,95).
att(68,153).
att(148,124).
att(280,290).
att(161,120).
att(248,215).
att(25,172).
att(289,89).
att(189,112).
att(97,271).
att(121,133).
att(141,253).
att(23,173).
att(216,105).
att(212,106).
att(245,216).
att(36,167).
att(237,100).
att(182,114).
att(127,131).
att(175,116).
att(274,207).
att(45,163).
att(242,217).
att(109,266).
att(246,98).
att(63,286).
att(19,175).
att(155,122).
att(233,101).
att(212,227).
att(239,218).
att(17,176).
att(197,110).
att(170,242).
att(291,202).
att(192,234).
att(72,282).
att(102,269).
att(152,123).
att(32,169).
att(149,250).
att(233,220).
att(88,275).
att(33,300).
att(251,97).
att(181,238).
att(225,103).
att(270,93).
att(190,112).
att(3,183).
att(195,233).
att(41,165).
att(89,145).
att(144,252).
att(119,134).
att(256,96).
att(255,213).
att(70,283).
att(84,147).
att(74,151).
att(139,254).
att(165,244).
att(125,132).
att(140,127).
att(296,88).
att(184,237).
att(268,209).
att(129,258).
att(261,95).
att(266,295).
att(137,128).
att(134,129).
att(86,276).
att(156,122).
att(291,89).
att(100,141).
att(230,102).
att(266,94).
att(24,173).
att(93,273).
att(111,137).
att(269,294).
att(249,301).
att(226,103).
att(249,215).
att(87,146).
att(180,115).
att(265,210).
att(77,280).
att(44,295).
att(114,136).
att(272,293).
att(204,230).
att(210,107).
att(53,160).
att(239,100).
att(150,124).
att(18,176).
att(42,296).
att(170,118).
att(252,300).
att(278,291).
att(243,217).
att(65,155).
att(106,139).
att(292,89).
att(122,261).
att(210,228).
att(292,202).
att(51,161).
att(123,133).
att(98,271).
att(281,290).
att(12,179).
att(267,94).
att(10,180).
att(70,153).
att(126,132).
att(244,99).
att(155,248).
att(299,200).
att(138,128).
att(8,181).
att(287,288).
att(129,131).
att(132,130).
att(109,138).
att(4,183).
att(75,151).
att(188,113).
att(167,119).
att(203,109).
att(110,266).
att(29,171).
att(222,224).
att(49,162).
att(223,104).
att(228,222).
att(240,100).
att(112,137).
att(219,105).
att(215,106).
att(182,238).
att(27,172).
att(249,98).
att(289,203).
att(89,275).
att(73,152).
att(268,94).
att(96,143).
att(171,118).
att(174,241).
att(158,247).
att(245,99).
att(34,300).
att(185,237).
att(121,134).
att(107,139).
att(124,133).
att(45,164).
att(80,279).
att(204,109).
att(259,96).
att(299,88).
att(202,231).
att(32,301).
att(99,142).
att(71,283).
att(264,296).
att(208,108).
att(220,105).
att(182,115).
att(59,158).
att(212,107).
att(175,117).
att(216,106).
att(15,178).
att(264,95).
att(13,179).
att(237,101).
att(94,273).
att(113,137).
att(102,141).
att(269,94).
att(289,90).
att(7,182).
att(3,184).
att(30,171).
att(50,162).
att(78,280).
att(41,166).
att(116,136).
att(57,159).
att(191,235).
att(211,228).
att(179,116).
att(250,301).
att(201,110).
att(45,295).
att(180,239).
att(97,143).
att(106,268).
att(146,126).
att(190,113).
att(48,163).
att(26,173).
att(251,98).
att(85,277).
att(276,292).
att(156,248).
att(62,157).
att(232,221).
att(43,296).
att(226,223).
att(133,257).
att(176,117).
att(164,245).
att(290,203).
att(238,101).
att(76,281).
att(100,142).
att(67,155).
att(275,93).
att(270,209).
att(183,238).
att(111,266).
att(46,164).
att(111,138).
att(285,289).
att(256,97).
att(291,287).
att(197,233).
att(87,147).
att(41,297).
att(280,206).
att(198,111).
att(234,102).
att(301,88).
att(60,158).
att(254,214).
att(77,151).
att(39,298).
att(16,178).
att(33,170).
att(117,136).
att(146,252).
att(65,156).
att(74,282).
att(14,179).
att(251,215).
att(191,113).
att(167,244).
att(287,204).
att(51,162).
att(120,135).
att(214,107).
att(31,171).
att(42,166).
att(98,143).
att(170,119).
att(8,182).
att(52,292).
att(144,127).
att(239,101).
att(6,183).
att(4,184).
att(136,256).
att(75,152).
att(189,236).
att(109,139).
att(264,211).
att(29,172).
att(138,129).
att(35,300).
att(301,200).
att(81,279).
att(56,160).
att(167,120).
att(242,218).
att(170,243).
att(274,208).
att(265,296).
att(212,228).
att(38,168).
att(88,147).
att(267,95).
att(61,288).
att(47,164).
att(149,251).
att(215,227).
att(164,121).
att(96,144).
att(211,108).
att(48,294).
att(221,225).
att(119,263).
att(79,280).
att(21,176).
att(258,97).
att(171,119).
att(249,99).
att(271,209).
att(298,201).
att(196,112).
att(107,140).
att(19,177).
att(66,156).
att(178,117).
att(236,102).
att(142,128).
att(298,89).
att(99,143).
att(165,245).
att(52,162).
att(15,179).
att(136,130).
att(32,171).
att(168,120).
att(277,292).
att(204,110).
att(268,210).
att(112,266).
att(44,296).
att(288,91).
att(301,284).
att(288,204).
att(182,116).
att(94,145).
att(175,118).
att(77,281).
att(57,290).
att(64,157).
att(283,290).
att(41,167).
att(176,241).
att(295,286).
att(193,113).
att(241,101).
att(69,155).
att(117,264).
att(168,244).
att(299,89).
att(84,149).
att(74,153).
att(119,136).
att(257,299).
att(79,151).
att(66,286).
att(179,117).
att(207,230).
att(246,217).
att(142,254).
att(55,161).
att(201,111).
att(255,98).
att(108,140).
att(285,205).
att(179,240).
att(210,229).
att(262,212).
att(260,298).
att(279,93).
att(67,156).
att(213,228).
att(240,219).
att(111,139).
att(171,243).
att(292,203).
att(242,101).
att(213,108).
att(82,279).
att(156,124).
att(82,150).
att(77,152).
att(194,113).
att(251,99).
att(300,89).
att(263,297).
att(44,166).
att(36,300).
att(166,121).
att(73,283).
att(33,171).
att(295,90).
att(96,273).
att(173,119).
att(180,117).
att(10,182).
att(247,100).
att(120,136).
att(285,92).
att(174,242).
att(4,185).
att(280,93).
att(98,144).
att(147,127).
att(199,233).
att(289,204).
att(108,268).
att(206,110).
att(126,134).
att(109,140).
att(170,120).
att(160,123).
att(210,109).
att(272,294).
att(222,106).
att(135,131).
att(218,107).
att(177,118).
att(60,289).
att(101,143).
att(266,96).
att(101,271).
att(112,139).
att(94,274).
att(38,169).
att(88,148).
att(47,165).
att(205,231).
att(291,91).
att(257,98).
att(78,281).
att(161,247).
att(115,138).
att(248,100).
att(69,285).
att(286,205).
att(169,244).
att(281,93).
att(78,152).
att(235,103).
att(104,142).
att(148,252).
att(281,291).
att(174,119).
att(299,285).
att(21,177).
att(284,290).
att(244,218).
att(164,122).
att(191,236).
att(263,212).
att(45,166).
att(19,178).
att(244,101).
att(293,203).
att(107,141).
att(123,262).
att(211,109).
att(214,228).
att(138,256).
att(99,144).
att(171,120).
att(124,135).
att(215,108).
att(156,249).
att(219,107).
att(238,220).
att(92,275).
att(71,155).
att(56,291).
att(86,149).
att(217,227).
att(142,129).
att(76,282).
att(11,182).
att(9,183).
att(229,223).
att(158,124).
att(282,93).
att(30,173).
att(94,146).
att(183,239).
att(168,121).
att(189,115).
att(257,214).
att(261,298).
att(83,279).
att(175,119).
att(204,111).
att(89,148).
att(116,265).
att(39,169).
att(152,126).
att(254,99).
att(298,90).
att(90,276).
att(97,145).
att(224,106).
att(149,127).
att(273,95).
att(37,170).
att(186,116).
att(146,128).
att(136,257).
att(67,157).
att(143,129).
att(81,280).
att(100,144).
att(140,130).
att(72,284).
att(248,217).
att(18,179).
att(169,121).
att(82,151).
att(264,212).
att(33,172).
att(246,101).
att(95,274).
att(255,99).
att(156,125).
att(65,158).
att(242,219).
att(51,164).
att(225,106).
att(221,107).
att(153,126).
att(90,148).
att(6,185).
att(253,301).
att(2,187).
att(242,102).
att(284,93).
att(274,209).
att(284,206).
att(70,156).
att(261,213).
att(260,98).
att(236,221).
att(29,174).
att(251,100).
att(107,269).
att(59,290).
att(75,154).
att(233,222).
att(46,296).
att(180,118).
att(157,249).
att(288,289).
att(238,103).
att(139,256).
att(123,136).
att(265,97).
att(134,258).
att(56,162).
att(126,135).
att(291,204).
att(165,246).
att(93,147).
att(38,170).
att(68,157).
att(77,282).
att(112,140).
att(275,95).
att(184,117).
att(88,149).
att(280,94).
att(214,109).
att(218,108).
att(243,102).
att(21,178).
att(104,143).
att(167,122).
att(268,211).
att(117,265).
att(45,167).
att(160,248).
att(252,216).
att(19,179).
att(288,205).
att(118,138).
att(66,158).
att(204,232).
att(40,299).
att(91,148).
att(75,283).
att(52,164).
att(249,217).
att(235,104).
att(43,168).
att(148,128).
att(13,182).
att(296,91).
att(86,150).
att(207,231).
att(132,259).
att(291,92).
att(179,241).
att(38,300).
att(207,111).
att(110,141).
att(281,94).
att(130,134).
att(64,288).
att(50,165).
att(136,132).
att(211,110).
att(185,117).
att(82,280).
att(268,296).
att(244,102).
att(262,98).
att(57,162).
att(163,247).
att(193,236).
att(103,271).
att(69,157).
att(150,252).
att(271,295).
att(115,266).
att(51,294).
att(267,97).
att(240,103).
att(155,126).
att(74,155).
att(222,226).
att(292,204).
att(79,153).
att(228,224).
att(97,146).
att(236,104).
att(272,210).
att(80,281).
att(71,285).
att(122,137).
att(108,142).
att(256,215).
att(20,179).
att(35,172).
att(298,286).
att(60,290).
att(60,161).
att(186,117).
att(87,150).
att(128,135).
att(101,272).
att(179,119).
att(111,141).
att(44,168).
att(77,154).
att(134,133).
att(253,216).
att(289,205).
att(113,267).
att(159,125).
att(69,286).
att(114,140).
att(10,184).
att(259,99).
att(58,291).
att(8,185).
att(42,169).
att(58,162).
att(283,94).
att(169,245).
att(266,212).
att(118,265).
att(90,149).
att(106,270).
att(29,175).
att(233,105).
att(166,123).
att(85,151).
att(286,206).
att(255,100).
att(276,209).
att(67,287).
att(211,230).
att(225,107).
att(217,109).
att(221,108).
att(56,163).
att(128,261).
att(269,97).
att(263,298).
att(133,259).
att(299,91).
att(93,148).
att(126,136).
att(68,158).
att(129,135).
att(294,92).
att(217,228).
att(141,131).
att(132,134).
att(23,178).
att(138,132).
att(135,133).
att(251,101).
att(112,141).
att(284,94).
att(220,227).
att(36,172).
att(183,240).
att(65,288).
att(191,116).
att(83,152).
att(283,207).
att(96,147).
att(177,120).
att(157,126).
att(184,118).
att(210,111).
att(230,106).
att(257,215).
att(37,301).
att(167,123).
att(195,115).
att(52,294).
att(270,97).
att(300,91).
att(175,243).
att(91,149).
att(59,162).
att(186,239).
att(43,169).
att(32,174).
att(141,256).
att(243,103).
att(174,121).
att(275,294).
att(76,155).
att(199,114).
att(280,208).
att(5,187).
att(261,99).
att(3,188).
att(81,281).
att(30,175).
att(110,142).
att(239,104).
att(203,113).
att(130,135).
att(142,131).
att(57,163).
att(94,148).
att(178,242).
att(192,116).
att(171,122).
att(206,232).
att(114,267).
att(287,290).
att(207,112).
att(293,288).
att(290,289).
att(248,218).
att(39,171).
att(162,248).
att(26,177).
att(178,120).
att(257,100).
att(48,167).
att(158,126).
att(209,231).
att(84,152).
att(227,107).
att(79,282).
att(24,178).
att(219,109).
att(264,213).
att(155,127).
att(281,95).
att(242,220).
att(107,270).
att(181,241).
att(119,139).
att(46,168).
att(215,229).
att(157,250).
att(301,202).
att(139,257).
att(218,228).
att(261,214).
att(261,299).
att(134,259).
att(149,129).
att(284,207).
att(233,223).
att(227,225).
att(57,292).
att(33,174).
att(193,116).
att(258,100).
att(111,142).
att(162,125).
att(143,131).
att(184,240).
att(140,132).
att(137,133).
att(152,252).
att(65,160).
att(95,148).
att(179,120).
att(10,185).
att(51,166).
att(31,175).
att(103,145).
att(216,110).
att(291,205).
att(6,187).
att(282,95).
att(4,188).
att(271,211).
att(245,103).
att(55,293).
att(255,216).
att(201,234).
att(29,176).
att(298,203).
att(156,127).
att(75,284).
att(85,152).
att(201,114).
att(91,277).
att(80,154).
att(176,121).
att(270,296).
att(153,128).
att(205,113).
att(250,102).
att(273,97).
att(53,294).
att(109,143).
att(288,206).
att(190,238).
att(207,232).
att(155,251).
att(278,209).
att(293,93).
att(147,130).
att(283,95).
att(229,107).
att(129,136).
att(73,157).
att(217,110).
att(264,99).
att(141,132).
att(265,213).
att(225,108).
att(112,142).
att(163,248).
att(171,245).
att(160,126).
att(213,230).
att(96,275).
att(300,286).
att(17,182).
att(115,141).
att(291,289).
att(240,221).
att(191,117).
att(15,183).
att(184,119).
att(145,255).
att(43,170).
att(238,105).
att(158,250).
att(125,263).
att(86,152).
att(1,190).
att(234,106).
att(76,156).
att(81,154).
att(135,259).
att(247,103).
att(47,297).
att(174,122).
att(218,110).
att(188,118).
att(181,120).
att(113,268).
att(102,146).
att(270,98).
att(275,97).
att(177,243).
att(269,212).
att(192,117).
att(253,217).
att(158,127).
att(178,121).
att(185,119).
att(279,209).
att(168,124).
att(211,112).
att(155,128).
att(99,274).
att(231,107).
att(208,232).
att(191,238).
att(18,182).
att(60,163).
att(122,139).
att(133,260).
att(41,300).
att(175,122).
att(16,183).
att(189,118).
att(87,152).
att(111,269).
att(200,115).
att(149,130).
att(244,220).
att(12,185).
att(276,97).
att(172,245).
att(214,230).
att(296,93).
att(194,237).
att(65,161).
att(253,102).
att(281,96).
att(65,289).
att(291,94).
att(162,126).
att(134,135).
att(2,190).
att(137,134).
att(217,229).
att(103,146).
att(172,123).
att(238,222).
att(193,117).
att(277,294).
att(220,228).
att(183,241).
att(114,142).
att(29,177).
att(179,121).
att(267,99).
att(260,215).
att(249,103).
att(49,168).
att(283,292).
att(117,141).
att(258,101).
att(273,211).
att(169,124).
att(298,287).
att(159,250).
att(63,290).
att(300,203).
att(156,128).
att(56,165).
att(224,109).
att(186,240).
att(81,282).
att(38,173).
att(201,115).
att(93,150).
att(282,96).
att(150,130).
att(241,105).
att(36,174).
att(154,252).
att(21,181).
att(147,131).
att(95,276).
att(19,182).
att(48,297).
att(251,218).
att(206,233).
att(233,107).
att(79,283).
att(66,161).
att(15,184).
att(263,299).
att(115,142).
att(52,167).
att(119,266).
att(198,116).
att(209,232).
att(59,164).
att(170,124).
att(107,271).
att(118,141).
att(157,128).
att(5,189).
att(3,190).
att(107,145).
att(86,153).
att(99,148).
att(81,155).
att(129,262).
att(157,251).
att(184,120).
att(242,105).
att(215,230).
att(242,221).
att(64,162).
att(28,178).
att(269,99).
att(57,293).
att(206,114).
att(218,229).
att(239,222).
att(173,245).
att(195,117).
att(148,131).
att(233,224).
att(301,203).
att(272,296).
att(188,119).
att(181,121).
att(230,108).
att(84,281).
att(84,154).
att(105,272).
att(247,104).
att(161,127).
att(289,95).
att(40,301).
att(91,278).
att(20,182).
att(243,105).
att(168,247).
att(291,206).
att(281,293).
att(18,183).
att(270,99).
att(119,141).
att(185,120).
att(92,151).
att(284,292).
att(127,263).
att(207,114).
att(44,171).
att(239,106).
att(110,270).
att(33,176).
att(87,153).
att(211,113).
att(235,107).
att(280,97).
att(31,177).
att(149,131).
att(51,168).
att(215,112).
att(231,108).
att(285,96).
att(290,95).
att(103,273).
att(189,119).
att(219,111).
att(58,165).
att(266,100).
att(115,268).
att(96,276).
att(210,232).
att(29,178).
att(134,136).
att(140,134).
att(150,254).
att(70,160).
att(40,173).
att(271,99).
att(49,169).
att(213,231).
att(204,115).
att(193,118).
att(85,154).
att(243,221).
att(63,163).
att(240,106).
att(253,103).
att(186,120).
att(240,222).
att(208,114).
att(125,264).
att(296,94).
att(234,224).
att(135,260).
att(197,117).
att(101,274).
att(94,277).
att(216,112).
att(36,175).
att(123,140).
att(220,111).
att(101,148).
att(88,153).
att(258,102).
att(199,236).
att(78,284).
att(183,121).
att(45,299).
att(34,176).
att(272,99).
att(292,206).
att(144,133).
att(15,185).
att(135,136).
att(163,127).
att(96,150).
att(52,168).
att(43,300).
att(241,106).
att(59,165).
att(169,247).
att(91,152).
att(292,95).
att(56,294).
att(99,275).
att(269,213).
att(76,285).
att(143,257).
att(213,113).
att(170,125).
att(81,156).
att(64,163).
att(229,109).
att(28,179).
att(259,102).
att(208,233).
att(121,141).
att(54,295).
att(110,145).
att(291,290).
att(164,249).
att(127,139).
att(244,221).
att(194,238).
att(206,115).
att(130,138).
att(151,254).
att(62,164).
att(145,133).
att(164,127).
att(174,124).
att(195,118).
att(79,157).
att(241,222).
att(217,230).
att(259,301).
att(183,242).
att(46,171).
att(220,229).
att(238,223).
att(181,122).
att(223,228).
att(161,128).
att(251,104).
att(229,226).
att(260,102).
att(159,251).
att(230,109).
att(171,125).
att(226,110).
att(262,300).
att(33,177).
att(293,206).
att(136,260).
att(247,105).
att(108,146).
att(273,212).
att(200,236).
att(279,98).
att(100,149).
att(178,123).
att(77,158).
att(299,94).
att(185,121).
att(283,209).
att(284,97).
att(31,178).
att(6,190).
att(289,96).
att(154,253).
att(243,106).
att(58,166).
att(128,139).
att(178,244).
att(270,100).
att(270,213).
att(165,127).
att(70,161).
att(162,250).
att(149,255).
att(27,180).
att(235,108).
att(140,135).
att(137,136).
att(206,234).
att(290,207).
att(59,293).
att(231,109).
att(107,272).
att(162,128).
att(251,219).
att(56,167).
att(227,110).
att(38,175).
att(98,150).
att(106,147).
att(172,125).
att(280,98).
att(117,143).
att(274,296).
att(285,97).
att(290,96).
att(68,289).
att(193,119).
att(57,294).
att(179,123).
att(156,130).
att(61,165).
att(173,246).
att(19,184).
att(264,215).
att(42,301).
att(17,185).
att(197,118).
att(253,104).
att(239,223).
att(152,254).
att(301,287).
att(221,229).
att(15,186).
att(112,145).
att(166,127).
att(236,224).
att(66,290).
att(129,139).
att(292,290).
att(233,225).
att(147,133).
att(96,151).
att(220,112).
att(43,173).
att(144,134).
att(104,148).
att(9,189).
att(249,105).
att(138,136).
att(296,95).
att(115,144).
att(291,96).
att(301,204).
att(176,245).
att(53,296).
att(260,301).
att(201,236).
att(118,143).
att(64,164).
att(99,150).
att(110,271).
att(137,260).
att(170,126).
att(204,235).
att(277,99).
att(291,207).
att(69,162).
att(110,146).
att(154,131).
att(281,210).
att(179,244).
att(89,280).
att(252,219).
att(297,95).
att(167,127).
att(191,120).
att(74,160).
att(250,105).
att(22,183).
att(171,247).
att(84,156).
att(130,139).
att(113,145).
att(49,298).
att(210,233).
att(80,284).
att(120,267).
att(193,239).
att(174,125).
att(18,185).
att(67,163).
att(246,221).
att(195,119).
att(182,243).
att(53,169).
att(16,186).
att(242,107).
att(264,102).
att(14,187).
att(278,99).
att(216,231).
att(243,222).
att(72,161).
att(130,263).
att(12,188).
att(196,238).
att(108,147).
att(171,126).
att(10,189).
att(283,98).
att(174,246).
att(94,278).
att(8,190).
att(199,118).
att(6,191).
att(288,97).
att(222,229).
att(2,193).
att(69,289).
att(122,142).
att(225,228).
att(234,225).
att(218,113).
att(185,242).
att(155,131).
att(178,124).
att(192,120).
att(125,141).
att(285,209).
att(168,127).
att(185,122).
att(95,152).
att(152,132).
att(281,294).
att(128,140).
att(247,106).
att(43,301).
att(149,133).
att(106,273).
att(148,256).
att(207,116).
att(75,160).
att(299,288).
att(202,236).
att(161,251).
att(175,125).
att(265,102).
att(85,156).
att(293,290).
att(292,207).
att(169,248).
att(92,279).
att(38,176).
att(76,286).
att(256,218).
att(98,151).
att(117,144).
att(282,210).
att(205,235).
att(68,163).
att(21,184).
att(299,205).
att(200,118).
att(93,153).
att(19,185).
att(180,244).
att(261,301).
att(73,161).
att(45,173).
att(78,159).
att(83,157).
att(211,233).
att(280,99).
att(52,297).
att(66,164).
att(257,104).
att(194,239).
att(43,174).
att(208,116).
att(244,107).
att(214,232).
att(285,98).
att(59,167).
att(197,119).
att(244,222).
att(176,125).
att(132,139).
att(147,134).
att(183,243).
att(135,138).
att(121,267).
att(146,257).
att(91,154).
att(241,223).
att(236,109).
att(238,224).
att(86,156).
att(232,110).
att(175,246).
att(118,144).
att(173,126).
att(228,111).
att(88,281).
att(102,275).
att(200,237).
att(121,143).
att(180,124).
att(267,102).
att(154,254).
att(301,95).
att(170,127).
att(286,98).
att(273,213).
att(293,207).
att(102,150).
att(79,285).
att(79,159).
att(46,173).
att(18,186).
att(107,273).
att(191,121).
att(184,123).
att(145,135).
att(16,187).
att(233,110).
att(139,137).
att(221,113).
att(60,167).
att(100,276).
att(14,188).
att(250,106).
att(57,295).
att(92,154).
att(282,99).
att(192,240).
att(139,260).
att(77,286).
att(10,190).
att(287,98).
att(87,156).
att(82,158).
att(100,151).
att(181,124).
att(248,221).
att(267,215).
att(173,247).
att(158,131).
att(215,232).
att(55,296).
att(84,283).
att(66,291).
att(95,153).
att(40,176).
att(155,132).
att(277,212).
att(264,216).
att(49,172).
att(278,100).
att(239,224).
att(91,280).
att(168,128).
att(98,277).
att(234,110).
att(236,225).
att(224,229).
att(25,183).
att(63,166).
att(222,113).
att(198,238).
att(230,111).
att(251,106).
att(53,297).
att(265,300).
att(134,139).
att(160,252).
att(288,98).
att(298,96).
att(176,246).
att(64,292).
att(47,173).
att(106,149).
att(175,126).
att(127,265).
att(110,272).
att(117,145).
att(196,120).
att(201,237).
att(268,299).
att(51,298).
att(19,186).
att(61,167).
att(93,154).
att(120,144).
att(89,281).
att(204,236).
att(88,156).
att(271,298).
att(78,160).
att(279,100).
att(96,278).
att(200,119).
att(239,109).
att(123,143).
att(190,241).
att(271,214).
att(219,114).
att(235,110).
att(179,125).
att(163,251).
att(231,111).
att(207,235).
att(126,142).
att(171,248).
att(59,168).
att(169,128).
att(289,98).
att(80,285).
att(1,195).
att(96,153).
att(153,133).
att(129,141).
att(261,104).
att(150,134).
att(210,234).
att(108,273).
att(268,215).
att(145,258).
att(47,300).
att(41,176).
att(248,107).
att(91,155).
att(298,206).
att(280,295).
att(275,101).
att(28,182).
att(141,137).
att(87,282).
att(140,260).
att(213,233).
att(130,264).
att(158,253).
att(135,262).
att(257,105).
att(99,152).
att(266,103).
att(212,116).
att(118,145).
att(280,100).
att(289,292).
att(288,209).
att(174,247).
att(265,216).
att(113,271).
att(216,115).
att(201,119).
att(240,224).
att(222,230).
att(237,225).
att(185,243).
att(232,111).
att(271,102).
att(74,162).
att(102,151).
att(89,156).
att(157,132).
att(118,269).
att(79,160).
att(170,128).
att(85,283).
att(187,123).
att(56,296).
att(275,213).
att(67,291).
att(127,142).
att(154,133).
att(161,252).
att(92,280).
att(130,141).
att(53,171).
att(202,237).
att(177,126).
att(258,105).
att(139,138).
att(128,265).
att(213,116).
att(10,191).
att(286,99).
att(111,272).
att(4,194).
att(2,195).
att(65,292).
att(83,284).
att(51,172).
att(237,110).
att(202,119).
att(254,106).
att(272,102).
att(119,145).
att(108,149).
att(233,111).
att(29,182).
att(116,270).
att(181,125).
att(277,101).
att(269,215).
att(188,123).
att(70,164).
att(95,154).
att(171,128).
att(125,143).
att(103,151).
att(268,103).
att(259,105).
att(56,170).
att(121,268).
att(287,99).
att(183,244).
att(199,120).
att(23,185).
att(214,116).
att(47,174).
att(109,273).
att(217,232).
att(21,186).
att(143,137).
att(68,165).
att(106,150).
att(140,138).
att(61,294).
att(88,282).
att(264,104).
att(117,146).
att(165,130).
att(19,187).
att(222,114).
att(175,127).
att(95,279).
att(93,155).
att(284,294).
att(17,188).
att(278,101).
att(276,213).
att(251,107).
att(287,293).
att(162,131).
att(200,238).
att(88,157).
att(109,149).
att(296,290).
att(78,161).
att(189,123).
att(46,301).
att(32,181).
att(260,105).
att(123,144).
att(5,194).
att(1,196).
att(293,98).
att(96,154).
att(71,164).
att(50,173).
att(100,277).
att(57,296).
att(193,122).
att(206,236).
att(64,167).
att(279,101).
att(231,112).
att(227,113).
att(139,261).
att(264,301).
att(39,178).
att(48,174).
att(208,118).
att(197,121).
att(261,105).
att(289,99).
att(55,297).
att(299,97).
att(173,248).
att(22,186).
att(55,171).
att(62,168).
att(248,222).
att(117,270).
att(215,233).
att(270,299).
att(201,120).
att(218,232).
att(180,126).
att(16,189).
att(280,101).
att(147,258).
att(220,115).
att(53,172).
att(170,129).
att(64,293).
att(194,122).
att(130,142).
att(253,107).
att(285,100).
att(227,229).
att(110,273).
att(105,151).
att(176,247).
att(151,135).
att(132,264).
att(51,299).
att(116,147).
att(136,140).
att(262,105).
att(187,243).
att(142,138).
att(177,127).
att(261,218).
att(201,238).
att(42,177).
att(209,118).
att(77,162).
att(89,282).
att(29,183).
att(184,125).
att(282,295).
att(115,271).
att(245,109).
att(49,300).
att(267,104).
att(179,246).
att(284,211).
att(281,101).
att(70,165).
att(202,120).
att(217,116).
att(190,242).
att(80,286).
att(163,252).
att(297,290).
att(111,149).
att(221,115).
att(25,185).
att(171,249).
att(255,220).
att(233,112).
att(271,215).
att(171,129).
att(85,159).
att(128,143).
att(87,283).
att(210,235).
att(140,261).
att(68,166).
att(168,130).
att(149,136).
att(58,296).
att(34,181).
att(268,104).
att(15,190).
att(282,101).
att(246,223).
att(120,146).
att(109,150).
att(175,128).
att(32,182).
att(52,173).
att(278,213).
att(9,193).
att(85,284).
att(43,177).
att(7,194).
att(292,99).
att(240,225).
att(67,292).
att(297,98).
att(230,113).
att(123,145).
att(228,229).
att(182,126).
att(199,239).
att(196,122).
att(41,178).
att(262,218).
att(278,102).
att(104,152).
att(28,184).
att(156,134).
att(295,208).
att(76,163).
att(57,171).
att(200,121).
att(260,106).
att(81,161).
att(115,148).
att(169,130).
att(269,104).
att(179,127).
att(283,101).
att(132,142).
att(285,211).
att(215,117).
att(193,123).
att(243,110).
att(288,100).
att(144,138).
att(156,255).
att(205,237).
att(293,99).
att(239,111).
att(37,180).
att(191,242).
att(272,215).
att(223,115).
att(116,271).
att(164,252).
att(63,294).
att(20,188).
att(46,176).
att(151,257).
att(89,158).
att(282,212).
att(253,221).
att(18,189).
att(211,235).
att(124,145).
att(160,133).
att(173,129).
att(301,289).
att(269,216).
att(295,291).
att(14,191).
att(284,101).
att(109,274).
att(33,182).
att(261,106).
att(60,170).
att(183,245).
att(97,155).
att(48,301).
att(130,143).
att(170,130).
att(2,197).
att(31,183).
att(102,277).
att(197,240).
att(266,217).
att(95,280).
att(275,103).
att(42,178).
att(51,174).
att(167,251).
att(77,163).
att(148,137).
att(65,168).
att(205,120).
att(29,184).
att(167,131).
att(58,171).
att(223,231).
att(228,114).
att(59,296).
att(280,102).
att(40,179).
att(253,108).
att(27,185).
att(209,119).
att(164,132).
att(70,166).
att(276,214).
att(119,270).
att(285,101).
att(191,124).
att(95,156).
att(122,146).
att(38,180).
att(111,150).
att(63,169).
att(295,99).
att(57,297).
att(125,145).
att(124,268).
att(77,288).
att(258,107).
att(129,266).
att(128,144).
att(241,111).
att(273,215).
att(112,273).
att(188,125).
att(225,115).
att(61,170).
att(45,177).
att(134,142).
att(34,182).
att(66,293).
att(143,139).
att(165,252).
att(300,207).
att(272,104).
att(210,119).
att(52,174).
att(251,222).
att(91,282).
att(43,178).
att(250,109).
att(109,151).
att(185,126).
att(120,147).
att(59,171).
att(30,184).
att(246,110).
att(277,103).
att(184,245).
att(64,294).
att(281,296).
att(122,269).
att(71,166).
att(218,233).
att(284,295).
att(82,286).
att(160,254).
att(110,274).
att(126,145).
att(159,134).
att(182,127).
att(104,153).
att(287,294).
att(127,267).
att(51,300).
att(238,112).
att(76,164).
att(176,248).
att(57,172).
att(234,113).
att(26,186).
att(137,263).
att(297,208).
att(86,160).
att(129,144).
att(156,135).
att(236,227).
att(264,218).
att(48,176).
att(132,143).
att(24,187).
att(273,104).
att(96,280).
att(135,142).
att(287,211).
att(69,167).
att(107,152).
att(211,119).
att(138,141).
att(147,138).
att(22,188).
att(200,122).
att(55,173).
att(80,287).
att(186,126).
att(20,189).
att(74,165).
att(247,110).
att(204,238).
att(260,107).
att(110,151).
att(204,121).
att(171,250).
att(294,209).
att(53,174).
att(67,168).
att(223,116).
att(124,146).
att(235,113).
att(60,171).
att(183,127).
att(197,123).
att(255,221).
att(69,292).
att(190,125).
att(173,130).
att(274,104).
att(301,207).
att(6,196).
att(4,197).
att(2,198).
att(298,99).
att(193,242).
att(271,216).
att(72,166).
att(158,255).
att(105,153).
att(92,158).
att(87,160).
att(166,252).
att(174,249).
att(58,172).
att(151,137).
att(248,110).
att(249,223).
att(196,241).
att(194,124).
att(270,105).
att(85,285).
att(216,234).
att(284,102).
att(67,293).
att(118,271).
att(119,148).
att(244,111).
att(220,117).
att(185,245).
att(25,187).
att(92,282).
att(289,101).
att(243,225).
att(99,279).
att(38,181).
att(228,115).
att(240,226).
att(122,147).
att(164,133).
att(225,231).
att(198,123).
att(234,228).
att(47,177).
att(177,248).
att(143,261).
att(128,267).
att(174,130).
att(36,182).
att(169,251).
att(138,263).
att(133,265).
att(54,174).
att(114,150).
att(98,156).
att(291,293).
att(271,105).
att(294,292).
att(181,128).
att(131,144).
att(15,192).
att(171,131).
att(104,277).
att(275,215).
att(90,283).
att(217,118).
att(134,143).
att(259,220).
att(116,272).
att(245,111).
att(137,142).
att(221,117).
att(9,195).
att(140,141).
att(88,160).
att(7,196).
att(295,100).
att(168,132).
att(3,198).
att(101,155).
att(229,115).
att(109,152).
att(256,221).
att(272,216).
att(72,291).
att(165,133).
att(41,180).
att(281,103).
att(253,222).
att(183,246).
att(88,284).
att(175,130).
att(131,266).
att(159,255).
att(76,165).
att(26,187).
att(286,102).
att(250,223).
att(269,217).
att(291,101).
att(24,188).
att(218,118).
att(247,224).
att(79,288).
att(156,136).
att(196,124).
att(189,126).
att(69,168).
att(99,156).
att(22,189).
att(107,153).
att(55,174).
att(226,116).
att(135,143).
att(223,232).
att(46,178).
att(144,140).
att(74,166).
att(35,183).
att(282,103).
att(255,109).
att(68,293).
att(89,160).
att(84,162).
att(166,133).
att(186,127).
att(287,102).
att(264,107).
att(170,251).
att(189,244).
att(277,298).
att(60,172).
att(124,147).
att(4,198).
att(134,265).
att(112,274).
att(113,151).
att(160,135).
att(260,108).
att(66,294).
att(51,176).
att(105,154).
att(243,112).
att(84,286).
att(29,186).
att(269,106).
att(239,113).
att(273,216).
att(227,116).
att(208,121).
att(82,163).
att(289,294).
att(298,291).
att(295,292).
att(40,181).
att(91,283).
att(136,143).
att(108,153).
att(148,139).
att(142,141).
att(25,188).
att(274,105).
att(64,295).
att(195,242).
att(38,182).
att(56,174).
att(194,125).
att(63,171).
att(184,246).
att(215,235).
att(177,130).
att(279,104).
att(160,255).
att(103,155).
att(85,162).
att(205,122).
att(164,134).
att(137,264).
att(244,112).
att(280,214).
att(19,191).
att(267,218).
att(62,296).
att(54,175).
att(161,135).
att(45,179).
att(61,172).
att(174,131).
att(191,126).
att(98,157).
att(209,121).
att(187,245).
att(236,228).
att(289,102).
att(73,167).
att(201,240).
att(11,195).
att(32,185).
att(266,107).
att(277,215).
att(117,150).
att(3,199).
att(60,297).
att(88,161).
att(66,170).
att(287,212).
att(149,139).
att(140,142).
att(143,141).
att(188,127).
att(195,125).
att(249,111).
att(168,133).
att(271,106).
att(206,122).
att(178,130).
att(69,293).
att(96,158).
att(258,221).
att(130,267).
att(64,171).
att(237,114).
att(294,210).
att(113,274).
att(185,128).
att(91,160).
att(199,124).
att(210,121).
att(162,135).
att(276,105).
att(295,101).
att(300,100).
att(281,297).
att(166,253).
att(85,286).
att(301,208).
att(174,250).
att(67,294).
att(214,120).
att(99,157).
att(281,104).
att(203,123).
att(132,145).
att(156,137).
att(287,295).
att(182,129).
att(107,154).
att(46,179).
att(92,283).
att(290,294).
att(135,144).
att(218,119).
att(296,292).
att(118,150).
att(189,127).
att(281,214).
att(138,143).
att(147,140).
att(148,260).
att(123,270).
att(222,118).
att(84,163).
att(33,185).
att(226,117).
att(110,153).
att(291,102).
att(65,295).
att(199,241).
att(238,114).
att(230,116).
att(60,173).
att(234,115).
att(111,275).
att(177,249).
att(6,198).
att(133,266).
att(228,231).
att(301,100).
att(97,158).
att(202,240).
att(176,131).
att(163,135).
att(90,284).
att(77,166).
att(65,171).
att(204,123).
att(27,188).
att(40,182).
att(180,248).
att(173,132).
att(157,137).
att(191,244).
att(247,112).
att(197,125).
att(151,259).
att(25,189).
att(259,221).
att(70,169).
att(223,118).
att(151,139).
att(38,183).
att(260,109).
att(109,276).
att(227,117).
att(270,301).
att(56,175).
att(23,190).
att(61,297).
att(47,179).
att(21,191).
att(272,217).
att(102,279).
att(90,161).
att(36,184).
att(131,267).
att(194,126).
att(253,223).
att(68,170).
att(79,289).
att(17,193).
att(54,176).
att(214,236).
att(177,131).
att(59,298).
att(276,299).
att(216,120).
att(125,148).
att(164,135).
att(265,108).
att(34,185).
att(252,111).
att(15,194).
att(288,103).
att(205,123).
att(197,242).
att(279,298).
att(184,129).
att(32,186).
att(9,197).
att(86,286).
att(119,272).
att(93,160).
att(131,146).
att(158,137).
att(279,105).
att(78,166).
att(299,209).
att(57,299).
att(88,162).
att(285,296).
att(241,227).
att(200,241).
att(288,295).
att(229,231).
att(137,144).
att(101,157).
att(291,294).
att(140,143).
att(294,293).
att(146,141).
att(143,142).
att(213,121).
att(188,128).
att(168,134).
att(266,108).
att(66,295).
att(84,287).
att(217,120).
att(178,131).
att(294,102).
att(157,257).
att(81,165).
att(165,135).
att(48,179).
att(299,101).
att(206,123).
att(86,163).
att(260,221).
att(22,191).
att(98,281).
att(69,170).
att(129,147).
att(209,238).
att(173,251).
att(210,122).
att(273,217).
att(18,193).
att(74,168).
att(16,194).
att(195,243).
att(182,130).
att(14,195).
att(110,276).
att(89,162).
att(267,108).
att(53,177).
att(215,236).
att(251,224).
att(102,157).
att(60,174).
att(271,301).
att(121,150).
att(169,134).
att(103,279).
att(176,250).
att(300,209).
att(168,253).
att(246,113).
att(166,135).
att(221,234).
att(245,226).
att(80,289).
att(77,167).
att(230,117).
att(200,125).
att(92,161).
att(60,298).
att(239,228).
att(277,299).
att(82,165).
att(176,132).
att(87,163).
att(230,231).
att(49,179).
att(116,152).
att(277,106).
att(264,220).
att(283,297).
att(157,138).
att(277,216).
att(171,252).
att(297,210).
att(56,176).
att(286,296).
att(197,126).
att(190,128).
att(75,168).
att(139,144).
att(130,268).
att(289,295).
att(140,264).
att(301,291).
att(170,134).
att(298,292).
att(19,193).
att(80,166).
att(223,119).
att(208,123).
att(103,157).
att(243,114).
att(45,181).
att(15,195).
att(85,287).
att(210,238).
att(201,125).
att(13,196).
att(212,122).
att(76,291).
att(255,223).
att(114,153).
att(164,136).
att(297,102).
att(284,214).
att(92,284).
att(153,259).
att(5,200).
att(3,201).
att(213,237).
att(43,182).
att(52,178).
att(252,224).
att(161,137).
att(54,301).
att(66,172).
att(59,175).
att(174,133).
att(265,109).
att(134,146).
att(41,183).
att(274,107).
att(101,158).
att(143,263).
att(288,104).
att(74,292).
att(224,119).
att(152,140).
att(291,212).
att(222,234).
att(228,118).
att(240,115).
att(64,173).
att(240,228).
att(90,285).
att(188,246).
att(24,191).
att(279,106).
att(234,230).
att(63,297).
att(97,282).
att(202,125).
att(156,258).
att(112,154).
att(265,220).
att(86,164).
att(298,210).
att(165,136).
att(72,293).
att(55,177).
att(121,272).
att(262,221).
att(191,245).
att(275,107).
att(185,130).
att(74,169).
att(107,156).
att(199,126).
att(132,147).
att(275,217).
att(225,119).
att(12,197).
att(10,198).
att(67,172).
att(229,118).
att(8,199).
att(70,294).
att(233,117).
att(138,145).
att(6,200).
att(4,201).
att(183,248).
att(141,144).
att(271,108).
att(287,296).
att(256,223).
att(121,151).
att(203,125).
att(29,189).
att(285,105).
att(175,251).
att(214,237).
att(97,160).
att(154,259).
att(65,173).
att(179,132).
att(107,278).
att(276,107).
att(92,162).
att(105,157).
att(57,300).
att(290,104).
att(49,180).
att(269,219).
att(77,291).
att(163,137).
att(186,130).
att(226,119).
att(244,227).
att(193,128).
att(100,159).
att(226,233).
att(234,117).
att(55,301).
att(229,232).
att(129,269).
att(266,220).
att(232,231).
att(66,296).
att(139,265).
att(95,161).
att(136,146).
att(36,186).
att(84,288).
att(119,152).
att(154,140).
att(139,145).
att(203,241).
att(145,143).
att(17,195).
att(157,258).
att(54,178).
att(111,155).
att(263,221).
att(34,187).
att(268,109).
att(255,112).
att(45,182).
att(291,104).
att(61,175).
att(117,274).
att(13,197).
att(206,240).
att(11,198).
att(64,297).
att(192,245).
att(251,113).
att(301,102).
att(3,202).
att(43,183).
att(52,179).
att(247,114).
att(209,239).
att(187,130).
att(286,214).
att(201,126).
att(78,168).
att(93,162).
att(73,293).
att(128,149).
att(66,173).
att(231,118).
att(110,277).
att(127,270).
att(161,138).
att(212,238).
att(117,153).
att(142,264).
att(71,171).
att(174,134).
att(96,283).
att(215,237).
att(137,146).
att(293,212).
att(140,145).
att(285,297).
att(96,161).
att(143,144).
att(270,219).
att(198,243).
att(76,169).
att(220,121).
att(171,135).
att(288,296).
att(91,163).
att(155,259).
att(265,110).
att(221,235).
att(297,293).
att(187,247).
att(168,136).
att(242,228).
att(244,115).
att(267,220).
att(227,233).
att(240,116).
att(18,195).
att(150,261).
att(236,230).
att(163,256).
att(195,128).
att(99,160).
att(69,295).
att(179,250).
att(178,133).
att(270,109).
att(264,221).
att(204,241).
att(94,162).
att(162,138).
att(12,198).
att(79,168).
att(298,103).
att(135,267).
att(206,125).
att(67,173).
att(84,166).
att(4,202).
att(2,203).
att(60,176).
att(253,113).
att(284,106).
att(261,222).
att(67,296).
att(42,184).
att(141,145).
att(193,245).
att(51,180).
att(275,108).
att(182,132).
att(166,255).
att(210,239).
att(174,252).
att(233,118).
att(237,117).
att(262,111).
att(40,185).
att(124,151).
att(92,163).
att(203,126).
att(87,165).
att(123,272).
att(280,107).
att(294,212).
att(127,150).
att(166,137).
att(284,215).
att(83,289).
att(70,172).
att(23,193).
att(111,277).
att(216,237).
att(128,270).
att(271,219).
att(285,106).
att(186,131).
att(176,134).
att(75,170).
att(90,286).
att(301,210).
att(160,139).
att(200,127).
att(119,153).
att(157,140).
att(188,247).
att(85,166).
att(139,146).
att(34,188).
att(173,135).
att(228,233).
att(142,145).
att(242,116).
att(111,156).
att(13,198).
att(295,104).
att(234,231).
att(202,242).
att(281,107).
att(300,103).
att(272,109).
att(215,123).
att(265,221).
att(61,299).
att(190,130).
att(180,250).
att(295,294).
att(298,293).
att(109,278).
att(43,184).
att(125,151).
att(278,217).
att(205,241).
att(30,190).
att(286,106).
att(78,169).
att(167,137).
att(66,174).
att(93,163).
att(262,222).
att(288,214).
att(208,125).
att(128,150).
att(268,110).
att(70,295).
att(277,108).
att(201,127).
att(159,258).
att(71,172).
att(259,223).
att(275,218).
att(161,139).
att(247,115).
att(134,148).
att(235,118).
att(301,103).
att(137,147).
att(167,255).
att(86,288).
att(285,215).
att(119,274).
att(37,187).
att(216,123).
att(260,112).
att(86,166).
att(77,292).
att(191,130).
att(93,285).
att(100,282).
att(171,136).
att(186,248).
att(18,196).
att(149,262).
att(62,176).
att(35,188).
att(220,236).
att(99,161).
att(200,243).
att(282,216).
att(66,297).
att(112,277).
att(33,189).
att(107,158).
att(170,254).
att(44,184).
att(226,234).
att(94,163).
att(79,169).
att(178,134).
att(283,107).
att(75,293).
att(244,116).
att(189,247).
att(162,139).
att(105,280).
att(118,154).
att(102,160).
att(42,185).
att(185,132).
att(110,157).
att(217,123).
att(72,172).
att(156,141).
att(284,298).
att(150,143).
att(165,256).
att(257,113).
att(279,108).
att(192,246).
att(82,290).
att(58,178).
att(172,136).
att(92,164).
att(25,193).
att(49,182).
att(210,125).
att(87,166).
att(225,121).
att(293,295).
att(169,137).
att(249,115).
att(23,194).
att(127,151).
att(132,269).
att(203,127).
att(275,109).
att(137,267).
att(286,215).
att(212,239).
att(21,195).
att(63,176).
att(166,138).
att(179,134).
att(71,295).
att(80,291).
att(289,106).
att(75,171).
att(108,158).
att(163,139).
att(168,255).
att(254,225).
att(80,169).
att(198,244).
att(160,140).
att(15,198).
att(280,108).
att(294,105).
att(218,237).
att(136,148).
att(61,177).
att(187,248).
att(87,288).
att(193,130).
att(103,160).
att(200,128).
att(270,220).
att(293,213).
att(111,157).
att(154,142).
att(1,205).
att(3,204).
att(245,228).
att(224,235).
att(285,107).
att(73,172).
att(267,111).
att(78,292).
att(98,162).
att(227,234).
att(230,120).
att(230,233).
att(246,116).
att(145,264).
att(78,170).
att(234,119).
att(300,211).
att(130,270).
att(238,118).
att(106,159).
att(280,217).
att(263,112).
att(113,277).
att(204,242).
att(180,134).
att(128,151).
att(167,138).
att(264,222).
att(131,150).
att(164,139).
att(276,301).
att(106,280).
att(24,194).
att(187,132).
att(109,158).
att(182,250).
att(92,286).
att(177,135).
att(134,149).
att(161,140).
att(96,163).
att(120,154).
att(174,253).
att(153,261).
att(268,111).
att(227,121).
att(251,115).
att(277,109).
att(212,125).
att(55,180).
att(146,145).
att(62,177).
att(16,198).
att(185,249).
att(171,137).
att(143,265).
att(14,199).
att(300,293).
att(133,269).
att(297,294).
att(177,252).
att(294,213).
att(2,205).
att(67,175).
att(219,237).
att(129,151).
att(84,168).
att(287,107).
att(72,295).
att(188,132).
att(118,155).
att(162,140).
att(51,182).
att(225,235).
att(252,115).
att(243,229).
att(72,173).
att(228,121).
att(202,243).
att(110,158).
att(231,233).
att(27,193).
att(138,148).
att(244,117).
att(236,119).
att(240,118).
att(97,163).
att(297,105).
att(126,272).
att(147,145).
att(102,282).
att(95,285).
att(146,264).
att(265,222).
att(217,124).
att(87,167).
att(79,292).
att(124,153).
att(131,270).
att(221,123).
att(257,114).
att(100,162).
att(279,109).
att(75,172).
att(108,159).
att(167,256).
att(95,164).
att(203,128).
att(196,130).
att(54,181).
att(93,286).
att(133,150).
att(233,120).
att(100,283).
att(119,155).
att(237,119).
att(284,108).
att(160,141).
att(32,191).
att(218,124).
att(73,173).
att(272,220).
att(148,145).
att(220,237).
att(258,114).
att(170,255).
att(41,187).
att(247,228).
att(83,169).
att(294,106).
att(170,138).
att(91,287).
att(269,221).
att(244,229).
att(189,248).
att(117,276).
att(229,234).
att(299,105).
att(230,121).
att(232,233).
att(204,128).
att(39,188).
att(267,112).
att(197,130).
att(180,135).
att(234,120).
att(238,119).
att(242,118).
att(48,184).
att(76,172).
att(73,295).
att(152,262).
att(37,189).
att(96,164).
att(165,257).
att(206,242).
att(279,218).
att(192,247).
att(110,279).
att(219,124).
att(137,149).
att(55,181).
att(263,223).
att(89,288).
att(46,185).
att(259,114).
att(201,129).
att(62,178).
att(143,147).
att(223,123).
att(142,266).
att(132,270).
att(123,154).
att(174,137).
att(137,268).
att(12,201).
att(195,246).
att(276,219).
att(10,202).
att(115,277).
att(44,186).
att(53,182).
att(251,116).
att(286,108).
att(231,121).
att(168,256).
att(94,165).
att(31,192).
att(286,216).
att(129,152).
att(168,139).
att(42,187).
att(120,275).
att(273,220).
att(254,226).
att(291,107).
att(118,156).
att(69,297).
att(218,238).
att(165,140).
att(72,174).
att(94,286).
att(251,227).
att(273,111).
att(296,106).
att(135,150).
att(125,273).
att(65,177).
att(248,228).
att(270,221).
att(224,123).
att(97,164).
att(121,155).
att(138,149).
att(130,271).
att(141,148).
att(227,235).
att(92,166).
att(175,137).
att(228,122).
att(144,147).
att(269,112).
att(147,146).
att(252,116).
att(239,231).
att(190,248).
att(113,158).
att(232,121).
att(124,154).
att(248,117).
att(56,181).
att(267,222).
att(236,120).
att(76,294).
att(47,185).
att(19,198).
att(217,125).
att(100,163).
att(127,153).
att(99,284).
att(293,296).
att(17,199).
att(182,135).
att(116,157).
att(169,139).
att(108,160).
att(34,191).
att(166,257).
att(193,247).
att(65,299).
att(153,262).
att(85,169).
att(11,202).
att(189,133).
att(133,151).
att(74,295).
att(5,205).
att(103,162).
att(288,108).
att(128,272).
att(270,112).
att(136,150).
att(253,116).
att(196,246).
att(160,142).
att(214,126).
att(287,216).
att(90,288).
att(176,137).
att(66,177).
att(237,120).
att(274,220).
att(41,188).
att(266,113).
att(216,239).
att(255,226).
att(169,256).
att(207,128).
att(93,166).
att(114,158).
att(72,296).
att(88,168).
att(26,195).
att(252,227).
att(219,238).
att(156,261).
att(61,301).
att(71,175).
att(284,217).
att(222,237).
att(117,157).
att(48,185).
att(246,229).
att(226,123).
att(190,133).
att(37,190).
att(271,112).
att(204,129).
att(126,273).
att(95,286).
att(79,293).
att(146,265).
att(301,212).
att(205,243).
att(16,200).
att(279,301).
att(114,278).
att(14,201).
att(140,149).
att(159,260).
att(276,111).
att(123,155).
att(219,125).
att(152,145).
att(194,132).
att(174,138).
att(2,207).
att(278,219).
att(262,224).
att(119,276).
att(223,124).
att(60,180).
att(167,257).
att(107,161).
att(291,297).
att(272,112).
att(89,168).
att(255,116).
att(51,184).
att(259,225).
att(124,274).
att(191,133).
att(149,264).
att(214,240).
att(118,157).
att(181,136).
att(251,117).
att(216,126).
att(110,160).
att(217,239).
att(134,270).
att(178,253).
att(285,217).
att(138,150).
att(200,245).
att(159,143).
att(250,228).
att(105,162).
att(21,198).
att(113,159).
att(117,277).
att(153,145).
att(63,179).
att(244,230).
att(213,127).
att(203,244).
att(269,222).
att(73,296).
att(17,200).
att(296,107).
att(256,116).
att(232,234).
att(110,280).
att(62,301).
att(108,161).
att(269,113).
att(206,129).
att(11,203).
att(287,109).
att(217,126).
att(182,136).
att(9,204).
att(7,205).
att(32,193).
att(147,265).
att(96,286).
att(119,157).
att(142,267).
att(221,125).
att(263,224).
att(189,134).
att(179,137).
att(136,151).
att(289,216).
att(225,124).
att(280,301).
att(168,257).
att(154,145).
att(50,185).
att(257,116).
att(83,171).
att(176,254).
att(276,220).
att(151,146).
att(88,169).
att(108,281).
att(120,276).
att(69,298).
att(253,117).
att(270,113).
att(286,299).
att(94,287).
att(78,294).
att(249,118).
att(279,111).
att(193,133).
att(296,214).
att(187,250).
att(150,264).
att(292,297).
att(37,191).
att(117,158).
att(76,174).
att(295,296).
att(170,140).
att(20,199).
att(293,108).
att(251,228).
att(145,266).
att(96,166).
att(18,200).
att(55,183).
att(298,107).
att(134,152).
att(270,222).
att(245,230).
att(204,130).
att(104,163).
att(230,235).
att(106,282).
att(12,203).
att(118,277).
att(74,175).
att(99,285).
att(6,206).
att(289,109).
att(53,184).
att(152,146).
att(182,252).
att(67,178).
att(207,243).
att(208,129).
att(280,219).
att(115,159).
att(174,139).
att(219,126).
att(107,162).
att(294,108).
att(74,296).
att(148,265).
att(128,273).
att(72,176).
att(171,140).
att(27,196).
att(104,283).
att(277,220).
att(97,286).
att(185,251).
att(181,137).
att(213,241).
att(23,198).
att(290,109).
att(135,152).
att(255,117).
att(297,214).
att(87,170).
att(216,240).
att(235,122).
att(56,183).
att(199,246).
att(141,150).
att(36,192).
att(295,108).
att(268,114).
att(109,281).
att(188,250).
att(17,201).
att(220,126).
att(252,228).
att(195,133).
att(100,165).
att(202,131).
att(286,110).
att(151,264).
att(95,287).
att(54,184).
att(45,188).
att(164,259).
att(287,299).
att(271,222).
att(79,294).
att(11,204).
att(246,230).
att(95,167).
att(108,162).
att(146,266).
att(172,140).
att(7,206).
att(90,169).
att(243,231).
att(260,116).
att(231,235).
att(136,270).
att(130,154).
att(237,233).
att(273,113).
att(192,134).
att(169,141).
att(205,244).
att(52,185).
att(256,117).
att(199,132).
att(73,176).
att(232,123).
att(103,164).
att(68,299).
att(217,127).
att(296,108).
att(111,161).
att(236,122).
att(59,182).
att(244,120).
att(269,114).
att(93,288).
att(179,138).
att(210,129).
att(154,263).
att(88,170).
att(196,133).
att(262,225).
att(66,300).
att(151,147).
att(176,139).
att(57,183).
att(64,180).
att(298,214).
att(214,128).
att(186,251).
att(173,140).
att(20,200).
att(283,111).
att(162,260).
att(117,159).
att(109,162).
att(18,201).
att(207,130).
att(81,173).
att(35,193).
att(200,132).
att(178,254).
att(183,137).
att(62,181).
att(120,158).
att(157,262).
att(33,194).
att(279,112).
att(82,293).
att(73,297).
att(295,215).
att(44,189).
att(2,209).
att(211,129).
att(53,185).
att(31,195).
att(123,157).
att(203,245).
att(197,133).
att(204,131).
att(99,166).
att(244,231).
att(67,179).
att(79,174).
att(158,145).
att(89,290).
att(238,233).
att(177,139).
att(155,146).
att(42,190).
att(94,168).
att(84,172).
att(103,284).
att(96,287).
att(258,117).
att(126,156).
att(192,249).
att(71,298).
att(27,197).
att(292,216).
att(40,191).
att(208,130).
att(58,183).
att(129,155).
att(242,121).
att(102,165).
att(25,198).
att(246,120).
att(219,127).
att(184,137).
att(171,141).
att(297,296).
att(110,162).
att(23,199).
att(195,248).
att(87,291).
att(168,258).
att(108,282).
att(21,200).
att(294,109).
att(299,214).
att(212,242).
att(135,153).
att(121,158).
att(56,184).
att(289,217).
att(47,188).
att(19,201).
att(276,113).
att(36,193).
att(63,181).
att(260,226).
att(285,111).
att(162,144).
att(17,202).
att(215,241).
att(141,151).
att(259,117).
att(159,145).
att(15,203).
att(124,157).
att(231,124).
att(187,251).
att(257,227).
att(147,149).
att(45,189).
att(54,185).
att(113,280).
att(235,123).
att(85,292).
att(251,119).
att(254,228).
att(7,207).
att(209,130).
att(116,160).
att(92,289).
att(172,141).
att(52,186).
att(103,165).
att(245,231).
att(213,129).
att(264,116).
att(286,111).
att(169,142).
att(66,180).
att(283,219).
att(228,125).
att(98,167).
att(83,293).
att(136,153).
att(26,198).
att(260,117).
att(182,253).
att(153,264).
att(122,158).
att(174,256).
att(267,224).
att(273,114).
att(88,171).
att(139,152).
att(179,139).
att(71,178).
att(142,151).
att(160,145).
att(114,161).
att(252,119).
att(157,146).
att(22,200).
att(64,181).
att(104,284).
att(48,188).
att(154,147).
att(148,149).
att(133,272).
att(283,301).
att(210,130).
att(264,225).
att(221,127).
att(269,115).
att(101,166).
att(161,261).
att(196,248).
att(117,160).
att(81,174).
att(96,168).
att(193,135).
att(134,154).
att(4,209).
att(53,186).
att(233,124).
att(188,251).
att(112,162).
att(95,288).
att(31,196).
att(274,222).
att(151,265).
att(67,180).
att(99,167).
att(270,115).
att(202,246).
att(161,145).
att(143,151).
att(172,257).
att(136,271).
att(107,164).
att(197,134).
att(204,132).
att(152,148).
att(27,198).
att(228,237).
att(271,223).
att(177,140).
att(284,219).
att(72,178).
att(243,232).
att(40,192).
att(234,235).
att(294,216).
att(187,137).
att(159,262).
att(205,245).
att(65,181).
att(119,278).
att(118,160).
att(293,110).
att(275,114).
att(183,253).
att(208,131).
att(97,168).
att(208,244).
att(171,142).
att(154,264).
att(175,256).
att(238,123).
att(298,109).
att(250,120).
att(168,143).
att(63,182).
att(17,203).
att(105,165).
att(181,139).
att(15,204).
att(144,268).
att(278,221).
att(141,152).
att(45,190).
att(267,116).
att(162,261).
att(139,270).
att(11,206).
att(205,132).
att(9,207).
att(144,151).
att(80,175).
att(32,196).
att(227,126).
att(95,169).
att(294,110).
att(188,137).
att(116,161).
att(85,173).
att(73,298).
att(256,228).
att(299,109).
att(28,198).
att(220,128).
att(59,184).
att(251,120).
att(243,122).
att(66,181).
att(152,265).
att(111,163).
att(133,155).
att(26,199).
att(96,288).
att(136,154).
att(244,232).
att(213,130).
att(24,200).
att(122,159).
att(232,236).
att(80,295).
att(132,273).
att(238,234).
att(139,153).
att(199,134).
att(206,132).
att(206,245).
att(163,145).
att(114,162).
att(48,189).
att(142,152).
att(37,194).
att(20,202).
att(260,118).
att(189,137).
att(154,148).
att(101,167).
att(87,292).
att(209,244).
att(35,195).
att(236,124).
att(195,249).
att(96,169).
att(168,259).
att(78,296).
att(69,180).
att(196,135).
att(240,123).
att(14,205).
att(252,120).
att(94,289).
att(62,183).
att(248,121).
att(244,122).
att(101,286).
att(282,113).
att(131,156).
att(173,142).
att(269,116).
att(74,178).
att(225,127).
att(198,248).
att(134,155).
att(193,136).
att(112,163).
att(130,274).
att(183,139).
att(145,268).
att(135,272).
att(99,168).
att(76,297).
att(218,241).
att(123,159).
att(301,109).
att(218,129).
att(27,199).
att(180,140).
att(254,229).
att(115,162).
att(274,115).
att(72,179).
att(155,148).
att(58,185).
att(25,200).
att(292,111).
att(296,216).
att(249,121).
att(285,301).
att(23,201).
att(204,133).
att(102,167).
att(74,298).
att(77,177).
att(288,300).
att(230,237).
att(129,157).
att(242,233).
att(291,299).
att(166,260).
att(239,234).
att(110,164).
att(19,203).
att(92,171).
att(132,156).
att(215,130).
att(36,195).
att(193,250).
att(207,245).
att(104,285).
att(184,139).
att(208,132).
att(133,273).
att(143,269).
att(34,196).
att(234,125).
att(45,191).
att(116,280).
att(275,115).
att(11,207).
att(138,154).
att(165,145).
att(238,124).
att(7,209).
att(100,168).
att(5,210).
att(284,113).
att(68,181).
att(61,184).
att(246,122).
att(169,259).
att(177,256).
att(43,192).
att(108,165).
att(109,283).
att(261,227).
att(70,300).
att(73,179).
att(188,138).
att(280,114).
att(28,199).
att(289,112).
att(267,117).
att(41,193).
att(175,142).
att(219,241).
att(78,177).
att(164,261).
att(133,156).
att(209,132).
att(276,115).
att(202,247).
att(259,119).
att(86,293).
att(252,230).
att(71,180).
att(225,239).
att(251,121).
att(191,251).
att(228,238).
att(166,145).
att(159,263).
att(93,290).
att(205,246).
att(213,131).
att(100,287).
att(224,128).
att(234,236).
att(237,235).
att(284,220).
att(206,133).
att(268,117).
att(148,151).
att(14,206).
att(167,260).
att(194,250).
att(217,130).
att(91,172).
att(295,111).
att(149,267).
att(44,192).
att(129,275).
att(281,221).
att(131,157).
att(236,125).
att(144,269).
att(134,273).
att(203,134).
att(301,215).
att(221,129).
att(162,262).
att(252,121).
att(186,253).
att(67,182).
att(244,123).
att(248,122).
att(278,222).
att(193,137).
att(178,256).
att(183,140).
att(84,175).
att(27,200).
att(291,112).
att(167,145).
att(89,173).
att(40,194).
att(72,180).
att(200,135).
att(200,248).
att(110,283).
att(65,183).
att(288,219).
att(233,126).
att(77,178).
att(102,168).
att(261,119).
att(21,203).
att(177,142).
att(118,162).
att(237,125).
att(197,136).
att(110,165).
att(19,204).
att(257,120).
att(250,231).
att(226,239).
att(173,258).
att(253,121).
att(87,174).
att(92,172).
att(17,205).
att(232,237).
att(244,233).
att(15,206).
att(238,235).
att(283,114).
att(121,161).
att(160,263).
att(87,293).
att(226,128).
att(75,179).
att(54,188).
att(69,301).
att(194,137).
att(184,140).
att(269,225).
att(32,198).
att(120,279).
att(184,254).
att(208,133).
att(100,169).
att(68,182).
att(266,118).
att(209,245).
att(168,260).
att(155,265).
att(181,141).
att(162,147).
att(191,138).
att(147,152).
att(127,159).
att(150,151).
att(212,132).
att(59,186).
att(242,124).
att(198,136).
att(66,183).
att(223,129).
att(76,298).
att(140,271).
att(293,299).
att(260,228).
att(296,298).
att(39,195).
att(271,117).
att(179,256).
att(299,216).
att(99,288).
att(133,157).
att(118,280).
att(216,131).
att(22,203).
att(195,137).
att(48,191).
att(267,118).
att(231,127).
att(169,145).
att(114,164).
att(139,155).
att(123,278).
att(220,130).
att(35,197).
att(251,231).
att(16,206).
att(153,266).
att(259,120).
att(125,160).
att(55,188).
att(227,239).
att(276,116).
att(90,292).
att(12,208).
att(160,148).
att(245,233).
att(96,171).
att(104,286).
att(86,175).
att(154,150).
att(199,136).
att(109,166).
att(6,211).
att(193,251).
att(4,212).
att(72,300).
att(81,296).
att(53,189).
att(189,139).
att(299,111).
att(228,128).
att(281,115).
att(29,200).
att(67,183).
att(210,245).
att(185,254).
att(79,178).
att(210,133).
att(99,170).
att(27,201).
att(177,257).
att(84,176).
att(156,265).
att(236,126).
att(221,130).
att(277,116).
att(123,161).
att(25,202).
att(240,125).
att(58,187).
att(244,124).
att(140,155).
att(115,164).
att(49,191).
att(151,267).
att(143,154).
att(38,196).
att(188,253).
att(290,219).
att(21,204).
att(131,275).
att(146,269).
att(155,150).
att(136,273).
att(282,115).
att(180,256).
att(288,301).
att(291,113).
att(118,163).
att(190,139).
att(97,171).
att(129,159).
att(172,259).
att(70,182).
att(202,248).
att(87,175).
att(291,300).
att(294,299).
att(119,280).
att(13,208).
att(132,158).
att(297,217).
att(105,168).
att(121,162).
att(261,120).
att(174,144).
att(54,189).
att(204,135).
att(237,126).
att(7,211).
att(3,213).
att(222,130).
att(246,233).
att(231,238).
att(287,114).
att(243,234).
att(61,186).
att(171,145).
att(100,170).
att(75,299).
att(124,161).
att(194,138).
att(284,221).
att(95,172).
att(90,174).
att(141,155).
att(165,147).
att(208,134).
att(28,201).
att(292,113).
att(116,164).
att(144,154).
att(230,128).
att(127,160).
att(147,153).
att(162,263).
att(26,202).
att(153,151).
att(191,139).
att(197,250).
att(82,296).
att(265,227).
att(24,203).
att(178,143).
att(119,163).
att(262,120).
att(198,137).
att(111,166).
att(212,133).
att(83,177).
att(22,204).
att(205,135).
att(258,121).
att(242,125).
att(71,182).
att(133,158).
att(175,144).
att(122,279).
att(37,197).
att(64,185).
att(20,205).
att(275,117).
att(18,206).
att(259,229).
att(136,157).
att(189,253).
att(227,129).
att(76,180).
att(284,115).
att(127,277).
att(14,208).
att(12,209).
att(147,269).
att(275,224).
att(142,155).
att(166,147).
att(137,273).
att(173,259).
att(253,231).
att(6,212).
att(4,213).
att(298,112).
att(91,174).
att(220,131).
att(148,153).
att(229,239).
att(128,160).
att(31,200).
att(154,151).
att(160,264).
att(74,181).
att(259,121).
att(179,143).
att(213,133).
att(120,280).
att(104,169).
att(292,300).
att(67,184).
att(131,159).
att(295,299).
att(295,218).
att(301,297).
att(176,144).
att(27,202).
att(269,226).
att(125,278).
att(94,173).
att(85,295).
att(72,182).
att(113,283).
att(65,185).
att(107,168).
att(203,136).
att(49,192).
att(170,146).
att(115,165).
att(292,219).
att(187,254).
att(21,205).
att(92,292).
att(221,131).
att(77,180).
att(236,127).
att(264,120).
att(183,142).
att(102,170).
att(193,139).
att(56,189).
att(47,193).
att(171,260).
att(179,257).
att(149,153).
att(214,133).
att(63,186).
att(260,229).
att(110,167).
att(129,160).
att(180,143).
att(225,130).
att(207,135).
att(201,249).
att(286,115).
att(11,210).
att(273,118).
att(54,190).
att(229,129).
att(1,215).
att(32,200).
att(153,267).
att(254,231).
att(269,119).
att(104,287).
att(182,256).
att(227,240).
att(100,171).
att(291,114).
att(204,136).
att(230,239).
att(265,120).
att(273,225).
att(85,177).
att(171,146).
att(193,252).
att(242,235).
att(28,202).
att(296,218).
att(116,165).
att(161,264).
att(144,155).
att(165,148).
att(66,185).
att(162,149).
att(185,255).
att(103,170).
att(24,204).
att(109,285).
att(181,143).
att(169,261).
att(156,266).
att(95,291).
att(102,288).
att(130,160).
att(230,129).
att(71,183).
att(293,219).
att(37,198).
att(296,299).
att(20,206).
att(213,245).
att(151,268).
att(133,159).
att(198,138).
att(264,228).
att(212,134).
att(280,223).
att(106,169).
att(205,136).
att(188,254).
att(216,244).
att(86,295).
att(136,158).
att(262,121).
att(14,209).
att(136,274).
att(279,117).
att(114,166).
att(261,229).
att(242,126).
att(12,210).
att(101,171).
att(288,115).
att(180,257).
att(219,243).
att(8,212).
att(93,292).
att(185,142).
att(2,215).
att(169,147).
att(258,230).
att(100,289).
att(275,118).
att(86,177).
att(142,156).
att(31,201).
att(53,191).
att(109,168).
att(117,165).
att(191,253).
att(182,143).
att(160,150).
att(271,119).
att(157,151).
att(60,188).
att(124,279).
att(220,132).
att(297,218).
att(79,180).
att(235,128).
att(179,144).
att(120,164).
att(99,172).
att(91,293).
att(263,121).
att(189,141).
att(208,247).
att(271,226).
att(94,174).
att(134,275).
att(98,290).
att(259,122).
att(243,126).
att(255,123).
att(247,125).
att(23,205).
att(65,186).
att(284,222).
att(123,163).
att(38,198).
att(162,264).
att(107,169).
att(276,118).
att(228,130).
att(186,142).
att(217,133).
att(19,207).
att(203,137).
att(210,135).
att(56,190).
att(178,258).
att(157,266).
att(122,280).
att(214,245).
att(265,228).
att(110,285).
att(70,184).
att(281,223).
att(183,143).
att(63,187).
att(15,209).
att(97,173).
att(92,175).
att(268,120).
att(200,250).
att(45,195).
att(152,268).
att(301,217).
att(7,213).
att(54,191).
att(5,214).
att(200,138).
att(297,299).
att(260,122).
att(165,263).
att(244,126).
att(220,243).
att(248,125).
att(80,180).
att(203,249).
att(135,159).
att(95,174).
att(218,133).
att(273,119).
att(124,163).
att(41,197).
att(108,169).
att(116,166).
att(127,162).
att(144,156).
att(155,267).
att(194,140).
att(162,150).
att(22,206).
att(195,252).
att(241,127).
att(119,165).
att(71,184).
att(20,207).
att(257,123).
att(226,131).
att(88,177).
att(93,175).
att(249,125).
att(64,187).
att(253,124).
att(140,273).
att(287,116).
att(198,251).
att(106,170).
att(46,195).
att(55,191).
att(12,211).
att(33,201).
att(171,261).
att(83,297).
att(69,185).
att(74,301).
att(234,129).
att(101,172).
att(4,215).
att(270,120).
att(205,137).
att(292,220).
att(283,117).
att(139,158).
att(96,174).
att(123,280).
att(142,157).
att(145,156).
att(279,118).
att(42,197).
att(209,136).
att(154,153).
att(27,204).
att(148,270).
att(299,218).
att(292,301).
att(138,274).
att(295,300).
att(116,283).
att(25,205).
att(99,173).
att(251,233).
att(231,130).
att(230,240).
att(193,253).
att(179,145).
att(89,177).
att(233,239).
att(236,238).
att(65,187).
att(242,236).
att(239,237).
att(235,129).
att(213,135).
att(206,137).
att(121,281).
att(239,128).
att(169,262).
att(36,200).
att(56,191).
att(263,122).
att(47,195).
att(243,127).
att(102,172).
att(177,259).
att(186,143).
att(298,114).
att(34,201).
att(289,116).
att(283,223).
att(228,131).
att(167,149).
att(151,269).
att(267,228).
att(92,176).
att(114,284).
att(203,138).
att(118,166).
att(210,136).
att(1,217).
att(183,144).
att(136,275).
att(293,220).
att(155,153).
att(141,273).
att(232,130).
att(272,120).
att(280,224).
att(180,145).
att(180,258).
att(100,290).
att(80,181).
att(236,129).
att(119,282).
att(200,139).
att(100,173).
att(240,128).
att(264,122).
att(225,132).
att(281,118).
att(84,297).
att(191,254).
att(290,221).
att(124,164).
att(299,114).
att(124,280).
att(248,126).
att(174,147).
att(256,124).
att(66,187).
att(255,232).
att(225,242).
att(116,167).
att(205,249).
att(167,263).
att(252,233).
att(91,294).
att(204,138).
att(149,270).
att(175,260).
att(231,240).
att(98,291).
att(237,238).
att(184,144).
att(83,180).
att(273,120).
att(233,130).
att(139,274).
att(98,174).
att(119,166).
att(159,152).
att(269,121).
att(16,210).
att(296,300).
att(35,201).
att(186,256).
att(265,122).
att(55,192).
att(133,161).
att(208,137).
att(245,127).
att(291,116).
att(6,215).
att(114,168).
att(69,186).
att(62,189).
att(249,126).
att(81,181).
att(101,173).
att(214,246).
att(91,177).
att(152,269).
att(172,148).
att(287,117).
att(217,245).
att(109,170).
att(212,136).
att(274,120).
att(42,198).
att(262,230).
att(169,149).
att(67,187).
att(142,273).
att(145,157).
att(185,144).
att(51,194).
att(270,121).
att(223,133).
att(291,221).
att(173,261).
att(163,151).
att(283,118).
att(151,155).
att(108,287).
att(266,122).
att(84,180).
att(112,169).
att(101,290).
att(58,191).
att(23,207).
att(49,195).
att(258,124).
att(250,126).
att(254,125).
att(279,119).
att(206,249).
att(229,241).
att(134,161).
att(247,235).
att(56,192).
att(47,196).
att(241,237).
att(176,260).
att(272,227).
att(102,173).
att(235,130).
att(63,189).
att(173,148).
att(126,164).
att(140,274).
att(143,158).
att(7,215).
att(1,218).
att(3,217).
att(110,170).
att(267,122).
att(196,141).
att(118,167).
att(269,228).
att(167,150).
att(243,128).
att(198,252).
att(203,139).
att(158,153).
att(155,154).
att(30,204).
att(266,229).
att(158,267).
att(193,142).
att(298,115).
att(218,245).
att(95,176).
att(104,289).
att(26,206).
att(97,292).
att(200,140).
att(177,147).
att(279,225).
att(190,143).
att(236,130).
att(166,264).
att(108,171).
att(24,207).
att(148,271).
att(138,160).
att(116,284).
att(224,243).
att(103,173).
att(71,186).
att(161,266).
att(299,219).
att(218,135).
att(256,125).
att(18,210).
att(230,241).
att(229,132).
att(147,157).
att(16,211).
att(290,117).
att(130,163).
att(95,293).
att(236,239).
att(194,142).
att(185,257).
att(177,260).
att(126,280).
att(122,166).
att(62,190).
att(270,228).
att(86,297).
att(31,204).
att(295,116).
att(191,143).
att(86,180).
att(96,176).
att(136,276).
att(29,205).
att(107,288).
att(198,141).
att(188,144).
att(27,206).
att(142,159).
att(219,135).
att(51,195).
att(291,117).
att(230,132).
att(79,183).
att(278,120).
att(159,267).
att(185,145).
att(295,301).
att(234,131).
att(151,156).
att(261,231).
att(298,300).
att(112,170).
att(160,153).
att(274,121).
att(112,286).
att(38,201).
att(154,269).
att(167,264).
att(19,210).
att(290,222).
att(134,162).
att(300,219).
att(98,292).
att(107,172).
att(242,129).
att(266,123).
att(115,169).
att(262,124).
att(231,241).
att(301,115).
att(250,127).
att(258,125).
att(63,190).
att(254,126).
att(292,117).
att(199,141).
att(189,144).
att(126,165).
att(5,217).
att(1,219).
att(287,223).
att(92,178).
att(32,204).
att(89,296).
att(206,139).
att(110,171).
att(213,137).
att(110,287).
att(122,282).
att(271,228).
att(186,145).
att(129,164).
att(30,205).
att(178,260).
att(103,290).
att(80,300).
att(68,188).
att(224,134).
att(164,152).
att(152,156).
att(80,183).
att(52,195).
att(28,206).
att(152,270).
att(121,167).
att(183,146).
att(203,140).
att(41,200).
att(115,285).
att(247,128).
att(193,143).
att(293,117).
att(87,297).
att(259,125).
att(251,127).
att(24,208).
att(78,301).
att(124,166).
att(108,172).
att(181,259).
att(232,132).
att(220,245).
att(262,231).
att(94,294).
att(200,141).
att(116,169).
att(160,267).
att(37,202).
att(289,118).
att(298,116).
att(223,244).
att(226,243).
att(93,178).
att(225,134).
att(35,203).
att(240,130).
att(119,168).
att(168,151).
att(285,119).
att(253,234).
att(229,242).
att(296,301).
att(55,194).
att(299,300).
att(76,185).
att(250,235).
att(232,241).
att(218,136).
att(8,216).
att(294,117).
att(264,124).
att(235,240).
att(288,223).
att(281,120).
att(194,143).
att(298,220).
att(31,205).
att(101,175).
att(181,147).
att(86,181).
att(233,132).
att(136,162).
att(290,118).
att(299,116).
att(91,179).
att(277,121).
att(212,248).
att(42,200).
att(125,166).
att(60,192).
att(215,137).
att(237,131).
att(208,139).
att(171,263).
att(51,196).
att(90,296).
att(286,119).
att(25,208).
att(266,230).
att(198,142).
att(97,293).
att(245,129).
att(265,124).
att(84,182).
att(169,151).
att(49,197).
att(219,136).
att(253,127).
att(166,152).
att(65,190).
att(21,210).
att(263,231).
att(131,164).
att(154,156).
att(157,155).
att(221,245).
att(182,259).
att(195,143).
att(36,203).
att(260,232).
att(77,185).
att(278,121).
att(88,297).
att(107,173).
att(134,163).
att(15,213).
att(109,288).
att(202,141).
att(115,170).
att(227,243).
att(238,131).
att(82,183).
att(192,144).
att(9,216).
att(254,234).
att(5,218).
att(276,227).
att(242,130).
att(126,166).
att(233,241).
att(185,258).
att(169,264).
att(110,172).
att(242,238).
att(262,125).
att(250,128).
att(283,120).
att(177,261).
att(143,160).
att(61,192).
att(86,298).
att(114,286).
att(210,249).
att(131,279).
att(206,140).
att(213,138).
att(292,118).
att(146,273).
att(149,158).
att(167,152).
att(136,277).
att(279,121).
att(107,289).
att(270,229).
att(85,182).
att(100,176).
att(158,155).
att(73,187).
att(50,197).
att(288,119).
att(239,131).
att(297,117).
att(22,210).
att(108,173).
att(124,167).
att(180,148).
att(78,185).
att(116,170).
att(219,246).
att(112,287).
att(18,212).
att(191,256).
att(71,188).
att(259,126).
att(154,270).
att(200,142).
att(16,213).
att(141,161).
att(280,226).
att(129,280).
att(222,245).
att(82,300).
att(119,169).
att(183,259).
att(144,274).
att(33,205).
att(147,159).
att(6,218).
att(4,219).
att(2,220).
att(228,243).
att(194,255).
att(165,153).
att(69,189).
att(289,119).
att(44,200).
att(300,220).
att(234,241).
att(89,297).
att(114,171).
att(246,237).
att(243,238).
att(244,130).
att(103,291).
att(170,264).
att(287,224).
att(256,127).
att(294,118).
att(40,202).
att(25,209).
att(297,221).
att(117,170).
att(222,136).
att(152,271).
att(79,185).
att(214,248).
att(208,140).
att(142,161).
att(23,210).
att(58,194).
att(165,266).
att(277,122).
att(49,198).
att(142,275).
att(172,151).
att(299,117).
att(65,191).
att(188,146).
att(94,179).
att(169,152).
att(181,260).
att(131,165).
att(120,284).
att(265,231).
att(166,153).
att(17,213).
att(157,156).
att(15,214).
att(203,252).
att(212,139).
att(230,134).
att(261,126).
att(123,168).
att(195,144).
att(253,128).
att(257,127).
att(223,245).
att(102,176).
att(282,121).
att(113,287).
att(226,244).
att(87,182).
att(234,133).
att(97,178).
att(206,251).
att(192,145).
att(75,187).
att(106,290).
att(30,207).
att(232,242).
att(145,274).
att(176,150).
att(118,285).
att(83,300).
att(80,185).
att(189,146).
att(129,166).
att(199,143).
att(220,137).
att(100,177).
att(296,118).
att(298,221).
att(187,258).
att(266,125).
att(113,172).
att(152,158).
att(90,181).
att(198,254).
att(262,126).
att(24,210).
att(171,264).
att(111,288).
att(90,297).
att(258,127).
att(158,269).
att(283,121).
att(285,225).
att(81,301).
att(235,133).
att(20,212).
att(57,195).
att(301,117).
att(18,213).
att(190,257).
att(71,189).
att(138,163).
att(180,149).
att(83,184).
att(133,279).
att(116,286).
att(16,214).
att(210,140).
att(275,123).
att(138,277).
att(88,298).
att(93,180).
att(141,162).
att(228,135).
att(271,124).
att(8,218).
att(33,206).
att(297,118).
att(204,252).
att(76,187).
att(95,295).
att(121,284).
att(251,129).
att(130,166).
att(193,256).
att(147,160).
att(171,152).
att(69,190).
att(44,201).
att(31,207).
att(165,154).
att(162,155).
att(159,156).
att(126,282).
att(86,183).
att(169,265).
att(251,236).
att(96,179).
att(91,181).
att(74,188).
att(177,262).
att(248,237).
att(27,209).
att(151,272).
att(239,240).
att(131,280).
att(196,255).
att(67,191).
att(218,138).
att(194,145).
att(146,274).
att(181,149).
att(100,293).
att(229,135).
att(273,229).
att(49,199).
att(72,189).
att(264,126).
att(286,225).
att(199,254).
att(256,128).
att(260,127).
att(99,178).
att(270,230).
att(175,151).
att(19,213).
att(94,180).
att(216,248).
att(172,152).
att(296,222).
att(112,288).
att(281,122).
att(188,147).
att(56,196).
att(15,215).
att(77,187).
att(237,133).
att(198,144).
att(13,216).
att(166,154).
att(283,226).
att(154,158).
att(226,136).
att(163,155).
att(160,156).
att(98,294).
att(70,190).
att(277,123).
att(185,148).
att(134,165).
att(149,273).
att(102,177).
att(32,207).
att(222,246).
att(293,223).
att(139,277).
att(92,181).
att(175,263).
att(205,252).
att(249,130).
att(75,188).
att(43,202).
att(286,121).
att(126,168).
att(68,191).
att(228,244).
att(140,163).
att(179,150).
att(110,289).
att(192,146).
att(255,235).
att(80,186).
att(41,203).
att(300,301).
att(105,176).
att(129,167).
att(186,259).
att(170,265).
att(157,270).
att(238,133).
att(146,161).
att(173,152).
att(90,182).
att(113,173).
att(149,160).
att(39,204).
att(132,166).
att(115,287).
att(87,299).
att(186,148).
att(20,213).
att(78,187).
att(108,175).
att(271,230).
att(18,214).
att(266,126).
att(183,149).
att(262,127).
att(64,193).
att(14,216).
att(138,164).
att(173,264).
att(12,217).
att(283,122).
att(55,197).
att(193,146).
att(33,207).
att(2,222).
att(217,139).
att(76,188).
att(220,247).
att(279,123).
att(239,133).
att(44,202).
att(69,191).
att(174,152).
att(130,167).
att(281,227).
att(200,144).
att(275,124).
att(29,209).
att(259,234).
att(99,294).
att(247,131).
att(176,263).
att(153,159).
att(135,279).
att(96,180).
att(74,189).
att(255,129).
att(118,286).
att(259,128).
att(51,199).
att(197,145).
att(25,211).
att(163,268).
att(184,149).
att(236,134).
att(125,169).
att(79,187).
att(225,137).
att(23,212).
att(123,284).
att(171,265).
att(158,270).
att(179,262).
att(99,179).
att(178,151).
att(112,174).
att(289,121).
att(175,152).
att(272,125).
att(248,131).
att(13,217).
att(148,161).
att(172,153).
att(268,126).
att(166,267).
att(9,219).
att(70,191).
att(7,220).
att(5,221).
att(3,222).
att(166,155).
att(157,158).
att(32,208).
att(123,170).
att(54,198).
att(266,232).
att(174,264).
att(115,173).
att(102,178).
att(87,184).
att(102,293).
att(226,137).
att(281,123).
att(30,209).
att(204,253).
att(75,189).
att(219,139).
att(224,246).
att(195,146).
att(212,141).
att(110,175).
att(28,210).
att(277,124).
att(126,283).
att(118,172).
att(245,132).
att(230,136).
att(292,224).
att(279,228).
att(207,252).
att(257,235).
att(105,177).
att(299,119).
att(129,168).
att(192,147).
att(59,196).
att(254,236).
att(151,273).
att(253,130).
att(50,200).
att(100,179).
att(196,256).
att(257,129).
att(146,275).
att(209,142).
att(121,171).
att(216,140).
att(276,229).
att(210,251).
att(245,239).
att(149,161).
att(189,148).
att(78,188).
att(167,155).
att(84,301).
att(282,123).
att(155,159).
att(299,222).
att(199,255).
att(124,284).
att(46,202).
att(10,219).
att(88,184).
att(286,226).
att(246,132).
att(274,125).
att(76,189).
att(270,126).
att(202,254).
att(267,232).
att(203,144).
att(119,172).
att(149,274).
att(53,199).
att(177,152).
att(283,227).
att(144,276).
att(175,264).
att(283,123).
att(174,153).
att(42,204).
att(190,148).
att(27,211).
att(150,161).
att(114,174).
att(225,246).
att(91,183).
att(110,290).
att(162,269).
att(243,133).
att(162,157).
att(103,293).
att(187,149).
att(207,143).
att(301,119).
att(275,125).
att(23,213).
att(255,236).
att(109,176).
att(79,188).
att(197,146).
att(271,126).
att(127,283).
att(21,214).
att(117,173).
att(240,241).
att(246,239).
att(104,178).
att(84,186).
att(87,300).
att(263,128).
att(65,194).
att(139,165).
att(211,251).
att(204,144).
att(89,184).
att(99,180).
att(17,216).
att(236,135).
att(94,182).
att(142,164).
att(47,202).
att(15,217).
att(108,291).
att(94,297).
att(120,172).
att(101,294).
att(175,153).
att(131,168).
att(3,223).
att(293,121).
att(172,154).
att(32,209).
att(123,171).
att(102,179).
att(87,185).
att(188,149).
att(157,159).
att(163,157).
att(30,210).
att(215,141).
att(233,136).
att(289,122).
att(284,227).
att(220,248).
att(92,298).
att(52,200).
att(298,120).
att(106,292).
att(110,176).
att(285,123).
att(237,135).
att(41,205).
att(294,224).
att(205,144).
att(182,151).
att(281,228).
att(105,178).
att(59,197).
att(212,142).
att(24,213).
att(129,169).
att(277,125).
att(176,153).
att(20,215).
att(253,237).
att(291,225).
att(235,243).
att(48,202).
att(249,132).
att(173,154).
att(18,216).
att(244,240).
att(97,296).
att(170,155).
att(216,141).
att(257,130).
att(155,160).
att(71,192).
att(64,195).
att(14,218).
att(261,129).
att(275,230).
att(83,187).
att(124,171).
att(286,123).
att(288,226).
att(4,223).
att(2,224).
att(133,281).
att(227,138).
att(148,275).
att(143,277).
att(298,223).
att(196,147).
att(31,210).
att(109,291).
att(218,249).
att(231,137).
att(285,227).
att(274,126).
att(203,145).
att(250,132).
att(27,212).
att(204,254).
att(86,186).
att(224,139).
att(295,224).
att(86,301).
att(266,128).
att(114,175).
att(122,172).
att(217,141).
att(282,228).
att(114,289).
att(190,149).
att(171,155).
att(153,161).
att(169,267).
att(200,146).
att(165,157).
att(207,253).
att(162,158).
att(185,261).
att(151,274).
att(228,138).
att(38,207).
att(136,280).
att(117,174).
att(72,192).
att(292,225).
att(243,134).
att(84,187).
att(36,208).
att(210,252).
att(236,243).
att(94,183).
att(292,122).
att(245,240).
att(276,230).
att(11,220).
att(251,132).
att(271,127).
att(7,222).
att(112,290).
att(213,251).
att(63,196).
att(3,224).
att(225,139).
att(259,130).
att(263,129).
att(178,153).
att(236,136).
att(288,123).
att(32,210).
att(218,141).
att(107,178).
att(98,296).
att(54,200).
att(148,163).
att(172,155).
att(240,135).
att(201,146).
att(115,175).
att(270,232).
att(97,182).
att(229,138).
att(202,255).
att(167,268).
att(157,160).
att(160,159).
att(28,212).
att(280,125).
att(188,150).
att(222,140).
att(41,206).
att(267,233).
att(175,265).
att(296,224).
att(80,189).
att(118,174).
att(140,166).
att(105,179).
att(256,131).
att(268,128).
att(226,139).
att(100,181).
att(261,235).
att(20,216).
att(228,246).
att(157,272).
att(37,208).
att(258,236).
att(121,173).
att(48,203).
att(87,301).
att(115,289).
att(241,135).
att(192,149).
att(132,169).
att(234,244).
att(35,209).
att(64,196).
att(173,155).
att(281,125).
att(246,240).
att(245,134).
att(94,298).
att(243,241).
att(108,292).
att(10,221).
att(155,161).
att(124,172).
att(103,180).
att(158,160).
att(161,159).
att(165,269).
att(88,186).
att(249,133).
att(120,287).
att(199,147).
att(300,223).
att(189,260).
att(214,251).
att(31,211).
att(290,123).
att(186,151).
att(261,130).
att(127,171).
att(227,139).
att(206,145).
att(217,250).
att(183,152).
att(42,206).
att(144,165).
att(74,192).
att(220,249).
att(101,181).
att(25,214).
att(67,195).
att(168,268).
att(40,207).
att(295,122).
att(193,149).
att(203,146).
att(23,215).
att(140,279).
att(174,155).
att(133,169).
att(153,162).
att(210,144).
att(38,208).
att(49,203).
att(235,137).
att(291,123).
att(168,157).
att(165,158).
att(258,131).
att(281,229).
att(262,130).
att(111,291).
att(300,121).
att(187,151).
att(239,136).
att(232,245).
att(104,294).
att(99,182).
att(11,221).
att(171,267).
att(9,222).
att(250,239).
att(128,284).
att(247,240).
att(5,224).
att(3,225).
att(291,226).
att(142,166).
att(296,122).
att(120,174).
att(153,274).
att(232,138).
att(301,223).
att(82,189).
att(107,179).
att(166,269).
att(275,127).
att(251,133).
att(87,187).
att(109,292).
att(95,298).
att(288,227).
att(271,128).
att(211,144).
att(61,198).
att(123,173).
att(236,137).
att(102,295).
att(28,213).
att(121,287).
att(52,202).
att(154,162).
att(218,250).
att(157,161).
att(41,207).
att(288,124).
att(166,158).
att(26,214).
att(163,159).
att(161,271).
att(110,178).
att(80,190).
att(229,139).
att(137,168).
att(204,255).
att(208,145).
att(193,259).
att(73,193).
att(22,216).
att(222,141).
att(66,196).
att(215,143).
att(169,268).
att(100,182).
att(233,138).
att(151,275).
att(295,225).
att(100,296).
att(18,218).
att(113,177).
att(293,123).
att(276,127).
att(57,200).
att(227,247).
att(179,154).
att(268,129).
att(237,137).
att(12,221).
att(10,222).
att(176,155).
att(279,230).
att(8,223).
att(254,238).
att(292,226).
att(152,163).
att(239,243).
att(248,240).
att(116,176).
att(245,241).
att(135,169).
att(93,185).
att(285,125).
att(159,272).
att(199,257).
att(180,264).
att(245,135).
att(289,227).
att(81,190).
att(216,251).
att(134,282).
att(117,289).
att(141,167).
att(257,132).
att(206,146).
att(130,171).
att(227,140).
att(144,166).
att(91,186).
att(180,154).
att(220,142).
att(122,287).
att(162,271).
att(222,249).
att(299,122).
att(205,255).
att(174,156).
att(231,139).
att(194,259).
att(171,157).
att(127,285).
att(125,173).
att(170,268).
att(115,290).
att(295,123).
att(278,127).
att(235,138).
att(34,211).
att(231,246).
att(258,237).
att(274,128).
att(7,224).
att(280,230).
att(1,227).
att(270,129).
att(291,124).
att(70,195).
att(211,253).
att(207,146).
att(120,175).
att(239,137).
att(240,243).
att(120,288).
att(197,149).
att(246,241).
att(300,122).
att(214,144).
att(277,231).
att(243,136).
att(290,227).
att(102,182).
att(61,199).
att(173,267).
att(75,193).
att(194,150).
att(232,139).
att(115,177).
att(123,174).
att(274,232).
att(92,300).
att(41,208).
att(225,141).
att(130,284).
att(80,191).
att(169,158).
att(218,143).
att(271,233).
att(166,159).
att(236,138).
att(192,260).
att(50,204).
att(255,133).
att(135,282).
att(22,217).
att(118,176).
att(73,194).
att(85,189).
att(140,280).
att(145,278).
att(176,266).
att(37,210).
att(297,225).
att(95,185).
att(208,146).
att(288,125).
att(57,201).
att(113,178).
att(163,271).
att(35,211).
att(123,287).
att(64,198).
att(262,236).
att(71,195).
att(297,123).
att(83,190).
att(4,226).
att(2,227).
att(55,202).
att(149,165).
att(256,238).
att(179,265).
att(235,245).
att(31,213).
att(116,290).
att(253,239).
att(93,186).
att(44,207).
att(238,244).
att(153,275).
att(250,240).
att(170,158).
att(148,277).
att(167,159).
att(291,227).
att(95,299).
att(289,125).
att(42,208).
att(230,140).
att(215,252).
att(190,261).
att(121,288).
att(119,176).
att(201,257).
att(199,149).
att(74,194).
att(182,264).
att(67,197).
att(234,139).
att(249,135).
att(281,127).
att(144,167).
att(126,286).
att(21,218).
att(38,210).
att(180,155).
att(156,274).
att(298,225).
att(221,250).
att(19,219).
att(133,171).
att(131,284).
att(107,294).
att(150,165).
att(177,156).
att(220,143).
att(261,132).
att(269,130).
att(100,297).
att(84,190).
att(224,249).
att(15,221).
att(266,235).
att(136,282).
att(153,164).
att(141,280).
att(104,182).
att(117,177).
att(136,170).
att(207,255).
att(9,224).
att(3,227).
att(196,259).
att(210,146).
att(260,237).
att(224,142).
att(128,173).
att(257,238).
att(282,127).
att(235,139).
att(98,298).
att(172,268).
att(105,295).
att(239,244).
att(278,128).
att(184,154).
att(199,258).
att(28,215).
att(274,129).
att(258,133).
att(262,132).
att(52,204).
att(154,275).
att(181,155).
att(221,143).
att(26,216).
att(123,175).
att(148,166).
att(149,277).
att(134,171).
att(80,192).
att(204,148).
att(154,164).
att(50,205).
att(232,140).
att(287,126).
att(300,123).
att(66,198).
att(183,264).
att(122,288).
att(103,296).
att(137,170).
att(20,219).
att(218,144).
att(18,220).
att(201,149).
att(251,135).
att(236,139).
att(286,229).
att(279,128).
att(188,153).
att(140,169).
att(127,286).
att(78,193).
att(14,222).
att(113,179).
att(12,223).
att(115,291).
att(208,147).
att(71,196).
att(292,125).
att(2,228).
att(208,255).
att(94,300).
att(137,282).
att(101,297).
att(301,123).
att(288,126).
att(31,214).
att(197,259).
att(149,166).
att(44,208).
att(195,151).
att(116,178).
att(233,140).
att(234,246).
att(165,271).
att(152,165).
att(176,157).
att(255,239).
att(284,127).
att(237,245).
att(155,164).
att(192,152).
att(158,163).
att(280,128).
att(219,144).
att(173,268).
att(125,287).
att(160,273).
att(214,253).
att(181,265).
att(119,177).
att(106,182).
att(272,130).
att(106,295).
att(293,125).
att(268,131).
att(155,275).
att(209,147).
att(274,233).
att(199,150).
att(223,143).
att(49,206).
att(168,270).
att(192,261).
att(203,257).
att(79,193).
att(122,176).
att(19,220).
att(17,221).
att(147,167).
att(72,196).
att(176,267).
att(184,264).
att(180,156).
att(15,222).
att(150,166).
att(111,293).
att(268,235).
att(163,272).
att(206,256).
att(281,128).
att(56,203).
att(104,296).
att(213,146).
att(195,260).
att(1,229).
att(3,228).
att(277,129).
att(156,164).
att(77,194).
att(32,214).
att(265,132).
att(158,274).
att(229,248).
att(112,180).
att(139,170).
att(54,204).
att(128,174).
att(30,215).
att(290,126).
att(256,239).
att(187,154).
att(246,137).
att(212,254).
att(241,244).
att(102,184).
att(244,243).
att(92,188).
att(184,155).
att(197,151).
att(24,218).
att(254,135).
att(201,258).
att(291,228).
att(22,219).
att(178,157).
att(239,139).
att(161,273).
att(194,152).
att(66,199).
att(266,132).
att(172,159).
att(243,138).
att(166,161).
att(163,162).
att(48,207).
att(204,257).
att(100,185).
att(169,270).
att(221,251).
att(12,224).
att(247,137).
att(269,235).
att(64,200).
att(146,279).
att(2,229).
att(224,250).
att(33,214).
att(143,169).
att(207,256).
att(266,236).
att(227,249).
att(279,129).
att(229,142).
att(182,156).
att(230,248).
att(105,296).
att(222,144).
att(124,176).
att(210,255).
att(195,152).
att(257,239).
att(129,286).
att(236,246).
att(27,217).
att(176,158).
att(180,266).
att(154,276).
att(245,243).
att(25,218).
att(161,163).
att(288,127).
att(167,161).
att(119,178).
att(248,137).
att(226,143).
att(23,219).
att(167,271).
att(202,150).
att(101,185).
att(237,140).
att(96,300).
att(103,297).
att(114,180).
att(186,155).
att(276,130).
att(144,169).
att(289,229).
att(65,200).
att(72,197).
att(15,223).
att(183,156).
att(147,168).
att(133,173).
att(127,287).
att(205,257).
att(56,204).
att(34,214).
att(9,226).
att(194,261).
att(299,226).
att(180,157).
att(89,190).
att(104,184).
att(1,230).
att(206,149).
att(286,230).
att(152,277).
att(156,165).
att(186,264).
att(101,298).
att(137,283).
att(213,147).
att(159,164).
att(54,205).
att(285,128).
att(168,161).
att(228,249).
att(112,181).
att(120,290).
att(298,125).
att(231,248).
att(28,217).
att(257,135).
att(211,255).
att(273,131).
att(68,199).
att(41,211).
att(102,185).
att(187,155).
att(200,151).
att(252,241).
att(24,219).
att(293,228).
att(123,177).
att(184,156).
att(50,207).
att(148,168).
att(155,276).
att(277,233).
att(20,221).
att(151,167).
att(85,192).
att(250,137).
att(37,213).
att(178,158).
att(168,271).
att(228,143).
att(126,176).
att(299,125).
att(290,229).
att(194,153).
att(254,136).
att(221,145).
att(172,160).
att(14,224).
att(258,135).
att(278,130).
att(166,162).
att(176,268).
att(220,252).
att(111,294).
att(262,134).
att(191,154).
att(71,198).
att(46,209).
att(232,142).
att(287,230).
att(55,205).
att(188,155).
att(108,183).
att(218,146).
att(158,275).
att(88,191).
att(132,174).
att(62,202).
att(103,185).
att(146,169).
att(93,189).
att(209,256).
att(69,199).
att(287,128).
att(133,285).
att(116,180).
att(251,137).
att(208,149).
att(179,267).
att(262,238).
att(182,157).
att(138,283).
att(232,248).
att(148,279).
att(283,129).
att(229,143).
att(81,194).
att(215,147).
att(25,219).
att(222,145).
att(240,140).
att(281,232).
att(121,290).
att(51,207).
att(253,241).
att(74,197).
att(127,176).
att(173,160).
att(271,132).
att(167,162).
att(21,221).
att(91,190).
att(192,154).
att(174,269).
att(38,213).
att(161,274).
att(292,127).
att(114,293).
att(114,181).
att(248,138).
att(291,229).
att(288,128).
att(218,253).
att(193,262).
att(34,215).
att(136,284).
att(169,271).
att(199,152).
att(3,230).
att(146,280).
att(183,157).
att(280,130).
att(185,265).
att(150,168).
att(94,189).
att(32,216).
att(125,177).
att(268,133).
att(136,173).
att(177,159).
att(30,217).
att(124,289).
att(156,166).
att(82,194).
att(227,250).
att(234,142).
att(128,176).
att(193,154).
att(139,172).
att(213,148).
att(249,138).
att(52,207).
att(227,144).
att(289,128).
att(129,287).
att(68,200).
att(203,151).
att(92,190).
att(154,277).
att(24,220).
att(257,240).
att(145,170).
att(139,283).
att(210,149).
att(144,281).
att(110,295).
att(261,135).
att(184,157).
att(224,145).
att(37,214).
att(122,290).
att(216,254).
att(202,259).
att(181,158).
att(90,191).
att(183,266).
att(276,234).
att(178,159).
att(100,187).
att(235,142).
att(78,196).
att(219,253).
att(64,202).
att(6,229).
att(4,230).
att(2,231).
att(71,199).
att(33,216).
att(166,163).
att(221,146).
att(194,262).
att(204,151).
att(129,176).
att(132,286).
att(222,252).
att(31,217).
att(152,278).
att(44,211).
att(137,284).
att(278,131).
att(120,291).
att(29,218).
att(211,149).
att(274,132).
att(266,134).
att(132,175).
att(270,133).
att(267,237).
att(218,147).
att(225,145).
att(185,157).
att(264,238).
att(81,195).
att(231,249).
att(113,294).
att(25,220).
att(182,158).
att(211,256).
att(111,183).
att(23,221).
att(173,270).
att(99,300).
att(251,138).
att(229,144).
att(181,267).
att(119,180).
att(38,214).
att(246,244).
att(255,137).
att(240,141).
att(283,130).
att(58,205).
att(167,163).
att(259,136).
att(150,279).
att(145,281).
att(65,202).
att(271,133).
att(233,143).
att(212,149).
att(122,179).
att(11,227).
att(203,259).
att(5,230).
att(1,232).
att(219,147).
att(3,231).
att(290,230).
att(133,175).
att(163,274).
att(77,197).
att(94,190).
att(99,188).
att(117,181).
att(125,178).
att(70,200).
att(209,150).
att(271,236).
att(30,218).
att(195,262).
att(136,174).
att(116,293).
att(287,231).
att(226,251).
att(174,161).
att(209,257).
att(138,284).
att(120,180).
att(162,165).
att(171,162).
att(276,132).
att(87,193).
att(265,238).
att(107,185).
att(268,134).
att(297,127).
att(245,140).
att(102,187).
att(234,143).
att(24,221).
att(121,291).
att(232,249).
att(97,189).
att(213,149).
att(203,152).
att(190,156).
att(249,139).
att(256,241).
att(73,199).
att(244,245).
att(250,243).
att(37,215).
att(187,157).
att(110,184).
att(148,170).
att(48,210).
att(57,206).
att(184,158).
att(107,297).
att(278,234).
att(12,227).
att(156,277).
att(217,148).
att(100,188).
att(10,228).
att(181,159).
att(78,197).
att(8,229).
att(4,231).
att(298,127).
att(151,279).
att(71,200).
att(193,263).
att(146,281).
att(157,167).
att(160,166).
att(113,183).
att(246,140).
att(163,165).
att(83,195).
att(129,177).
att(121,180).
att(214,149).
att(62,204).
att(164,274).
att(29,219).
att(288,231).
att(207,258).
att(105,298).
att(143,172).
att(42,213).
att(239,142).
att(27,220).
att(254,138).
att(188,157).
att(159,276).
att(211,150).
att(124,179).
att(266,238).
att(172,271).
att(25,221).
att(81,196).
att(258,137).
att(285,232).
att(210,257).
att(188,265).
att(180,268).
att(278,132).
att(218,148).
att(23,222).
att(266,135).
att(67,202).
att(260,240).
att(198,154).
att(38,215).
att(208,151).
att(247,140).
att(19,224).
att(239,247).
att(167,273).
att(103,299).
att(122,291).
att(176,161).
att(79,197).
att(195,155).
att(215,149).
att(191,264).
att(167,164).
att(114,183).
att(222,147).
att(47,211).
att(9,229).
att(192,156).
att(122,180).
att(84,195).
att(115,294).
att(212,150).
att(157,277).
att(202,153).
att(133,176).
att(63,204).
att(263,136).
att(94,191).
att(101,300).
att(147,171).
att(194,263).
att(70,201).
att(170,272).
att(117,182).
att(226,146).
att(30,219).
att(273,236).
att(137,285).
att(147,281).
att(186,266).
att(136,175).
att(209,151).
att(237,143).
att(153,169).
att(225,252).
att(208,258).
att(156,168).
att(68,202).
att(216,149).
att(267,238).
att(125,290).
att(174,162).
att(24,222).
att(288,130).
att(168,164).
att(206,152).
att(22,223).
att(211,257).
att(160,276).
att(59,206).
att(189,265).
att(234,249).
att(283,233).
att(213,150).
att(37,216).
att(245,141).
att(118,293).
att(190,157).
att(145,172).
att(214,256).
att(297,128).
att(243,246).
att(110,185).
att(246,245).
att(148,171).
att(105,187).
att(238,143).
att(100,189).
att(78,198).
att(2,233).
att(217,255).
att(46,212).
att(293,230).
att(33,218).
att(184,267).
att(113,184).
att(257,138).
att(242,142).
att(44,213).
att(140,174).
att(62,205).
att(206,259).
att(116,294).
att(108,186).
att(265,136).
att(246,141).
att(235,144).
att(153,279).
att(138,285).
att(226,252).
att(102,300).
att(191,157).
att(228,146).
att(116,183).
att(25,222).
att(143,283).
att(209,258).
att(81,197).
att(146,172).
att(51,210).
att(40,215).
att(294,129).
att(121,292).
att(198,262).
att(201,154).
att(38,216).
att(185,159).
att(49,211).
att(152,170).
att(297,229).
att(258,138).
att(235,249).
att(182,160).
att(259,241).
att(225,147).
att(101,189).
att(243,142).
att(238,248).
att(198,155).
att(262,137).
att(282,132).
att(241,247).
att(208,152).
att(266,136).
att(253,243).
att(158,168).
att(65,204).
att(278,133).
att(281,234).
att(156,278).
att(141,174).
att(84,196).
att(215,150).
att(109,186).
att(32,219).
att(146,282).
att(205,153).
att(222,148).
att(144,173).
att(104,188).
att(133,177).
att(99,190).
att(54,209).
att(291,130).
att(147,172).
att(291,231).
att(202,154).
att(287,131).
att(259,138).
att(233,145).
att(186,159).
att(207,259).
att(136,176).
att(224,253).
att(52,210).
att(26,222).
att(153,170).
att(75,200).
att(269,238).
att(209,152).
att(120,182).
att(180,161).
att(177,162).
att(39,216).
att(50,211).
att(230,251).
att(59,207).
att(196,156).
att(171,164).
att(149,281).
att(233,250).
att(115,184).
att(236,249).
att(213,257).
att(48,212).
att(145,173).
att(57,208).
att(35,218).
att(12,229).
att(242,247).
att(254,243).
att(213,151).
att(134,177).
att(8,231).
att(284,132).
att(105,188).
att(234,145).
att(4,233).
att(295,230).
att(216,256).
att(95,192).
att(280,133).
att(64,205).
att(115,295).
att(118,183).
att(220,149).
att(268,136).
att(227,147).
att(157,278).
att(184,160).
att(83,197).
att(154,170).
att(181,161).
att(170,273).
att(29,221).
att(62,206).
att(129,179).
att(142,284).
att(140,175).
att(160,168).
att(88,195).
att(76,200).
att(53,210).
att(178,270).
att(273,237).
att(242,143).
att(143,174).
att(208,259).
att(113,296).
att(165,275).
att(225,253).
att(285,132).
att(51,211).
att(270,238).
att(235,145).
att(146,173).
att(269,136).
att(111,186).
att(86,196).
att(173,272).
att(188,159).
att(49,212).
att(264,240).
att(201,155).
att(36,218).
att(185,160).
att(96,192).
att(200,262).
att(79,199).
att(237,249).
att(258,242).
att(11,230).
att(254,140).
att(47,213).
att(72,202).
att(218,150).
att(255,243).
att(111,297).
att(296,230).
att(1,235).
att(114,185).
att(225,148).
att(258,139).
att(84,197).
att(123,292).
att(176,163).
att(208,153).
att(130,179).
att(173,164).
att(170,165).
att(122,182).
att(262,138).
att(282,133).
att(266,137).
att(274,135).
att(236,145).
att(70,203).
att(54,210).
att(94,193).
att(215,151).
att(128,290).
att(99,191).
att(299,129).
att(28,222).
att(147,173).
att(206,260).
att(41,216).
att(112,186).
att(75,201).
att(148,282).
att(255,140).
att(271,238).
att(153,171).
att(120,183).
att(22,225).
att(39,217).
att(259,139).
att(226,148).
att(102,190).
att(300,229).
att(229,252).
att(18,227).
att(279,134).
att(66,205).
att(232,251).
att(168,166).
att(16,228).
att(212,258).
att(196,157).
att(131,179).
att(107,299).
att(216,151).
att(230,147).
att(131,289).
att(238,249).
att(8,232).
att(4,234).
att(2,235).
att(241,248).
att(256,243).
att(46,214).
att(105,189).
att(244,247).
att(247,246).
att(136,287).
att(119,294).
att(100,191).
att(71,203).
att(190,159).
att(281,235).
att(55,210).
att(256,140).
att(203,155).
att(193,265).
att(288,132).
att(204,261).
att(294,231).
att(137,177).
att(29,222).
att(278,236).
att(124,292).
att(177,271).
att(264,138).
att(284,133).
att(105,300).
att(280,134).
att(164,276).
att(276,135).
att(272,136).
att(129,180).
att(157,170).
att(108,188).
att(140,176).
att(160,169).
att(178,163).
att(275,237).
att(207,260).
att(129,290).
att(98,192).
att(175,164).
att(197,157).
att(172,165).
att(166,167).
att(196,264).
att(40,217).
att(60,208).
att(51,212).
att(117,295).
att(143,175).
att(224,149).
att(139,286).
att(210,259).
att(146,174).
att(257,140).
att(86,197).
att(49,213).
att(214,152).
att(289,132).
att(122,293).
att(204,155).
att(135,178).
att(199,263).
att(266,240).
att(106,189).
att(96,193).
att(246,143).
att(265,138).
att(221,150).
att(127,181).
att(65,206).
att(11,231).
att(236,250).
att(277,135).
att(5,234).
att(1,236).
att(239,249).
att(211,153).
att(114,186).
att(254,244).
att(239,145).
att(245,247).
att(298,130).
att(198,157).
att(218,151).
att(122,183).
att(254,141).
att(173,165).
att(225,149).
att(294,131).
att(70,204).
att(94,194).
att(104,190).
att(137,287).
att(258,140).
att(147,283).
att(290,132).
att(133,179).
att(61,208).
att(178,271).
att(192,159).
att(222,255).
att(205,155).
att(266,138).
att(270,137).
att(222,150).
att(24,225).
att(87,197).
att(208,260).
att(39,218).
att(20,227).
att(289,233).
att(228,253).
att(156,171).
att(255,141).
att(118,295).
att(199,157).
att(181,270).
att(155,280).
att(231,252).
att(226,149).
att(244,144).
att(259,140).
att(165,168).
att(85,198).
att(35,220).
att(12,231).
att(291,132).
att(286,234).
att(150,282).
att(168,167).
att(234,251).
att(145,284).
att(10,232).
att(123,183).
att(111,298).
att(6,234).
att(2,236).
att(263,139).
att(287,133).
att(261,242).
att(214,258).
att(104,301).
att(46,215).
att(33,221).
att(267,138).
att(248,143).
att(95,194).
att(283,235).
att(193,159).
att(252,245).
att(55,211).
att(118,185).
att(148,174).
att(217,257).
att(190,160).
att(83,199).
att(151,173).
att(213,153).
att(113,187).
att(76,202).
att(27,224).
att(133,289).
att(293,232).
att(220,151).
att(171,274).
att(277,237).
att(93,195).
att(138,287).
att(98,193).
att(148,283).
att(160,170).
att(40,218).
att(121,294).
att(288,133).
att(187,268).
att(172,166).
att(169,167).
att(21,227).
att(197,158).
att(143,176).
att(280,135).
att(132,180).
att(67,206).
att(272,137).
att(74,203).
att(249,143).
att(217,152).
att(19,228).
att(86,198).
att(207,155).
att(17,229).
att(111,188).
att(15,230).
att(253,142).
att(91,196).
att(300,230).
att(287,234).
att(297,131).
att(79,201).
att(242,145).
att(149,174).
att(47,215).
att(265,241).
att(204,156).
att(235,251).
att(188,161).
att(119,295).
att(136,288).
att(138,178).
att(284,235).
att(114,187).
att(141,286).
att(169,275).
att(182,163).
att(130,181).
att(281,135).
att(109,189).
att(141,177).
att(70,205).
att(124,293).
att(43,217).
att(250,143).
att(164,169).
att(176,165).
att(104,191).
att(239,146).
att(198,158).
att(173,166).
att(99,193).
att(218,152).
att(185,269).
att(232,148).
att(82,200).
att(52,213).
att(129,291).
att(75,203).
att(207,261).
att(159,279).
att(87,198).
att(258,141).
att(192,160).
att(22,227).
att(224,255).
att(134,289).
att(215,153).
att(205,156).
att(136,179).
att(50,214).
att(110,299).
att(107,190).
att(59,210).
att(262,140).
att(188,268).
att(247,144).
att(272,239).
att(122,294).
att(202,157).
att(139,178).
att(156,172).
att(212,154).
att(14,231).
att(301,230).
att(183,163).
att(57,211).
att(159,171).
att(10,233).
att(266,241).
att(162,170).
att(2,237).
att(177,165).
att(219,152).
att(213,259).
att(174,166).
att(46,216).
att(33,222).
att(255,142).
att(191,267).
att(105,191).
att(108,300).
att(95,195).
att(71,205).
att(31,223).
att(245,248).
att(157,280).
att(44,217).
att(248,247).
att(216,153).
att(137,288).
att(263,140).
att(193,160).
att(29,224).
att(206,156).
att(248,144).
att(53,213).
att(223,151).
att(42,218).
att(151,174).
att(271,138).
att(113,298).
att(25,226).
att(186,269).
att(187,162).
att(252,143).
att(51,214).
att(23,227).
att(140,178).
att(184,163).
att(157,172).
att(256,142).
att(116,187).
att(296,132).
att(163,170).
att(197,265).
att(160,279).
att(175,166).
att(143,177).
att(132,181).
att(260,141).
att(124,184).
att(58,211).
att(111,189).
att(289,234).
att(211,260).
att(146,176).
att(91,197).
att(140,287).
att(11,233).
att(238,147).
att(249,144).
att(96,195).
att(145,285).
att(284,135).
att(272,138).
att(3,237).
att(267,241).
att(56,212).
att(191,161).
att(299,231).
att(204,157).
att(261,243).
att(242,146).
att(188,162).
att(30,224).
att(128,292).
att(257,142).
att(185,163).
att(249,247).
att(70,206).
att(221,152).
att(235,148).
att(228,150).
att(94,196).
att(293,133).
att(179,165).
att(170,168).
att(265,140).
att(280,237).
att(220,257).
att(144,177).
att(153,282).
att(133,181).
att(195,266).
att(285,135).
att(143,286).
att(121,295).
att(250,144).
att(218,153).
att(281,136).
att(68,207).
att(273,138).
att(22,228).
att(87,199).
att(179,272).
att(59,211).
att(136,180).
att(254,143).
att(150,175).
att(126,293).
att(209,261).
att(97,195).
att(37,221).
att(128,183).
att(215,154).
att(107,301).
att(222,152).
att(57,212).
att(294,133).
att(131,291).
att(115,188).
att(8,235).
att(212,260).
att(6,236).
att(268,241).
att(119,296).
att(183,164).
att(212,155).
att(123,185).
att(142,178).
att(110,190).
att(286,135).
att(235,252).
att(278,137).
att(71,206).
att(199,159).
att(105,192).
att(31,224).
att(262,243).
att(112,299).
att(259,244).
att(209,156).
att(134,181).
att(256,245).
att(124,294).
att(118,187).
att(226,151).
att(253,246).
att(255,143).
att(62,210).
att(148,176).
att(299,132).
att(218,258).
att(42,219).
att(244,146).
att(113,189).
att(69,207).
att(206,157).
att(281,237).
att(295,133).
att(108,191).
att(237,148).
att(190,162).
att(121,186).
att(223,152).
att(248,145).
att(134,290).
att(207,262).
att(278,238).
att(196,266).
att(267,140).
att(21,229).
att(203,158).
att(140,179).
att(224,256).
att(139,288).
att(149,284).
att(124,185).
att(166,170).
att(172,168).
att(11,234).
att(300,132).
att(9,235).
att(230,254).
att(79,203).
att(146,177).
att(7,236).
att(3,238).
att(72,206).
att(135,181).
att(260,142).
att(233,253).
att(207,157).
att(45,218).
att(236,252).
att(183,271).
att(224,152).
att(138,180).
att(285,236).
att(120,296).
att(272,139).
att(280,137).
att(43,219).
att(254,246).
att(130,183).
att(122,186).
att(170,276).
att(94,197).
att(158,173).
att(219,258).
att(113,299).
att(182,165).
att(205,263).
att(161,172).
att(41,220).
att(82,202).
att(179,166).
att(24,228).
att(167,170).
att(144,178).
att(170,169).
att(68,208).
att(75,205).
att(295,233).
att(222,257).
att(39,221).
att(50,216).
att(20,230).
att(293,134).
att(208,262).
att(276,239).
att(195,161).
att(208,157).
att(289,135).
att(250,145).
att(80,203).
att(135,290).
att(14,233).
att(48,217).
att(281,137).
att(192,162).
att(150,284).
att(211,261).
att(205,158).
att(254,144).
att(139,180).
att(2,239).
att(200,265).
att(289,235).
att(64,210).
att(90,199).
att(222,153).
att(159,173).
att(202,159).
att(298,133).
att(229,151).
att(162,172).
att(237,252).
att(264,243).
att(128,293).
att(180,166).
att(247,146).
att(176,274).
att(163,279).
att(29,226).
att(171,169).
att(184,271).
att(266,141).
att(134,182).
att(252,247).
att(219,154).
att(240,148).
att(42,220).
att(286,136).
att(251,145).
att(76,205).
att(209,157).
att(69,208).
att(283,237).
att(121,296).
att(148,285).
att(143,287).
att(255,144).
att(51,216).
att(280,238).
att(121,187).
att(21,230).
att(179,273).
att(190,163).
att(67,209).
att(299,133).
att(126,294).
att(223,153).
att(157,174).
att(293,234).
att(209,262).
att(203,159).
att(263,142).
att(58,213).
att(248,146).
att(226,256).
att(132,183).
att(124,186).
att(11,235).
att(174,275).
att(91,199).
att(166,171).
att(47,218).
att(7,237).
att(200,160).
att(79,204).
att(119,297).
att(241,148).
att(72,207).
att(290,235).
att(212,261).
att(271,241).
att(182,272).
att(146,178).
att(56,214).
att(197,161).
att(146,286).
att(45,219).
att(169,277).
att(30,226).
att(265,243).
att(238,252).
att(262,244).
att(138,181).
att(241,251).
att(191,163).
att(244,250).
att(238,149).
att(224,153).
att(250,248).
att(253,247).
att(155,175).
att(104,194).
att(129,293).
att(268,141).
att(158,174).
att(82,203).
att(297,233).
att(272,140).
att(161,173).
att(134,291).
att(164,172).
att(133,183).
att(201,160).
att(196,267).
att(172,276).
att(207,263).
att(125,186).
att(139,289).
att(228,152).
att(278,239).
att(92,199).
att(257,144).
att(198,161).
att(147,178).
att(16,233).
att(301,133).
att(14,234).
att(167,278).
att(297,134).
att(115,299).
att(127,294).
att(6,238).
att(265,142).
att(85,202).
att(230,255).
att(225,153).
att(33,225).
att(192,163).
att(115,190).
att(269,141).
att(175,275).
att(64,211).
att(191,269).
att(233,254).
att(189,164).
att(90,200).
att(71,208).
att(254,145).
att(159,174).
att(301,232).
att(243,148).
att(29,227).
att(239,252).
att(180,167).
att(62,212).
att(242,251).
att(168,171).
att(53,216).
att(257,246).
att(285,237).
att(254,247).
att(125,295).
att(205,264).
att(298,233).
att(178,274).
att(23,230).
att(219,155).
att(282,238).
att(196,162).
att(60,213).
att(93,199).
att(98,197).
att(103,195).
att(226,153).
att(290,136).
att(282,138).
att(17,233).
att(154,176).
att(140,181).
att(135,291).
att(216,156).
att(190,164).
att(58,214).
att(225,257).
att(36,224).
att(116,190).
att(189,270).
att(132,184).
att(160,174).
att(7,238).
att(123,296).
att(91,200).
att(237,150).
att(203,160).
att(34,225).
att(79,205).
att(230,152).
att(163,173).
att(181,167).
att(96,198).
att(213,157).
att(299,134).
att(248,147).
att(175,169).
att(32,226).
att(270,242).
att(128,294).
att(220,155).
att(291,136).
att(267,243).
att(271,141).
att(149,178).
att(54,216).
att(275,140).
att(77,206).
att(234,151).
att(203,265).
att(240,252).
att(158,282).
att(217,260).
att(26,229).
att(255,247).
att(245,148).
att(61,213).
att(82,204).
att(195,268).
att(68,210).
att(22,231).
att(231,152).
att(187,271).
att(87,202).
att(126,295).
att(133,184).
att(166,279).
att(182,167).
att(125,187).
att(280,239).
att(223,258).
att(179,168).
att(112,192).
att(292,136).
att(272,141).
att(209,263).
att(107,194).
att(253,146).
att(12,236).
att(35,225).
att(211,158).
att(136,183).
att(235,151).
att(4,240).
att(150,178).
att(156,283).
att(229,256).
att(151,285).
att(115,191).
att(139,182).
att(218,156).
att(55,216).
att(301,134).
att(290,236).
att(71,209).
att(124,296).
att(110,193).
att(156,176).
att(268,243).
att(235,254).
att(297,135).
att(250,147).
att(215,261).
att(142,181).
att(265,244).
att(215,157).
att(193,269).
att(62,213).
att(269,142).
att(27,229).
att(262,245).
att(185,272).
att(289,137).
att(204,265).
att(244,251).
att(202,161).
att(250,249).
att(253,248).
att(222,155).
att(88,202).
att(159,282).
att(113,192).
att(284,238).
att(122,297).
att(103,196).
att(247,148).
att(19,233).
att(281,239).
att(196,163).
att(129,186).
att(180,274).
att(224,258).
att(58,215).
att(193,164).
att(278,240).
att(115,300).
att(210,263).
att(47,220).
att(1,242).
att(199,267).
att(65,212).
att(124,188).
att(274,141).
att(111,193).
att(160,175).
att(282,139).
att(72,209).
att(255,146).
att(32,227).
att(213,262).
att(183,273).
att(169,172).
att(178,169).
att(84,204).
att(233,255).
att(135,184).
att(63,213).
att(152,285).
att(54,217).
att(200,162).
att(248,148).
att(28,229).
att(266,244).
att(149,179).
att(114,192).
att(113,301).
att(216,261).
att(263,245).
att(197,163).
att(109,194).
att(267,143).
att(295,136).
att(122,189).
att(99,198).
att(104,196).
att(24,231).
att(205,265).
att(271,142).
att(291,137).
att(155,177).
att(130,294).
att(207,160).
att(75,208).
att(217,157).
att(20,233).
att(50,219).
att(59,215).
att(18,234).
att(135,292).
att(208,264).
att(197,268).
att(224,155).
att(204,161).
att(185,167).
att(112,193).
att(155,284).
att(92,201).
att(164,174).
att(182,168).
att(48,220).
att(279,240).
att(97,199).
att(176,170).
att(10,238).
att(173,171).
att(73,209).
att(249,148).
att(189,271).
att(102,197).
att(264,144).
att(300,135).
att(228,257).
att(276,241).
att(33,227).
att(128,187).
att(221,156).
att(268,143).
att(211,159).
att(253,147).
att(64,213).
att(116,300).
att(231,256).
att(235,152).
att(276,141).
att(288,138).
att(195,164).
att(163,281).
att(214,262).
att(234,255).
att(192,270).
att(270,243).
att(29,229).
att(95,200).
att(105,196).
att(237,254).
att(203,266).
att(62,214).
att(138,291).
att(121,298).
att(159,176).
att(240,253).
att(217,261).
att(205,161).
att(25,231).
att(118,191).
att(76,208).
att(255,248).
att(145,181).
att(88,203).
att(40,224).
att(126,188).
att(168,173).
att(180,169).
att(297,136).
att(220,260).
att(299,234).
att(187,272).
att(243,150).
att(166,280).
att(283,239).
att(98,199).
att(103,197).
att(289,138).
att(277,141).
att(285,139).
att(129,187).
att(280,240).
att(258,146).
att(9,239).
att(7,240).
att(65,213).
att(277,241).
att(190,271).
att(182,274).
att(240,151).
att(226,155).
att(229,257).
att(106,196).
att(251,148).
att(266,144).
att(160,176).
att(274,242).
att(30,229).
att(163,175).
att(270,143).
att(184,168).
att(119,191).
att(54,218).
att(181,169).
att(146,181).
att(135,185).
att(169,173).
att(244,150).
att(290,138).
att(278,141).
att(223,156).
att(77,208).
att(282,140).
att(117,300).
att(237,152).
att(114,193).
att(259,146).
att(94,201).
att(138,184).
att(244,252).
att(159,283).
att(99,199).
att(104,197).
att(247,251).
att(256,248).
att(253,249).
att(300,234).
att(220,157).
att(210,160).
att(68,212).
att(263,145).
att(39,225).
att(122,298).
att(144,289).
att(241,151).
att(227,155).
att(207,265).
att(18,235).
att(59,216).
att(267,144).
att(37,226).
att(297,235).
att(112,194).
att(167,280).
att(144,182).
att(48,221).
att(80,207).
att(279,141).
att(107,196).
att(73,210).
att(6,241).
att(167,174).
att(227,258).
att(179,170).
att(33,228).
att(231,154).
att(214,159).
att(136,185).
att(85,205).
att(64,214).
att(230,257).
att(191,271).
att(137,292).
att(71,211).
att(198,164).
att(233,256).
att(211,160).
att(153,179).
att(123,190).
att(100,199).
att(253,148).
att(131,187).
att(195,165).
att(27,231).
att(62,215).
att(53,219).
att(42,224).
att(272,143).
att(156,178).
att(292,138).
att(276,142).
att(263,246).
att(242,253).
att(257,147).
att(165,281).
att(23,233).
att(301,234).
att(257,248).
att(248,251).
att(162,176).
att(134,186).
att(219,261).
att(254,249).
att(118,300).
att(183,169).
att(261,146).
att(93,202).
att(285,239).
att(135,293).
att(17,236).
att(103,198).
att(202,163).
att(140,291).
att(208,265).
att(137,185).
att(129,188).
att(222,157).
att(11,239).
att(189,272).
att(212,160).
att(1,244).
att(34,228).
att(295,236).
att(277,142).
att(91,203).
att(228,258).
att(56,218).
att(285,140).
att(72,211).
att(96,201).
att(247,150).
att(273,243).
att(262,146).
att(184,274).
att(234,256).
att(70,212).
att(121,299).
att(146,182).
att(89,204).
att(143,290).
att(114,194).
att(41,225).
att(240,254).
att(52,220).
att(138,185).
att(213,160).
att(104,198).
att(82,207).
att(294,138).
att(246,252).
att(230,155).
att(237,153).
att(39,226).
att(249,251).
att(290,139).
att(75,210).
att(282,141).
att(286,140).
att(286,239).
att(187,273).
att(166,281).
att(197,165).
att(18,236).
att(87,205).
att(210,161).
att(155,179).
att(248,150).
att(283,240).
att(119,300).
att(12,239).
att(66,214).
att(198,269).
att(112,195).
att(80,208).
att(10,240).
att(174,278).
att(2,244).
att(57,218).
att(107,197).
att(102,199).
att(267,145).
att(164,176).
att(167,175).
att(124,298).
att(182,170).
att(295,138).
att(31,230).
att(128,189).
att(279,142).
att(293,237).
att(231,155).
att(150,181).
att(139,185).
att(260,147).
att(27,232).
att(193,271).
att(153,180).
att(249,150).
att(131,188).
att(221,158).
att(134,294).
att(25,233).
att(159,284).
att(195,166).
att(156,179).
att(244,253).
att(192,167).
att(259,248).
att(60,217).
att(256,249).
att(189,168).
att(145,183).
att(296,138).
att(93,203).
att(276,143).
att(81,208).
att(98,201).
att(257,148).
att(280,142).
att(103,199).
att(284,141).
att(284,240).
att(180,171).
att(171,174).
att(13,239).
att(148,182).
att(232,155).
att(121,192).
att(224,260).
att(7,242).
att(86,206).
att(261,147).
att(47,223).
att(297,236).
att(132,295).
att(151,181).
att(250,150).
att(227,259).
att(175,278).
att(199,165).
att(91,204).
att(137,293).
att(111,196).
att(243,152).
att(183,275).
att(142,291).
att(152,287).
att(301,137).
att(30,231).
att(147,289).
att(157,179).
att(170,280).
att(219,159).
att(160,178).
att(77,210).
att(258,148).
att(247,151).
att(216,263).
att(206,163).
att(127,190).
att(166,176).
att(52,221).
att(266,246).
att(181,171).
att(118,301).
att(94,203).
att(172,174).
att(242,254).
att(109,197).
att(203,164).
att(149,182).
att(82,208).
att(219,262).
att(260,248).
att(68,214).
att(135,294).
att(130,189).
att(223,158).
att(213,161).
att(270,145).
att(145,290).
att(123,299).
att(237,154).
att(197,166).
att(48,223).
att(10,241).
att(80,209).
att(6,243).
att(282,142).
att(125,191).
att(225,260).
att(220,159).
att(133,188).
att(158,179).
att(57,219).
att(97,202).
att(107,198).
att(102,200).
att(161,178).
att(211,265).
att(227,157).
att(241,153).
att(188,169).
att(31,231).
att(120,193).
att(64,216).
att(163,283).
att(167,176).
att(276,243).
att(71,213).
att(192,272).
att(29,232).
att(267,146).
att(184,275).
att(150,182).
att(271,145).
att(143,291).
att(53,221).
att(139,186).
att(62,217).
att(299,138).
att(201,165).
att(105,199).
att(237,256).
att(171,280).
att(123,192).
att(275,144).
att(231,156).
att(217,263).
att(76,211).
att(23,235).
att(287,141).
att(40,227).
att(211,162).
att(289,239).
att(249,151).
att(261,248).
att(249,252).
att(159,179).
att(131,296).
att(134,188).
att(113,196).
att(286,240).
att(161,284).
att(103,200).
att(253,150).
att(13,240).
att(136,294).
att(174,279).
att(198,270).
att(168,176).
att(156,286).
att(183,171).
att(121,193).
att(205,164).
att(148,183).
att(5,244).
att(86,207).
att(34,230).
att(300,138).
att(177,173).
att(47,224).
att(146,290).
att(182,276).
att(124,299).
att(257,149).
att(232,156).
att(239,154).
att(292,140).
att(280,143).
att(169,281).
att(201,269).
att(261,148).
att(129,297).
att(250,151).
att(212,162).
att(222,159).
att(84,208).
att(143,185).
att(26,234).
att(209,163).
att(159,285).
att(139,293).
att(268,246).
att(114,196).
att(218,263).
att(206,164).
att(265,247).
att(184,171).
att(82,209).
att(39,228).
att(277,144).
att(258,149).
att(226,158).
att(104,200).
att(181,172).
att(68,215).
att(196,271).
att(75,212).
att(285,142).
att(250,252).
att(256,250).
att(138,187).
att(216,161).
att(18,238).
att(16,239).
att(188,274).
att(87,207).
att(14,240).
att(300,236).
att(10,242).
att(8,243).
att(284,241).
att(92,205).
att(73,213).
att(120,301).
att(33,231).
att(137,294).
att(227,260).
att(157,286).
att(194,168).
att(297,237).
att(142,292).
att(183,276).
att(31,232).
att(191,169).
att(55,221).
att(120,194).
att(164,178).
att(44,226).
att(78,211).
att(136,188).
att(71,214).
att(188,170).
att(286,142).
att(207,164).
att(227,158).
att(294,238).
att(275,244).
att(115,196).
att(234,156).
att(173,175).
att(179,173).
att(176,174).
att(95,204).
att(62,218).
att(204,165).
att(150,183).
att(272,245).
att(178,278).
att(105,200).
att(139,187).
att(205,268).
att(214,162).
att(135,295).
att(219,263).
att(263,248).
att(19,238).
att(156,181).
att(251,252).
att(275,145).
att(150,289).
att(93,205).
att(113,197).
att(126,192).
att(81,210).
att(287,142).
att(260,149).
att(181,277).
att(103,201).
att(192,169).
att(168,282).
att(128,298).
att(165,178).
att(34,231).
att(225,261).
att(148,184).
att(218,161).
att(65,217).
att(282,242).
att(129,191).
att(177,174).
att(56,221).
att(205,165).
att(116,196).
att(45,226).
att(151,183).
att(279,243).
att(96,204).
att(158,286).
att(272,146).
att(231,259).
att(63,218).
att(153,288).
att(143,292).
att(43,227).
att(132,190).
att(276,145).
att(280,144).
att(26,235).
att(284,143).
att(288,142).
att(157,181).
att(222,160).
att(273,245).
att(196,168).
att(250,152).
att(292,239).
att(217,264).
att(61,219).
att(195,272).
att(240,256).
att(22,237).
att(243,154).
att(114,197).
att(267,247).
att(236,156).
att(109,199).
att(220,263).
att(255,251).
att(172,176).
att(181,173).
att(226,159).
att(12,242).
att(223,262).
att(141,293).
att(258,150).
att(10,243).
att(35,231).
att(146,291).
att(233,157).
att(117,196).
att(240,155).
att(4,246).
att(2,247).
att(124,300).
att(80,211).
att(141,187).
att(73,214).
att(226,261).
att(155,182).
att(97,204).
att(46,226).
att(125,193).
att(251,152).
att(102,202).
att(85,209).
att(120,195).
att(194,169).
att(29,234).
att(164,284).
att(255,151).
att(128,192).
att(193,273).
att(147,185).
att(115,197).
att(167,178).
att(53,223).
att(235,258).
att(122,301).
att(170,177).
att(25,236).
att(204,269).
att(110,199).
att(149,290).
att(139,188).
att(217,162).
att(294,141).
att(123,194).
att(21,238).
att(131,191).
att(153,183).
att(262,249).
att(118,196).
att(207,268).
att(142,187).
att(250,253).
att(188,275).
att(256,251).
att(93,206).
att(81,211).
att(198,168).
att(245,154).
att(13,242).
att(132,297).
att(74,214).
att(238,156).
att(162,285).
att(256,151).
att(271,147).
att(7,245).
att(5,246).
att(195,169).
att(34,232).
att(221,161).
att(137,295).
att(162,180).
att(192,170).
att(299,140).
att(189,171).
att(208,165).
att(260,150).
att(125,300).
att(281,243).
att(242,155).
att(218,162).
att(213,266).
att(96,205).
att(111,199).
att(63,219).
att(101,203).
att(253,152).
att(84,210).
att(202,167).
att(194,273).
att(41,229).
att(24,237).
att(143,187).
att(119,196).
att(239,156).
att(272,246).
att(196,169).
att(135,190).
att(127,193).
att(114,198).
att(291,240).
att(20,239).
att(193,170).
att(109,200).
att(50,225).
att(288,143).
att(104,202).
att(263,249).
att(248,254).
att(260,250).
att(16,241).
att(59,221).
att(251,253).
att(14,242).
att(222,263).
att(122,195).
att(138,189).
att(219,162).
att(12,243).
att(172,177).
att(181,174).
att(4,247).
att(2,248).
att(66,218).
att(92,207).
att(73,215).
att(133,297).
att(203,167).
att(163,285).
att(247,154).
att(155,183).
att(102,203).
att(282,243).
att(228,261).
att(85,210).
att(301,140).
att(192,274).
att(184,277).
att(144,187).
att(71,216).
att(214,266).
att(197,169).
att(289,143).
att(251,153).
att(126,300).
att(136,190).
att(42,229).
att(276,245).
att(230,159).
att(147,186).
att(115,198).
att(210,165).
att(244,155).
att(237,157).
att(266,149).
att(110,200).
att(217,265).
att(83,211).
att(105,202).
att(170,178).
att(166,284).
att(69,217).
att(76,214).
att(270,247).
att(187,276).
att(51,225).
att(60,221).
att(248,154).
att(274,147).
att(264,249).
att(17,241).
att(153,184).
att(234,158).
att(261,250).
att(241,156).
att(278,146).
att(156,288).
att(67,218).
att(298,141).
att(93,207).
att(36,232).
att(146,292).
att(124,301).
att(286,144).
att(113,199).
att(58,222).
att(9,245).
att(224,161).
att(198,169).
att(159,182).
att(47,227).
att(169,283).
att(65,219).
att(162,181).
att(256,152).
att(72,216).
att(45,228).
att(129,193).
att(189,172).
att(177,280).
att(208,166).
att(171,178).
att(275,147).
att(183,174).
att(28,236).
att(63,220).
att(54,224).
att(260,151).
att(26,237).
att(205,167).
att(283,145).
att(287,144).
att(204,270).
att(274,246).
att(172,282).
att(52,225).
att(253,153).
att(215,164).
att(39,231).
att(268,248).
att(127,194).
att(188,276).
att(207,269).
att(132,298).
att(196,170).
att(16,242).
att(257,152).
att(262,250).
att(59,222).
att(137,296).
att(35,233).
att(190,172).
att(2,249).
att(250,154).
att(169,179).
att(300,141).
att(261,151).
att(157,288).
att(296,142).
att(184,174).
att(57,223).
att(117,198).
att(92,208).
att(73,216).
att(33,234).
att(236,158).
att(46,228).
att(125,301).
att(300,238).
att(284,243).
att(97,206).
att(31,235).
att(170,283).
att(85,211).
att(230,261).
att(29,236).
att(78,214).
att(297,239).
att(120,197).
att(240,157).
att(233,260).
att(258,152).
att(42,230).
att(213,165).
att(161,182).
att(25,238).
att(223,162).
att(115,199).
att(160,287).
att(194,171).
att(164,181).
att(293,143).
att(145,293).
att(219,265).
att(244,156).
att(269,248).
att(123,196).
att(150,186).
att(173,178).
att(185,174).
att(266,150).
att(88,210).
att(131,193).
att(255,153).
att(181,279).
att(153,185).
att(254,253).
att(13,244).
att(81,213).
att(227,161).
att(11,245).
att(74,216).
att(9,246).
att(58,223).
att(7,247).
att(1,250).
att(259,152).
att(225,263).
att(214,165).
att(65,220).
att(158,288).
att(56,224).
att(198,170).
att(143,294).
att(79,214).
att(286,145).
att(192,275).
att(290,144).
att(195,171).
att(231,160).
att(245,156).
att(116,199).
att(298,239).
att(28,237).
att(267,150).
att(168,180).
att(96,207).
att(106,203).
att(174,178).
att(183,175).
att(180,176).
att(24,239).
att(52,226).
att(249,155).
att(61,222).
att(22,240).
att(187,277).
att(242,157).
att(39,232).
att(161,287).
att(143,189).
att(279,147).
att(243,257).
att(82,213).
att(50,227).
att(141,295).
att(287,145).
att(291,144).
att(75,216).
att(264,250).
att(59,223).
att(104,204).
att(199,170).
att(249,255).
att(261,251).
att(252,254).
att(258,252).
att(223,264).
att(209,269).
att(87,211).
att(212,166).
att(166,181).
att(222,163).
att(257,153).
att(57,224).
att(130,194).
att(33,235).
att(73,217).
att(286,243).
att(117,199).
att(46,229).
att(201,272).
att(31,236).
att(276,148).
att(112,201).
att(219,164).
att(64,221).
att(243,157).
att(44,230).
att(29,237).
att(159,288).
att(300,142).
att(155,185).
att(288,145).
att(232,261).
att(144,294).
att(216,165).
att(90,210).
att(42,231).
att(204,271).
att(172,283).
att(200,170).
att(95,208).
att(238,259).
att(274,247).
att(83,213).
att(218,266).
att(100,206).
att(21,241).
att(167,285).
att(194,172).
att(188,277).
att(207,270).
att(38,233).
att(244,257).
att(17,243).
att(150,187).
att(247,256).
att(262,251).
att(185,175).
att(176,178).
att(36,234).
att(259,252).
att(256,253).
att(244,157).
att(175,282).
att(289,145).
att(153,186).
att(58,224).
att(7,248).
att(293,144).
att(3,250).
att(199,273).
att(224,264).
att(147,293).
att(142,190).
att(34,235).
att(113,201).
att(47,229).
att(103,205).
att(32,236).
att(65,221).
att(170,284).
att(145,189).
att(159,184).
att(130,300).
att(121,198).
att(241,158).
att(30,237).
att(214,166).
att(162,183).
att(129,195).
att(178,281).
att(281,245).
att(43,231).
att(135,298).
att(26,239).
att(111,202).
att(282,147).
att(211,167).
att(106,204).
att(298,143).
att(189,174).
att(77,216).
att(155,290).
att(236,260).
att(238,159).
att(221,164).
att(174,179).
att(52,227).
att(183,176).
att(275,247).
att(180,177).
att(61,223).
att(219,266).
att(39,233).
att(119,199).
att(18,243).
att(68,220).
att(50,228).
att(181,280).
att(245,257).
att(37,234).
att(75,217).
att(189,277).
att(127,196).
att(59,224).
att(291,242).
att(260,153).
att(8,248).
att(87,212).
att(66,221).
att(122,198).
att(288,243).
att(200,273).
att(57,225).
att(211,269).
att(80,215).
att(295,144).
att(166,182).
att(153,291).
att(228,263).
att(301,239).
att(187,175).
att(64,222).
att(175,179).
att(171,284).
att(107,204).
att(209,168).
att(152,187).
att(214,268).
att(85,213).
att(282,245).
att(272,150).
att(71,219).
att(219,165).
att(234,261).
att(166,286).
att(53,227).
att(25,240).
att(144,190).
att(280,148).
att(158,185).
att(136,298).
att(276,247).
att(128,196).
att(300,143).
att(240,259).
att(141,296).
att(161,184).
att(100,207).
att(151,292).
att(38,234).
att(292,242).
att(139,192).
att(13,246).
att(36,235).
att(11,247).
att(258,154).
att(191,174).
att(170,181).
att(9,248).
att(173,180).
att(169,285).
att(58,225).
att(5,250).
att(3,251).
att(74,218).
att(179,178).
att(113,202).
att(98,208).
att(226,264).
att(164,287).
att(32,237).
att(86,213).
att(134,194).
att(56,226).
att(177,282).
att(45,231).
att(139,297).
att(204,170).
att(229,263).
att(79,216).
att(72,219).
att(289,146).
att(193,276).
att(266,152).
att(121,199).
att(283,245).
att(149,293).
att(232,262).
att(248,157).
att(204,272).
att(26,240).
att(280,246).
att(111,203).
att(165,183).
att(106,205).
att(41,233).
att(274,150).
att(277,247).
att(52,228).
att(192,174).
att(196,275).
att(151,188).
att(140,192).
att(61,224).
att(189,175).
att(252,156).
att(132,195).
att(231,162).
att(39,234).
att(20,243).
att(177,179).
att(271,249).
att(137,298).
att(221,266).
att(268,250).
att(298,144).
att(75,218).
att(294,145).
att(262,252).
att(157,186).
att(256,155).
att(104,206).
att(8,249).
att(4,251).
att(210,270).
att(183,280).
att(202,171).
att(146,190).
att(191,277).
att(235,161).
att(170,285).
att(215,167).
att(287,244).
att(227,264).
att(275,150).
att(92,211).
att(149,189).
att(196,173).
att(55,227).
att(135,299).
att(29,239).
att(112,203).
att(212,168).
att(102,207).
att(85,214).
att(194,276).
att(187,176).
att(141,192).
att(140,297).
att(281,246).
att(181,178).
att(216,268).
att(209,169).
att(53,228).
att(120,200).
att(219,267).
att(115,202).
att(236,161).
att(76,218).
att(197,275).
att(100,208).
att(203,171).
att(243,159).
att(242,259).
att(272,249).
att(261,154).
att(276,150).
att(60,225).
att(189,278).
att(161,185).
att(17,245).
att(208,271).
att(216,167).
att(147,190).
att(133,300).
att(226,164).
att(15,246).
att(88,213).
att(13,247).
att(123,199).
att(260,253).
att(257,254).
att(9,249).
att(7,250).
att(233,162).
att(150,189).
att(81,216).
att(300,144).
att(194,174).
att(74,219).
att(143,296).
att(225,265).
att(211,270).
att(148,294).
att(192,277).
att(182,178).
att(142,192).
att(65,223).
att(126,198).
att(45,232).
att(134,195).
att(30,239).
att(220,166).
att(207,170).
att(301,240).
att(131,301).
att(28,240).
att(262,154).
att(282,246).
att(26,241).
att(217,167).
att(116,202).
att(96,210).
att(195,276).
att(136,299).
att(187,279).
att(70,221).
att(297,145).
att(77,218).
att(141,297).
att(234,162).
att(156,291).
att(174,284).
att(89,213).
att(140,193).
att(295,242).
att(171,182).
att(243,259).
att(189,176).
att(270,250).
att(37,236).
att(94,211).
att(182,281).
att(169,286).
att(223,266).
att(143,192).
att(221,166).
att(99,209).
att(261,253).
att(258,254).
att(238,161).
att(48,231).
att(2,253).
att(245,159).
att(282,149).
att(46,232).
att(298,145).
att(31,239).
att(144,296).
att(193,277).
att(235,162).
att(249,158).
att(215,168).
att(112,204).
att(172,285).
att(85,215).
att(196,174).
att(232,263).
att(283,246).
att(125,199).
att(212,169).
att(172,182).
att(152,189).
att(25,242).
att(187,177).
att(253,157).
att(167,287).
att(218,268).
att(23,243).
att(238,261).
att(207,272).
att(69,222).
att(274,249).
att(291,147).
att(19,245).
att(158,187).
att(128,198).
att(206,171).
att(100,209).
att(268,153).
att(142,297).
att(110,205).
att(17,246).
att(105,207).
att(175,284).
att(152,293).
att(15,247).
att(247,258).
att(203,172).
att(161,186).
att(236,162).
att(36,237).
att(123,200).
att(9,250).
att(210,271).
att(164,185).
att(261,155).
att(81,217).
att(226,165).
att(74,220).
att(276,151).
att(197,174).
att(280,150).
att(170,183).
att(32,239).
att(113,204).
att(233,163).
att(165,288).
att(173,182).
att(202,274).
att(108,206).
att(56,228).
att(86,215).
att(45,233).
att(247,159).
att(178,283).
att(240,161).
att(179,180).
att(185,178).
att(182,179).
att(288,148).
att(210,170).
att(300,145).
att(160,290).
att(121,201).
att(300,241).
att(233,263).
att(204,172).
att(111,205).
att(278,248).
att(77,219).
att(162,186).
att(22,244).
att(219,268).
att(217,168).
att(275,249).
att(165,185).
att(281,150).
att(124,200).
att(189,279).
att(89,214).
att(198,174).
att(272,250).
att(214,169).
att(163,289).
att(59,227).
att(224,166).
att(266,252).
att(251,257).
att(263,253).
att(254,256).
att(177,181).
att(8,251).
att(114,204).
att(270,153).
att(154,189).
att(99,210).
att(148,295).
att(48,232).
att(259,156).
att(66,224).
att(231,164).
att(221,167).
att(57,228).
att(252,158).
att(46,233).
att(238,162).
att(122,201).
att(278,151).
att(205,172).
att(214,270).
att(203,274).
att(29,241).
att(44,234).
att(285,246).
att(231,264).
att(163,186).
att(202,173).
att(136,300).
att(286,149).
att(256,157).
att(102,209).
att(199,174).
att(161,290).
att(234,263).
att(78,219).
att(196,175).
att(156,292).
att(271,153).
att(90,214).
att(237,262).
att(172,183).
att(23,244).
att(190,177).
att(175,182).
att(187,178).
att(181,180).
att(155,189).
att(222,167).
att(273,250).
att(17,247).
att(295,243).
att(239,162).
att(169,287).
att(246,160).
att(136,196).
att(13,249).
att(249,258).
att(283,150).
att(88,215).
att(252,257).
att(255,256).
att(7,252).
att(161,187).
att(287,149).
att(58,228).
att(291,148).
att(203,173).
att(139,299).
att(74,221).
att(226,266).
att(93,213).
att(159,291).
att(212,271).
att(236,163).
att(154,293).
att(98,211).
att(193,278).
att(65,225).
att(103,209).
att(30,241).
att(194,176).
att(126,200).
att(213,170).
att(153,190).
att(72,222).
att(79,219).
att(28,242).
att(232,264).
att(233,164).
att(223,167).
att(63,226).
att(156,189).
att(26,243).
att(247,160).
att(235,263).
att(145,193).
att(218,269).
att(24,244).
att(41,236).
att(116,204).
att(207,172).
att(162,290).
att(292,148).
att(296,147).
att(137,196).
att(101,210).
att(52,231).
att(106,208).
att(277,249).
att(157,292).
att(20,246).
att(148,192).
att(241,261).
att(152,294).
att(296,243).
att(18,247).
att(244,161).
att(201,174).
att(165,186).
att(50,232).
att(68,224).
att(262,156).
att(132,198).
att(268,252).
att(168,185).
att(94,213).
att(250,258).
att(119,203).
att(170,287).
att(8,252).
att(253,257).
att(262,254).
att(35,239).
att(259,255).
att(2,255).
att(281,151).
att(114,205).
att(109,207).
att(135,301).
att(227,266).
att(211,171).
att(135,197).
att(202,275).
att(213,271).
att(46,234).
att(178,284).
att(80,219).
att(293,148).
att(157,189).
att(31,241).
att(259,157).
att(122,202).
att(287,246).
att(186,281).
att(160,188).
att(55,230).
att(44,235).
att(252,159).
att(245,161).
att(163,187).
att(71,223).
att(42,236).
att(25,244).
att(228,166).
att(281,248).
att(90,215).
att(141,195).
att(256,158).
att(152,191).
att(133,198).
att(196,176).
att(286,150).
att(172,184).
att(297,243).
att(249,160).
att(19,247).
att(38,238).
att(298,147).
att(60,228).
att(15,249).
att(144,194).
att(260,157).
att(148,296).
att(294,244).
att(36,239).
att(266,253).
att(200,276).
att(251,258).
att(209,172).
att(158,189).
att(222,168).
att(88,216).
att(7,253).
att(5,254).
att(1,256).
att(67,225).
att(3,255).
att(253,159).
att(192,279).
att(58,229).
att(147,193).
att(81,219).
att(246,161).
att(171,287).
att(291,245).
att(264,156).
att(279,152).
att(93,214).
att(219,169).
att(118,204).
att(98,212).
att(150,192).
att(288,246).
att(287,150).
att(268,155).
att(170,185).
att(250,160).
att(28,243).
att(285,247).
att(187,281).
att(173,184).
att(151,295).
att(261,157).
att(182,181).
att(174,286).
att(24,245).
att(41,237).
att(237,263).
att(254,159).
att(240,262).
att(137,197).
att(106,209).
att(20,247).
att(182,283).
att(39,238).
att(276,250).
att(207,173).
att(190,280).
att(220,169).
att(230,166).
att(16,249).
att(50,233).
att(124,202).
att(37,239).
att(288,150).
att(68,225).
att(270,252).
att(12,251).
att(292,149).
att(82,219).
att(140,196).
att(10,252).
att(94,214).
att(264,254).
att(255,257).
att(119,204).
att(251,160).
att(201,276).
att(226,267).
att(212,272).
att(99,212).
att(185,282).
att(66,226).
att(193,279).
att(214,171).
att(177,183).
att(289,246).
att(172,287).
att(135,198).
att(186,180).
att(183,181).
att(248,161).
att(44,236).
att(232,265).
att(55,231).
att(64,227).
att(180,284).
att(27,244).
att(160,189).
att(117,205).
att(85,218).
att(221,169).
att(283,248).
att(270,155).
att(102,211).
att(259,158).
att(162,291).
att(301,147).
att(297,148).
att(107,209).
att(163,188).
att(142,299).
att(62,228).
att(152,295).
att(90,216).
att(274,154).
att(21,247).
att(277,250).
att(169,186).
att(120,204).
att(278,153).
att(274,251).
att(191,280).
att(247,260).
att(210,273).
att(170,288).
att(235,165).
att(256,159).
att(282,152).
att(155,191).
att(224,268).
att(268,253).
att(267,156).
att(105,210).
att(36,240).
att(128,201).
att(253,258).
att(212,172).
att(256,257).
att(286,151).
