arg(1..666).
att(286,285).
att(285,286).
att(274,273).
att(273,274).
att(246,245).
att(252,251).
att(251,252).
att(254,253).
att(234,233).
att(238,237).
att(212,211).
att(211,212).
att(210,209).
att(209,210).
att(215,216).
att(220,219).
att(219,220).
att(218,217).
att(193,194).
att(201,202).
att(202,201).
att(181,182).
att(178,177).
att(177,178).
att(189,190).
att(186,185).
att(185,186).
att(188,187).
att(161,162).
att(173,174).
att(171,172).
att(172,171).
att(152,151).
att(151,152).
att(150,149).
att(146,145).
att(145,146).
att(79,80).
att(68,67).
att(67,68).
att(66,65).
att(65,66).
att(72,71).
att(63,64).
att(64,63).
att(57,58).
att(55,56).
att(48,47).
att(47,48).
att(42,41).
att(19,20).
att(16,15).
att(15,16).
att(14,13).
att(13,14).
att(12,11).
att(1,2).
att(2,1).
att(3,4).
att(4,3).
att(22,21).
att(21,22).
att(25,26).
att(28,27).
att(27,28).
att(36,35).
att(33,34).
att(34,33).
att(39,40).
att(40,39).
att(73,74).
att(74,73).
att(87,88).
att(82,81).
att(81,82).
att(84,83).
att(83,84).
att(94,93).
att(93,94).
att(91,92).
att(102,101).
att(99,100).
att(100,99).
att(111,112).
att(112,111).
att(107,108).
att(108,107).
att(105,106).
att(106,105).
att(118,117).
att(116,115).
att(115,116).
att(128,127).
att(127,128).
att(124,123).
att(122,121).
att(121,122).
att(138,137).
att(137,138).
att(141,142).
att(144,143).
att(143,144).
att(131,132).
att(134,133).
att(133,134).
att(153,154).
att(155,156).
att(156,155).
att(160,159).
att(260,259).
att(259,260).
att(261,262).
att(270,269).
att(269,270).
att(307,308).
att(308,307).
att(314,313).
att(295,296).
att(351,352).
att(352,351).
att(345,346).
att(346,345).
att(381,382).
att(379,380).
att(380,379).
att(368,367).
att(367,368).
att(364,363).
att(363,364).
att(401,402).
att(408,407).
att(407,408).
att(427,428).
att(428,427).
att(472,471).
att(471,472).
att(245,248).
att(248,245).
att(249,252).
att(253,256).
att(256,253).
att(234,235).
att(235,234).
att(238,239).
att(239,238).
att(215,214).
att(214,215).
att(223,222).
att(222,223).
att(201,204).
att(181,184).
att(184,181).
att(189,192).
att(192,189).
att(166,167).
att(167,166).
att(162,163).
att(163,162).
att(174,175).
att(175,174).
att(176,173).
att(170,171).
att(147,146).
att(159,158).
att(158,159).
att(75,74).
att(79,78).
att(78,79).
att(71,70).
att(70,71).
att(69,72).
att(62,63).
att(58,59).
att(59,58).
att(60,57).
att(50,51).
att(51,50).
att(45,48).
att(41,44).
att(44,41).
att(43,42).
att(20,17).
att(17,20).
att(11,10).
att(10,11).
att(6,7).
att(7,6).
att(9,12).
att(21,24).
att(29,32).
att(32,29).
att(37,40).
att(86,87).
att(85,88).
att(88,85).
att(96,93).
att(90,91).
att(89,92).
att(92,89).
att(104,101).
att(101,104).
att(100,97).
att(112,109).
att(119,118).
att(118,119).
att(115,114).
att(127,126).
att(140,137).
att(129,132).
att(132,129).
att(136,133).
att(258,259).
att(264,261).
att(263,262).
att(262,263).
att(293,296).
att(296,293).
att(352,349).
att(403,402).
att(402,403).
att(406,407).
att(470,471).
att(52,55).
att(2,5).
att(34,37).
att(472,467).
att(430,428).
att(279,274).
att(217,224).
att(224,217).
att(223,218).
att(194,199).
att(199,194).
att(183,178).
att(191,186).
att(176,169).
att(169,176).
att(149,148).
att(148,149).
att(56,49).
att(49,56).
att(50,55).
att(5,4).
att(30,27).
att(95,90).
att(90,95).
att(125,124).
att(124,125).
att(139,142).
att(142,139).
att(156,157).
att(257,264).
att(264,257).
att(309,308).
att(362,367).
att(429,428).
att(192,183).
att(66,77).
att(34,45).
att(7,12).
att(83,96).
att(20,30).
att(220,213).
att(77,68).
att(60,53).
att(53,60).
att(43,38).
att(8,9).
att(9,8).
att(23,26).
att(26,23).
att(38,43).
att(81,96).
att(130,143).
att(312,313).
att(313,312).
att(372,381).
att(381,372).
att(46,62).
att(24,4).
att(126,105).
att(267,274).
att(286,258).
att(14,18).
att(108,120).
att(187,165).
att(165,187).
att(166,188).
att(52,46).
att(46,52).
att(18,16).
att(76,86).
att(86,76).
att(120,106).
att(135,153).
att(153,135).
att(328,346).
att(380,358).
att(43,54).
att(69,102).
att(270,303).
att(54,17).
att(202,240).
att(201,225).
att(375,351).
att(156,179).
att(201,228).
att(155,183).
att(109,67).
att(210,232).
att(114,71).
att(494,472).
att(93,103).
att(240,212).
att(32,36).
att(31,35).
att(35,31).
att(269,305).
att(210,240).
att(152,170).
att(207,143).
att(46,110).
att(221,159).
att(113,52).
att(327,262).
att(260,327).
att(98,40).
att(3,75).
att(329,257).
att(200,142).
att(231,174).
att(270,323).
att(148,195).
att(148,193).
att(142,218).
att(80,28).
att(196,149).
att(500,428).
att(262,350).
att(158,197).
att(123,40).
att(286,321).
att(247,169).
att(189,227).
att(350,260).
att(187,230).
att(204,149).
att(408,504).
att(148,242).
att(3,98).
att(110,15).
att(286,383).
att(198,162).
att(243,152).
att(232,144).
att(226,142).
att(343,293).
att(6,113).
att(357,274).
att(69,61).
att(61,69).
att(103,31).
att(181,207).
att(97,29).
att(117,9).
att(208,177).
att(2,130).
att(230,101).
att(197,67).
att(115,255).
att(467,352).
att(190,51).
att(270,413).
att(255,105).
att(441,293).
att(286,387).
att(84,243).
att(90,249).
att(381,478).
att(2,164).
att(112,205).
att(108,208).
att(28,191).
att(286,444).
att(398,293).
att(11,168).
att(182,27).
att(168,9).
att(157,52).
att(7,183).
att(86,229).
att(475,364).
att(352,494).
att(121,203).
att(20,161).
att(386,307).
att(85,226).
att(154,48).
att(242,74).
att(60,131).
att(270,437).
att(465,363).
att(79,244).
att(213,106).
att(115,206).
att(270,435).
att(44,236).
att(3,196).
att(244,50).
att(6,200).
att(270,463).
att(2,198).
att(203,13).
att(84,150).
att(225,40).
att(47,231).
att(216,31).
att(286,469).
att(195,9).
att(86,160).
att(273,450).
att(313,491).
att(345,395).
att(233,63).
att(228,53).
att(179,107).
att(6,221).
att(86,141).
att(43,241).
att(39,254).
att(180,105).
att(496,308).
att(164,125).
att(345,441).
att(21,247).
att(250,28).
att(237,15).
att(308,465).
att(456,293).
att(241,23).
att(205,44).
att(65,170).
att(229,15).
att(90,180).
att(227,15).
att(270,481).
att(363,412).
att(206,64).
att(121,140).
att(399,379).
att(509,262).
att(3,250).
att(236,23).
att(76,183).
att(499,269).
att(74,183).
att(418,162).
att(444,187).
att(291,33).
att(391,133).
att(67,322).
att(156,416).
att(139,400).
att(108,366).
att(153,415).
att(353,104).
att(127,375).
att(31,280).
att(112,359).
att(326,74).
att(174,418).
att(266,8).
att(44,294).
att(148,414).
att(253,500).
att(189,436).
att(187,438).
att(339,67).
att(393,153).
att(201,473).
att(333,95).
att(139,409).
att(390,152).
att(446,175).
att(3,279).
att(43,319).
att(201,477).
att(14,281).
att(272,27).
att(315,48).
att(306,40).
att(383,105).
att(310,35).
att(50,295).
att(139,404).
att(201,466).
att(6,288).
att(86,336).
att(389,159).
att(453,223).
att(278,15).
att(397,152).
att(217,453).
att(337,78).
att(69,347).
att(86,332).
att(47,306).
att(32,320).
att(331,107).
att(66,353).
att(392,167).
att(153,442).
att(108,329).
att(56,275).
att(396,175).
att(46,268).
att(112,330).
att(462,235).
att(422,142).
att(481,202).
att(501,222).
att(426,132).
att(176,388).
att(181,410).
att(442,149).
att(420,143).
att(21,315).
att(234,456).
att(6,299).
att(417,144).
att(354,82).
att(347,105).
att(395,185).
att(510,202).
att(316,16).
att(121,333).
att(432,152).
att(485,222).
att(405,175).
att(493,209).
att(373,73).
att(86,361).
att(3,318).
att(21,300).
att(414,163).
att(370,50).
att(112,301).
att(344,21).
att(187,511).
att(108,304).
att(20,344).
att(287,92).
att(305,118).
att(3,328).
att(21,339).
att(451,133).
att(488,175).
att(294,112).
att(47,357).
att(484,169).
att(181,506).
att(468,159).
att(342,27).
att(6,331).
att(47,354).
att(473,152).
att(301,125).
att(335,31).
att(410,202).
att(153,457).
att(479,144).
att(2,340).
att(44,378).
att(360,52).
att(156,464).
att(181,482).
att(21,324).
att(452,149).
att(46,373).
att(43,369).
att(104,316).
att(46,370).
att(477,129).
att(311,105).
att(284,69).
att(504,152).
att(275,115).
att(112,272).
att(85,310).
att(382,32).
att(365,15).
att(299,74).
att(47,334).
att(21,376).
att(384,29).
att(376,20).
att(153,510).
att(317,90).
att(359,4).
att(304,73).
att(139,483).
att(153,498).
att(127,277).
att(437,223).
att(486,143).
att(121,276).
att(439,222).
att(174,455).
att(508,152).
att(253,401).
att(487,137).
att(201,423).
att(189,468).
att(463,162).
att(20,355).
att(332,58).
att(153,492).
att(70,311).
att(292,81).
att(85,289).
att(435,199).
att(431,220).
att(320,73).
att(69,317).
att(330,50).
att(300,83).
att(223,424).
att(495,149).
att(67,314).
att(385,252).
att(46,338).
att(336,52).
att(440,202).
att(93,292).
att(43,342).
att(156,284).
att(50,433).
att(108,490).
att(434,52).
att(34,420).
att(90,476).
att(436,49).
att(90,475).
att(318,186).
att(268,142).
att(400,10).
att(464,74).
att(100,485).
att(43,430).
att(121,497).
att(158,278).
att(34,426).
att(450,74).
att(115,505).
att(39,429).
att(86,480).
att(469,95).
att(491,104).
att(511,116).
att(155,280).
att(454,73).
att(387,13).
att(497,128).
att(3,398).
att(90,458).
att(498,100).
att(503,101).
att(425,59).
att(158,265).
att(325,211).
att(108,509).
att(455,82).
att(148,267).
att(478,69).
att(90,451).
att(505,101).
att(281,133).
att(388,32).
att(282,133).
att(302,177).
att(415,4).
att(404,15).
att(265,151).
att(6,411).
att(44,396).
att(356,194).
att(43,393).
att(3,417).
att(423,4).
att(298,144).
att(100,454).
att(159,314).
att(139,302).
att(378,209).
att(32,439).
att(449,106).
att(39,397).
att(85,512).
att(47,390).
att(127,470).
att(433,29).
att(3,432).
att(20,446).
att(84,484).
att(21,421).
att(448,15).
att(355,209).
att(70,503).
att(413,48).
att(39,406).
att(84,488).
att(321,245).
att(457,125).
att(480,107).
att(271,185).
att(458,128).
att(40,401).
att(303,152).
att(181,271).
att(153,291).
att(6,448).
att(85,496).
att(148,297).
att(289,159).
att(43,405).
att(297,152).
att(288,224).
att(412,92).
att(492,43).
att(220,283).
att(280,215).
att(163,356).
att(127,445).
att(460,9).
att(50,501).
att(69,386).
att(66,389).
att(28,479).
att(148,341).
att(340,149).
att(106,431).
att(416,88).
att(163,362).
att(100,425).
att(2,459).
att(349,146).
att(411,88).
att(482,48).
att(108,422).
att(6,460).
att(348,149).
att(409,73).
att(369,162).
att(361,187).
att(86,392).
att(490,59).
att(461,32).
att(156,335).
att(323,149).
att(223,266).
att(322,151).
att(476,13).
att(112,440).
att(421,125).
att(21,461).
att(489,50).
att(334,149).
att(124,419).
att(34,508).
att(163,377).
att(108,434).
att(341,144).
att(189,360).
att(3,474).
att(153,325).
att(438,105).
att(44,502).
att(506,40).
att(56,489).
att(174,371).
att(419,67).
att(46,462).
att(283,252).
att(201,298).
att(338,177).
att(215,309).
att(108,394).
att(34,452).
att(26,507).
att(181,337).
att(156,384).
att(483,8).
att(502,17).
att(459,48).
att(276,252).
att(201,290).
att(189,343).
att(394,100).
att(85,447).
att(324,175).
att(358,137).
att(46,449).
att(319,209).
att(156,374).
att(277,252).
att(181,348).
att(86,443).
att(424,73).
att(290,210).
att(21,486).
att(512,15).
att(2,499).
att(366,159).
att(443,74).
att(238,282).
att(178,326).
att(26,493).
att(199,305).
att(121,399).
att(447,73).
att(474,48).
att(377,144).
att(156,365).
att(374,142).
att(127,391).
att(445,70).
att(21,495).
att(507,2).
att(371,144).
att(149,362).
att(466,48).
att(612,100).
att(560,48).
att(88,597).
att(86,599).
att(571,58).
att(549,40).
att(171,655).
att(622,106).
att(543,27).
att(520,4).
att(121,639).
att(26,543).
att(121,625).
att(609,106).
att(664,184).
att(529,27).
att(20,537).
att(14,519).
att(46,551).
att(181,659).
att(166,650).
att(592,67).
att(127,628).
att(26,533).
att(34,557).
att(561,63).
att(546,48).
att(46,547).
att(28,524).
att(34,562).
att(582,88).
att(538,14).
att(662,175).
att(76,605).
att(70,595).
att(606,70).
att(627,107).
att(625,105).
att(115,619).
att(593,74).
att(90,577).
att(21,527).
att(189,641).
att(34,574).
att(184,651).
att(654,177).
att(518,27).
att(26,572).
att(522,43).
att(47,526).
att(143,651).
att(646,129).
att(124,607).
att(112,587).
att(84,631).
att(534,51).
att(554,15).
att(90,626).
att(528,40).
att(127,598).
att(643,143).
att(135,651).
att(132,656).
att(617,69).
att(624,67).
att(530,61).
att(659,152).
att(615,74).
att(124,588).
att(90,617).
att(84,611).
att(26,553).
att(573,15).
att(562,4).
att(635,74).
att(599,99).
att(2,566).
att(584,128).
att(44,532).
att(655,152).
att(66,636).
att(85,623).
att(44,529).
att(576,4).
att(125,580).
att(575,127).
att(112,560).
att(2,579).
att(108,559).
att(100,550).
att(602,31).
att(523,67).
att(124,564).
att(537,82).
att(32,597).
att(6,591).
att(539,88).
att(513,78).
att(521,71).
att(121,567).
att(552,106).
att(107,550).
att(43,633).
att(47,635).
att(84,520).
att(619,61).
att(112,570).
att(108,573).
att(6,606).
att(2,601).
att(66,540).
att(548,122).
att(658,239).
att(558,119).
att(44,632).
att(84,528).
att(574,100).
att(20,589).
att(629,44).
att(542,67).
att(519,104).
att(581,40).
att(118,535).
att(58,605).
att(600,50).
att(613,4).
att(46,582).
att(2,620).
att(34,590).
att(26,630).
att(63,596).
att(665,209).
att(48,578).
att(2,624).
att(112,513).
att(217,649).
att(586,58).
att(115,515).
att(15,637).
att(620,26).
att(84,546).
att(85,552).
att(210,646).
att(100,534).
att(47,602).
att(212,652).
att(559,88).
att(652,210).
att(44,594).
att(515,121).
att(70,575).
att(104,538).
att(628,13).
att(127,514).
att(550,166).
att(201,586).
att(526,144).
att(171,554).
att(590,202).
att(153,541).
att(553,175).
att(536,159).
att(33,651).
att(181,576).
att(156,536).
att(192,563).
att(47,642).
att(33,656).
att(598,219).
att(514,146).
att(601,202).
att(637,238).
att(541,143).
att(153,523).
att(591,222).
att(656,60).
att(50,645).
att(644,64).
att(579,223).
att(616,252).
att(158,516).
att(34,665).
att(28,662).
att(28,660).
att(663,32).
att(556,143).
att(189,539).
att(210,634).
att(516,172).
att(1,651).
att(524,162).
att(657,32).
att(626,219).
att(187,530).
att(570,149).
att(201,615).
att(153,568).
att(11,661).
att(212,612).
att(544,175).
att(621,223).
att(187,521).
att(533,162).
att(148,549).
att(14,658).
att(551,159).
att(4,660).
att(653,23).
att(623,214).
att(585,245).
att(569,133).
att(148,558).
att(22,651).
att(20,653).
att(631,202).
att(111,651).
att(587,143).
att(185,640).
att(527,202).
att(184,640).
att(650,100).
att(531,223).
att(564,256).
att(189,627).
att(210,544).
att(535,199).
att(112,664).
att(641,115).
att(608,142).
att(647,115).
att(210,518).
att(632,162).
att(634,162).
att(121,644).
att(563,234).
att(178,622).
att(121,647).
att(187,614).
att(187,604).
att(201,555).
att(189,608).
att(181,600).
att(139,618).
att(156,638).
att(139,621).
att(84,657).
att(568,209).
att(85,663).
att(594,186).
att(139,609).
att(139,610).
att(645,73).
att(189,593).
att(174,578).
att(636,152).
att(611,143).
att(567,219).
att(649,70).
att(578,176).
att(84,648).
att(660,79).
att(648,81).
att(618,159).
att(83,651).
att(603,163).
att(633,129).
att(517,253).
att(85,654).
att(639,133).
att(572,194).
att(545,219).
att(642,94).
att(557,211).
att(270,525).
att(547,296).
att(565,308).
att(638,372).
att(293,563).
att(313,542).
att(286,569).
att(640,345).
att(597,381).
att(596,380).
att(540,312).
att(367,603).
att(273,556).
att(555,274).
att(264,571).
att(286,545).
att(286,548).
att(270,581).
att(260,585).
att(380,561).
att(286,584).
att(566,368).
att(605,264).
att(604,263).
att(363,565).
att(525,368).
att(270,613).
att(661,472).
att(577,307).
att(614,286).
att(286,616).
att(367,531).
att(595,471).
att(402,517).
att(286,666).
att(269,651).
att(270,643).
att(610,472).
att(532,428).
att(666,263).
att(651,273).
att(408,583).
att(580,408).
att(588,403).
att(402,592).
att(630,428).
att(589,428).
att(427,580).
att(583,427).
att(607,427).
