arg(1..1160).
att(824,501).
att(127,61).
att(45,630).
att(134,155).
att(823,504).
att(138,155).
att(278,1079).
att(162,254).
att(280,1017).
att(277,1046).
att(168,321).
att(141,81).
att(280,1013).
att(195,1152).
att(134,68).
att(130,83).
att(188,1155).
att(292,1091).
att(160,321).
att(54,698).
att(920,438).
att(160,281).
att(286,1023).
att(821,540).
att(824,533).
att(914,415).
att(276,1036).
att(170,260).
att(936,436).
att(141,95).
att(56,706).
att(844,547).
att(156,217).
att(162,190).
att(841,545).
att(101,33).
att(187,1109).
att(156,236).
att(923,407).
att(164,197).
att(160,291).
att(51,728).
att(834,525).
att(292,1044).
att(172,279).
att(134,283).
att(286,1139).
att(116,173).
att(262,964).
att(278,1137).
att(42,739).
att(237,31).
att(4,6).
att(556,1015).
att(583,961).
att(936,474).
att(20,5).
att(933,468).
att(263,958).
att(290,1144).
att(136,192).
att(284,1106).
att(290,1141).
att(38,661).
att(45,737).
att(920,459).
att(55,935).
att(314,562).
att(558,964).
att(56,938).
att(473,1014).
att(936,450).
att(555,1046).
att(933,462).
att(552,971).
att(551,966).
att(821,542).
att(936,453).
att(933,464).
att(282,1113).
att(36,677).
att(134,234).
att(47,667).
att(290,1107).
att(127,132).
att(923,503).
att(45,667).
att(32,683).
att(280,1067).
att(47,688).
att(40,632).
att(920,487).
att(912,485).
att(290,1130).
att(54,838).
att(101,234).
att(221,1137).
att(167,73).
att(188,1049).
att(12,721).
att(154,39).
att(154,35).
att(200,1093).
att(412,222).
att(15,798).
att(19,765).
att(216,1151).
att(76,267).
att(80,320).
att(78,357).
att(172,64).
att(13,771).
att(167,97).
att(228,1132).
att(65,192).
att(160,35).
att(228,1137).
att(65,190).
att(160,33).
att(167,85).
att(167,83).
att(251,568).
att(162,34).
att(248,568).
att(251,561).
att(72,199).
att(241,1135).
att(168,34).
att(16,737).
att(200,1041).
att(74,196).
att(78,291).
att(170,39).
att(77,197).
att(225,1110).
att(27,901).
att(15,657).
att(17,726).
att(80,199).
att(18,730).
att(202,957).
att(53,655).
att(57,739).
att(831,457).
att(290,968).
att(202,1149).
att(185,1102).
att(819,436).
att(10,899).
att(290,974).
att(824,412).
att(11,929).
att(54,679).
att(198,1103).
att(14,830).
att(191,1115).
att(19,899).
att(168,217).
att(164,137).
att(828,435).
att(172,236).
att(19,932).
att(844,436).
att(14,929).
att(187,1117).
att(191,1105).
att(154,140).
att(834,412).
att(56,677).
att(185,1124).
att(17,827).
att(160,158).
att(53,612).
att(57,681).
att(53,606).
att(67,320).
att(160,161).
att(15,857).
att(58,679).
att(191,1072).
att(819,485).
att(160,137).
att(10,857).
att(166,165).
att(12,801).
att(828,482).
att(189,1089).
att(74,344).
att(345,567).
att(831,468).
att(19,857).
att(195,1092).
att(202,1077).
att(834,464).
att(60,619).
att(342,561).
att(1000,435).
att(589,1115).
att(1003,464).
att(225,389).
att(353,1108).
att(593,1144).
att(348,1123).
att(585,1104).
att(1003,447).
att(1007,434).
att(76,656).
att(222,362).
att(76,671).
att(894,546).
att(92,836).
att(77,671).
att(90,860).
att(346,1077).
att(569,1061).
att(77,665).
att(99,898).
att(353,1123).
att(76,688).
att(324,1102).
att(238,392).
att(882,534).
att(1003,419).
att(879,526).
att(340,1128).
att(1007,491).
att(131,458).
att(356,1075).
att(228,358).
att(88,775).
att(372,560).
att(90,769).
att(371,566).
att(77,683).
att(119,463).
att(587,1075).
att(235,344).
att(237,320).
att(262,1152).
att(625,564).
att(96,770).
att(375,563).
att(77,609).
att(356,1092).
att(114,484).
att(98,770).
att(878,542).
att(591,1156).
att(11,17).
att(295,1063).
att(200,349).
att(168,630).
att(191,255).
att(231,494).
att(241,458).
att(580,1073).
att(319,1092).
att(575,1079).
att(591,1133).
att(576,1017).
att(591,1135).
att(78,771).
att(317,1015).
att(577,1021).
att(356,1152).
att(310,1049).
att(998,497).
att(308,1046).
att(80,771).
att(319,1015).
att(200,255).
att(580,1093).
att(78,773).
att(10,16).
att(222,494).
att(1009,487).
att(80,757).
att(220,373).
att(972,436).
att(221,373).
att(1005,541).
att(220,371).
att(228,443).
att(356,1138).
att(593,1154).
att(241,418).
att(340,1136).
att(580,1017).
att(995,527).
att(348,1149).
att(978,414).
att(77,795).
att(10,28).
att(63,723).
att(995,525).
att(319,1044).
att(16,21).
att(350,1155).
att(593,1160).
att(353,1142).
att(353,1147).
att(72,732).
att(74,733).
att(348,1102).
att(602,1136).
att(578,964).
att(5,407).
att(294,1044).
att(1002,512).
att(319,977).
att(1002,510).
att(554,1063).
att(125,316).
att(224,155).
att(122,311).
att(266,1111).
att(936,544).
att(553,1065).
att(920,537).
att(40,857).
att(269,1113).
att(892,419).
att(915,528).
att(933,542).
att(554,1067).
att(110,352).
att(88,625).
att(94,677).
att(100,661).
att(894,409).
att(917,532).
att(583,1079).
att(555,1107).
att(912,523).
att(266,1073).
att(117,255).
att(266,1063).
att(933,539).
att(36,759).
att(127,321).
att(915,504).
att(930,534).
att(912,512).
att(204,140).
att(249,1082).
att(917,523).
att(259,1092).
att(122,314).
att(99,678).
att(263,1111).
att(100,690).
att(204,118).
att(917,520).
att(131,337).
att(40,810).
att(38,804).
att(43,757).
att(134,341).
att(886,459).
att(230,93).
att(890,480).
att(914,549).
att(224,82).
att(879,434).
att(131,258).
att(272,1097).
att(276,1154).
att(272,1093).
att(262,1025).
att(882,453).
att(42,815).
att(554,1022).
att(393,563).
att(100,616).
att(43,860).
att(555,1077).
att(888,435).
att(224,37).
att(288,1152).
att(38,708).
att(263,1029).
att(292,1157).
att(284,1132).
att(130,293).
att(882,434).
att(284,1138).
att(551,1023).
att(133,291).
att(262,1052).
att(920,544).
att(917,550).
att(43,775).
att(122,268).
att(233,39).
att(888,409).
att(119,432).
att(86,723).
att(557,1157).
att(131,402).
att(262,1137).
att(253,1156).
att(249,1131).
att(253,1159).
att(238,271).
att(890,502).
att(878,483).
att(340,1029).
att(595,1086).
att(324,1089).
att(589,961).
att(125,451).
att(557,1139).
att(256,1150).
att(879,462).
att(581,1142).
att(392,565).
att(230,197).
att(128,429).
att(583,1143).
att(98,723).
att(272,1132).
att(122,421).
att(340,1058).
att(256,1138).
att(117,429).
att(359,1040).
att(593,1029).
att(324,1025).
att(25,4).
att(86,657).
att(269,1145).
att(888,520).
att(25,3).
att(554,1101).
att(92,737).
att(256,1103).
att(599,974).
att(86,655).
att(886,519).
att(583,1104).
att(552,1145).
att(551,1141).
att(125,423).
att(114,372).
att(552,1150).
att(896,523).
att(99,706).
att(233,217).
att(224,118).
att(224,132).
att(886,510).
att(47,919).
att(237,236).
att(29,6).
att(131,397).
att(602,971).
att(98,656).
att(122,377).
att(122,362).
att(246,1148).
att(263,1145).
att(888,497).
att(1032,508).
att(381,1153).
att(390,1144).
att(394,1140).
att(1032,512).
att(376,1048).
att(629,1022).
att(43,10).
att(23,468).
att(400,1138).
att(374,1015).
att(617,1022).
att(1059,468).
att(276,442).
att(416,564).
att(101,770).
att(380,1041).
att(555,265).
att(43,28).
att(1032,493).
att(653,1137).
att(116,663).
att(394,1150).
att(288,448).
att(640,1147).
att(640,1146).
att(133,743).
att(386,1136).
att(367,1046).
att(277,364).
att(659,565).
att(28,466).
att(49,30).
att(162,935).
att(30,537).
att(134,733).
att(652,1149).
att(1011,410).
att(394,1107).
att(27,528).
att(282,399).
att(134,725).
att(290,364).
att(384,1146).
att(653,1150).
att(154,899).
att(26,525).
att(133,665).
att(290,372).
att(25,528).
att(638,1102).
att(136,728).
att(49,6).
att(388,1103).
att(24,497).
att(30,523).
att(193,507).
att(280,312).
att(141,677).
att(648,1121).
att(154,849).
att(390,1063).
att(23,493).
att(280,307).
att(292,395).
att(390,1121).
att(187,507).
att(1034,510).
att(629,1110).
att(256,316).
att(134,919).
att(486,561).
att(486,562).
att(1012,459).
att(733,561).
att(11,414).
att(633,1101).
att(17,462).
att(224,677).
att(484,559).
att(131,831).
att(272,397).
att(628,1146).
att(1050,544).
att(128,823).
att(26,544).
att(230,690).
att(139,912).
att(277,511).
att(374,1106).
att(136,818).
att(1034,542).
att(623,1065).
att(282,463).
att(253,342).
att(32,51).
att(134,838).
att(24,523).
att(554,342).
att(554,352).
att(14,405).
att(553,347).
att(278,517).
att(276,465).
att(124,843).
att(278,524).
att(368,1104).
att(552,312).
att(555,395).
att(246,385).
att(1059,525).
att(556,347).
att(376,1084).
att(376,1082).
att(361,1067).
att(288,467).
att(130,765).
att(237,616).
att(136,859).
att(492,563).
att(725,563).
att(581,261).
att(380,1093).
att(730,562).
att(1030,462).
att(17,489).
att(237,609).
att(365,1073).
att(19,478).
att(556,312).
att(368,1126).
att(1028,457).
att(16,461).
att(204,690).
att(1030,447).
att(396,1160).
att(650,1155).
att(15,457).
att(361,1082).
att(1020,419).
att(12,435).
att(650,1160).
att(18,468).
att(14,453).
att(623,1019).
att(1024,464).
att(282,417).
att(133,804).
att(735,568).
att(47,55).
att(47,54).
att(633,1095).
att(640,1159).
att(1016,461).
att(10,431).
att(36,58).
att(246,355).
att(390,1159).
att(607,1019).
att(652,1055).
att(57,30).
att(319,1146).
att(675,562).
att(54,6).
att(59,21).
att(978,461).
att(400,968).
att(398,958).
att(941,476).
att(9,485).
att(189,443).
att(638,966).
att(306,1143).
att(941,483).
att(400,958).
att(319,1105).
att(578,1108).
att(198,372).
att(58,6).
att(577,1110).
att(429,563).
att(943,453).
att(996,548).
att(384,977).
att(493,322).
att(154,669).
att(60,6).
att(313,1123).
att(65,866).
att(160,690).
att(310,1072).
att(74,827).
att(167,656).
att(579,1108).
att(228,513).
att(76,830).
att(76,843).
att(63,833).
att(70,929).
att(975,498).
att(170,656).
att(189,385).
att(978,491).
att(313,1072).
att(573,1099).
att(70,859).
att(185,251).
att(313,1073).
att(3,480).
att(221,492).
att(238,524).
att(188,248).
att(74,866).
att(193,358).
att(77,846).
att(187,251).
att(962,480).
att(67,773).
att(241,522).
att(442,565).
att(164,622).
att(5,496).
att(78,827).
att(313,1117).
att(941,495).
att(189,316).
att(218,460).
att(9,491).
att(76,849).
att(277,248).
att(1053,407).
att(141,612).
att(647,1071).
att(29,425).
att(1053,412).
att(27,409).
att(154,757).
att(195,456).
att(170,817).
att(653,1117).
att(26,410).
att(292,316).
att(138,679).
att(25,407).
att(133,612).
att(191,516).
att(188,418).
att(101,625).
att(280,265).
att(52,13).
att(101,622).
att(160,763).
att(653,1079).
att(193,481).
att(193,479).
att(959,504).
att(6,526).
att(6,525).
att(185,477).
att(5,528).
att(284,265).
att(2,504).
att(1,508).
att(156,770).
att(394,1063).
att(967,491).
att(645,1075).
att(941,529).
att(657,561).
att(198,475).
att(640,1046).
att(1056,447).
att(571,1158).
att(288,261).
att(398,1015).
att(317,1153).
att(54,16).
att(156,706).
att(317,1158).
att(292,268).
att(398,1027).
att(53,60).
att(386,1099).
att(308,1155).
att(1,545).
att(647,1040).
att(577,1139).
att(188,364).
att(577,1133).
att(1056,422).
att(154,728).
att(26,434).
att(55,26).
att(962,539).
att(7,550).
att(58,15).
att(188,369).
att(965,532).
att(1037,431).
att(575,1152).
att(195,448).
att(6,544).
att(382,1022).
att(1059,414).
att(384,1013).
att(394,1015).
att(30,435).
att(1053,414).
att(185,443).
att(575,1160).
att(577,352).
att(599,465).
att(1098,521).
att(220,941).
att(306,261).
att(59,533).
att(322,509).
att(577,338).
att(1081,536).
att(43,414).
att(577,337).
att(574,271).
att(599,460).
att(221,941).
att(1062,405).
att(58,533).
att(593,509).
att(672,1077).
att(672,1075).
att(578,339).
att(60,529).
att(1085,527).
att(1085,525).
att(76,36).
att(593,522).
att(220,1005).
att(313,271).
att(56,505).
att(221,1007).
att(676,1158).
att(67,19).
att(65,14).
att(74,53).
att(228,967).
att(658,1091).
att(660,1082).
att(53,501).
att(815,565).
att(119,1114).
att(40,428).
att(424,1151).
att(444,1139).
att(1098,548).
att(1062,447).
att(1074,428).
att(77,59).
att(664,1049).
att(673,1086).
att(356,402).
att(662,1041).
att(65,26).
att(216,982).
att(231,1000).
att(1094,541).
att(231,1009).
att(110,1118).
att(812,561).
att(54,543).
att(77,54).
att(684,1156).
att(52,533).
att(1087,542).
att(241,959).
att(78,55).
att(1074,414).
att(55,540).
att(225,890).
att(595,441).
att(444,1148).
att(587,371).
att(689,1132).
att(43,440).
att(40,403).
att(430,1136).
att(449,1147).
att(662,977).
att(1062,425).
att(1096,534).
att(74,22).
att(672,1044).
att(77,12).
att(1090,529).
att(1090,527).
att(80,13).
att(1100,525).
att(574,362).
att(664,1145).
att(185,912).
att(167,12).
att(168,18).
att(198,998).
att(315,448).
att(673,1158).
att(187,914).
att(297,402).
att(524,561).
att(580,416).
att(216,1112).
att(1068,485).
att(578,451).
att(734,1029).
att(793,563).
att(660,1132).
att(49,471).
att(727,1052).
att(167,30).
att(308,387).
att(790,561).
att(572,389).
att(241,1119).
att(47,468).
att(578,366).
att(188,825).
att(308,392).
att(43,476).
att(575,432).
att(580,451).
att(162,3).
att(172,25).
att(744,1040).
att(52,546).
att(51,547).
att(308,318).
att(591,509).
att(346,516).
att(225,1087).
att(662,1121).
att(167,3).
att(294,373).
att(574,316).
att(170,9).
att(744,968).
att(317,389).
att(36,506).
att(674,1142).
att(744,956).
att(319,389).
att(49,512).
att(222,1062).
att(65,36).
att(225,1018).
att(49,502).
att(220,1037).
att(1064,505).
att(70,98).
att(70,96).
att(40,499).
att(673,1104).
att(308,338).
att(45,505).
att(76,94).
att(660,1115).
att(297,399).
att(1028,502).
att(557,488).
att(553,421).
att(1028,506).
att(324,261).
att(687,1089).
att(581,404).
att(686,1023).
att(86,10).
att(686,1013).
att(427,1086).
att(125,962).
att(557,492).
att(597,268).
att(555,458).
att(694,1073).
att(380,1152).
att(353,251).
att(131,943).
att(98,52).
att(263,458).
att(110,1000).
att(266,406).
att(626,1135).
att(1012,505).
att(687,1021).
att(117,894).
att(557,413).
att(1028,491).
att(427,1017).
att(262,426).
att(449,1049).
att(607,1136).
att(633,1151).
att(96,11).
att(610,1131).
att(694,1097).
att(1018,468).
att(617,1151).
att(676,1049).
att(430,1025).
att(204,770).
att(240,798).
att(365,1160).
att(121,896).
att(620,1160).
att(114,998).
att(687,1095).
att(676,1040).
att(583,451).
att(139,978).
att(92,26).
att(1012,545).
att(122,888).
att(682,977).
att(12,530).
att(1024,539).
att(227,737).
att(249,366).
att(1085,411).
att(437,1013).
att(558,442).
att(691,1040).
att(1087,410).
att(629,1158).
att(246,416).
att(620,1132).
att(694,1017).
att(98,30).
att(125,917).
att(439,966).
att(556,371).
att(16,523).
att(552,392).
att(374,1107).
att(439,977).
att(12,512).
att(633,1143).
att(12,510).
att(94,8).
att(365,1147).
att(18,534).
att(689,957).
att(119,828).
att(266,377).
att(15,521).
att(1018,502).
att(269,377).
att(13,521).
att(628,1140).
att(96,4).
att(98,9).
att(121,824).
att(589,387).
att(60,468).
att(224,925).
att(110,1088).
att(238,890).
att(230,932).
att(1081,480).
att(714,560).
att(676,1108).
att(433,1147).
att(238,884).
att(602,443).
att(694,1131).
att(63,9).
att(241,879).
att(125,1120).
att(1083,461).
att(1100,431).
att(56,435).
att(1100,422).
att(114,1076).
att(235,925).
att(117,1028).
att(1028,547).
att(224,827).
att(602,362).
att(721,565).
att(58,457).
att(1024,549).
att(225,828).
att(589,309).
att(12,533).
att(593,364).
att(1018,537).
att(15,541).
att(139,1068).
att(228,821).
att(356,399).
att(430,1104).
att(57,447).
att(689,1146).
att(687,1148).
att(359,391).
att(241,920).
att(237,838).
att(269,516).
att(119,1050).
att(125,1030).
att(86,47).
att(553,460).
att(689,1113).
att(356,312).
att(119,1047).
att(449,1065).
att(128,1024).
att(204,919).
att(1090,478).
att(322,385).
att(84,100).
att(444,1121).
att(585,307).
att(233,859).
att(552,509).
att(84,55).
att(235,862).
att(84,53).
att(343,248).
att(591,265).
att(52,459).
att(583,479).
att(233,773).
att(583,475).
att(581,492).
att(676,1084).
att(1088,495).
att(262,488).
att(583,484).
att(556,522).
att(587,339).
att(256,467).
att(84,43).
att(56,457).
att(1085,478).
att(90,56).
att(583,490).
att(620,389).
att(277,1018).
att(246,912).
att(259,825).
att(72,457).
att(263,915).
att(127,72).
att(136,168).
att(288,1076).
att(1127,545).
att(558,915).
att(63,425).
att(138,172).
att(365,364).
att(84,541).
att(141,172).
att(376,312).
att(712,1123).
att(282,1011).
att(78,453).
att(124,98).
att(1116,546).
att(620,316).
att(1116,544).
att(127,90).
att(629,391).
att(272,841).
att(422,302).
att(269,828).
att(378,305).
att(1125,534).
att(246,923).
att(78,436).
att(370,316).
att(76,409).
att(272,834).
att(141,74).
att(1122,541).
att(138,67).
att(653,509).
att(361,316).
att(116,52).
att(286,1018).
att(77,512).
att(720,1121).
att(396,465).
att(715,1071).
att(282,1053).
att(720,1123).
att(378,347).
att(724,1124).
att(290,1018).
att(246,825).
att(709,1111).
att(652,469).
att(77,493).
att(859,560).
att(376,268).
att(72,476).
att(648,492).
att(386,458).
att(645,460).
att(633,342).
att(633,339).
att(386,467).
att(76,464).
att(127,52).
att(654,460).
att(640,494).
att(381,514).
att(640,479).
att(709,1063).
att(76,526).
att(237,36).
att(365,456).
att(365,465).
att(378,479).
att(266,1053).
att(581,972).
att(808,1093).
att(246,1020).
att(437,311).
att(555,1020).
att(799,1073).
att(610,488).
att(776,1126).
att(233,60).
att(370,475).
att(376,406).
att(205,55).
att(253,998).
att(263,969).
att(437,251).
att(581,982).
att(237,60).
att(365,486).
att(805,1025).
att(235,54).
att(626,413).
att(610,402).
att(558,967).
att(813,1091).
att(227,12).
att(230,12).
att(556,1007).
att(205,19).
att(74,544).
att(160,440).
att(558,1007).
att(259,894).
att(284,1122).
att(376,442).
att(557,1000).
att(224,23).
att(626,426).
att(72,544).
att(380,445).
att(154,412).
att(581,882).
att(813,1017).
att(172,438).
att(172,419).
att(116,130).
att(556,943).
att(583,886).
att(368,481).
att(374,402).
att(249,896).
att(694,258).
att(63,533).
att(116,134).
att(224,8).
att(243,20).
att(237,29).
att(557,886).
att(227,5).
att(628,413).
att(63,527).
att(813,1058).
att(805,964).
att(272,886).
att(160,90).
att(741,1107).
att(47,548).
att(160,96).
att(308,460).
att(1127,412).
att(88,409).
att(96,422).
att(195,1012).
att(648,304).
att(650,312).
att(45,548).
att(652,392).
att(168,78).
att(578,518).
att(384,389).
att(740,1130).
att(288,824).
att(32,529).
att(645,387).
att(638,311).
att(292,828).
att(292,844).
att(198,1024).
att(578,465).
att(381,316).
att(310,486).
att(1069,541).
att(386,338).
att(191,1034).
att(317,470).
att(295,518).
att(382,316).
att(43,535).
att(295,513).
att(160,99).
att(1070,533).
att(744,1123).
att(315,481).
att(662,1153).
att(96,471).
att(160,58).
att(189,959).
att(306,416).
att(757,565).
att(94,471).
att(198,1056).
att(731,1027).
att(740,1099).
att(202,1032).
att(645,342).
att(185,975).
att(645,355).
att(638,255).
att(308,441).
att(664,1137).
att(731,1052).
att(731,1049).
att(96,462).
att(313,421).
att(1078,550).
att(573,432).
att(294,492).
att(88,422).
att(672,1158).
att(156,27).
att(741,1095).
att(571,421).
att(654,252).
att(86,425).
att(168,51).
att(740,1027).
att(36,547).
att(386,268).
att(727,1025).
att(1119,461).
att(1129,412).
att(390,448).
att(88,498).
att(286,978).
att(642,445).
att(719,1099).
att(286,972).
att(702,1052).
att(740,1153).
att(740,1151).
att(631,265).
att(1112,512).
att(1120,515).
att(740,1160).
att(1122,504).
att(390,402).
att(633,250).
att(284,995).
att(396,432).
att(653,413).
att(642,377).
att(648,423).
att(99,502).
att(744,1157).
att(1112,491).
att(134,12).
att(384,413).
att(86,483).
att(188,1078).
att(92,495).
att(645,404).
att(724,1015).
att(734,1155).
att(400,426).
att(727,1137).
att(195,1125).
att(84,468).
att(200,1119).
att(188,1083).
att(781,957).
att(653,442).
att(94,540).
att(781,964).
att(648,372).
att(280,912).
att(280,923).
att(645,432).
att(386,426).
att(782,1044).
att(718,958).
att(136,26).
att(78,411).
att(1129,512).
att(724,1046).
att(729,1147).
att(780,1048).
att(185,1074).
att(78,401).
att(156,94).
att(731,1115).
att(390,312).
att(574,516).
att(382,369).
att(382,364).
att(282,819).
att(202,1062).
att(640,387).
att(576,1007).
att(191,121).
att(664,443).
att(134,508).
att(315,1005).
att(674,488).
att(580,978).
att(668,486).
att(734,265).
att(658,420).
att(138,500).
att(295,965).
att(308,917).
att(306,915).
att(133,468).
att(297,879).
att(576,892).
att(134,500).
att(574,920).
att(591,1078).
att(141,480).
att(306,819).
att(136,538).
att(306,828).
att(602,1114).
att(322,1122).
att(579,890).
att(317,933).
att(322,1116).
att(658,369).
att(133,508).
att(580,878).
att(340,1062).
att(589,1020).
att(446,513).
att(597,1081).
att(589,1014).
att(134,528).
att(686,511).
att(578,844).
att(350,1068).
att(343,1088).
att(116,491).
att(133,495).
att(672,392).
att(133,546).
att(731,296).
att(731,316).
att(384,936).
att(398,841).
att(576,1064).
att(204,450).
att(734,366).
att(384,912).
att(654,914).
att(638,825).
att(227,414).
att(237,428).
att(741,392).
att(138,542).
att(653,841).
att(224,410).
att(736,304).
att(224,401).
att(729,296).
att(101,548).
att(240,407).
att(575,1098).
att(727,312).
att(315,1034).
att(191,198).
att(235,499).
att(574,962).
att(578,1053).
att(664,490).
att(578,1050).
att(670,458).
att(674,509).
att(297,1018).
att(297,1030).
att(237,473).
att(315,967).
att(227,457).
att(294,1056).
att(672,486).
att(574,1007).
att(235,474).
att(740,258).
att(744,355).
att(575,1032).
att(744,337).
att(572,972).
att(727,268).
att(340,915).
att(350,894).
att(343,914).
att(346,930).
att(554,1078).
att(597,884).
att(836,563).
att(446,375).
att(836,564).
att(694,420).
att(833,560).
att(272,1127).
att(827,566).
att(224,138).
att(224,136).
att(687,418).
att(172,480).
att(602,1002).
att(446,393).
att(689,369).
att(162,464).
att(427,377).
att(554,1090).
att(446,387).
att(558,1064).
att(805,1103).
att(602,884).
att(816,1149).
att(233,70).
att(776,1131).
att(840,561).
att(262,1098).
att(166,440).
att(433,372).
att(682,373).
att(444,364).
att(552,1074).
att(555,1127).
att(433,366).
att(324,821).
att(164,506).
att(237,63).
att(380,517).
att(262,1012).
att(237,74).
att(353,828).
att(691,395).
att(235,63).
att(554,1016).
att(430,387).
att(272,1094).
att(581,1020).
att(694,373).
att(156,496).
att(444,385).
att(682,393).
att(433,393).
att(676,305).
att(237,98).
att(365,518).
att(269,1014).
att(684,345).
att(557,1020).
att(376,472).
att(160,496).
att(230,36).
att(230,49).
att(449,358).
att(633,522).
att(269,1028).
att(553,1012).
att(593,831).
att(799,1124).
att(776,1109).
att(249,1056).
att(597,1011).
att(684,467).
att(589,1034).
att(127,401).
att(162,538).
att(430,517).
att(474,329).
att(585,1028).
att(680,511).
att(676,469).
att(602,1098).
att(167,541).
att(676,456).
att(587,1028).
att(295,821).
att(353,1050).
att(684,481).
att(589,943).
att(599,1050).
att(670,355).
att(693,465).
att(662,271).
att(691,460).
att(660,250).
att(673,307).
att(602,1026).
att(602,1016).
att(166,515).
att(350,967).
att(218,131).
att(218,125).
att(682,416).
att(322,1032).
att(686,408).
att(353,972).
att(221,119).
att(134,468).
att(348,996).
att(433,475).
att(154,550).
att(676,408).
att(693,490).
att(686,416).
att(686,421).
att(929,566).
att(439,454).
att(929,564).
att(476,196).
att(256,1129).
att(164,548).
att(127,438).
att(808,1133).
att(228,122).
att(262,1112).
att(222,110).
att(813,1157).
att(231,128).
att(162,546).
att(233,141).
att(791,1131).
att(116,403).
att(348,894).
att(569,894).
att(154,535).
att(216,131).
att(350,941).
att(154,536).
att(324,975).
att(585,1000).
att(623,1053).
att(799,345).
att(610,965).
att(623,1042).
att(557,292).
att(724,524).
att(813,311).
att(581,200).
att(813,305).
att(633,1024).
att(552,292).
att(791,342).
att(367,1016).
att(715,486).
att(813,349).
att(802,251).
att(365,1050).
att(626,978).
att(628,1028).
att(380,967).
att(552,198).
att(628,1012).
att(262,231).
att(808,261).
att(620,1009).
att(809,265).
att(776,261).
att(266,220).
att(610,1007).
att(581,110).
att(249,139).
att(368,995).
att(246,131).
att(361,1002).
att(558,131).
att(610,882).
att(776,258).
att(368,943).
att(640,1127).
att(709,417).
att(376,1122).
att(378,1118).
att(691,1003).
att(813,413).
att(552,381).
att(322,222).
att(407,733).
att(816,413).
att(585,117).
att(593,225).
att(356,121).
att(430,1002).
att(551,390).
att(430,1000).
att(811,443).
att(556,308).
att(682,920).
att(365,1122).
att(633,1112).
att(554,350).
att(684,936).
att(610,1062).
att(776,404).
att(365,1116).
att(449,933).
att(682,890).
att(799,448).
att(367,1127).
att(676,923).
att(623,1087).
att(376,1081).
att(425,641).
att(439,936).
att(702,524).
att(259,253).
att(378,1094).
att(554,246).
att(449,821).
att(691,915).
att(380,1085).
att(552,356).
att(680,933).
att(687,828).
att(361,1081).
att(811,391).
att(813,385).
att(689,834).
att(437,930).
att(555,324).
att(816,385).
att(691,831).
att(433,825).
att(694,912).
att(617,1090).
att(816,392).
att(693,819).
att(368,1070).
att(233,503).
att(381,1053).
att(642,1005).
att(652,1050).
att(709,258).
att(720,345).
att(738,494).
att(742,458).
att(292,200).
att(645,1037).
att(400,969).
att(715,258).
att(284,221).
att(699,268).
att(204,523).
att(652,975).
att(280,110).
att(227,491).
att(638,1009).
att(224,495).
att(205,503).
att(734,490).
att(729,402).
att(386,943).
att(738,426).
att(315,1118).
att(736,451).
att(741,402).
att(577,1122).
att(235,546).
att(400,894).
att(382,995).
att(740,448).
att(288,119).
att(744,413).
att(224,532).
att(645,1003).
att(230,529).
att(394,920).
att(736,377).
att(386,914).
att(398,930).
att(381,884).
att(578,1062).
att(727,362).
att(319,1068).
att(319,1066).
att(744,423).
att(233,515).
att(638,926).
att(243,521).
att(319,1080).
att(720,443).
att(367,912).
att(722,429).
att(376,933).
att(629,884).
att(400,1074).
att(722,448).
att(702,373).
att(246,122).
att(555,122).
att(719,413).
att(390,1024).
att(712,385).
att(378,819).
att(631,915).
att(384,1076).
att(631,923).
att(388,1100).
att(368,890).
att(647,1070).
att(378,823).
att(712,312).
att(731,456).
att(381,1083).
att(722,383).
att(382,1094).
att(645,1087).
att(381,1070).
att(699,318).
att(617,841).
att(647,1088).
att(450,630).
att(731,488).
att(709,337).
att(738,465).
att(652,1024).
att(384,1011).
att(715,339).
att(648,1042).
att(384,1030).
att(654,1018).
att(654,1024).
att(736,516).
att(724,305).
att(577,353).
att(579,294).
att(310,269).
att(742,882).
att(580,297).
att(575,313).
att(668,1096).
att(734,819).
att(673,1076).
att(428,847).
att(744,923).
att(668,1028).
att(313,286).
att(294,263).
att(670,1016).
att(672,1026).
att(306,288).
att(297,263).
att(313,191).
att(597,437).
att(310,225).
att(585,439).
att(670,1053).
att(597,452).
att(585,444).
att(576,286).
att(571,189).
att(573,378).
att(734,1047).
att(648,187).
att(638,200).
att(650,189).
att(742,1030).
att(400,187).
att(640,198).
att(577,376).
att(386,218).
att(736,943).
att(642,110).
att(742,1037).
att(390,128).
att(647,220).
att(571,378).
att(382,195).
att(571,365).
att(576,430).
att(575,449).
att(654,185).
att(731,890).
att(734,995).
att(394,139).
att(648,114).
att(648,128).
att(310,297).
att(574,313).
att(731,894).
att(738,1000).
att(386,222).
att(398,121).
att(577,313).
att(731,926).
att(670,1127).
att(308,343).
att(381,122).
att(658,1118).
att(571,297).
att(734,1009).
att(660,1119).
att(740,888).
att(343,278).
att(595,272).
att(689,1087).
att(691,1090).
att(808,517).
att(446,1030).
att(593,324).
att(569,282).
att(670,824).
att(694,1066).
att(670,819).
att(686,1020).
att(693,1096).
att(808,524).
att(672,821).
att(569,276).
att(805,456).
att(444,1059).
att(591,193).
att(813,524).
att(691,1030).
att(427,1024).
att(686,1034).
att(427,1014).
att(791,458).
att(430,1028).
att(350,246).
att(680,1020).
att(587,286).
att(687,1085).
att(585,280).
att(689,1056).
att(809,469).
att(446,967).
att(597,185).
att(684,965).
att(585,198).
att(430,1050).
att(551,424).
att(799,454).
att(554,384).
att(554,381).
att(557,365).
att(595,241).
att(589,114).
att(343,125).
att(602,193).
att(676,1009).
att(694,1056).
att(551,367).
att(693,943).
att(452,998).
att(576,225).
att(662,1000).
att(670,941).
att(571,221).
att(666,1037).
att(593,446).
att(660,878).
att(660,886).
att(684,1120).
att(452,1114).
att(674,959).
att(580,231).
att(427,1112).
att(599,315).
att(668,886).
att(662,915).
att(295,119).
att(575,139).
att(662,821).
att(691,1078).
att(427,1066).
att(359,350).
att(452,1087).
att(951,250).
att(684,131).
att(376,390).
att(424,225).
att(430,225).
att(816,972).
att(380,386).
att(551,928).
att(986,475).
att(558,921).
att(378,400).
att(808,1003).
att(374,365).
att(433,222).
att(433,238).
att(604,1099).
att(988,454).
att(552,850).
att(626,317).
att(631,396).
att(557,845).
att(439,121).
att(811,1005).
att(427,110).
att(992,355).
att(365,396).
att(948,271).
att(805,886).
att(637,1156).
att(680,125).
att(799,982).
att(367,396).
att(604,1113).
att(628,308).
att(720,1119).
att(363,306).
att(985,518).
att(553,758).
att(805,930).
att(990,518).
att(646,1144).
att(607,350).
att(947,318).
att(363,310).
att(945,318).
att(948,385).
att(712,1122).
att(709,1125).
att(551,854).
att(553,814).
att(984,463).
att(643,1075).
att(989,518).
att(951,338).
att(990,472).
att(718,1081).
att(994,312).
att(715,1094).
att(809,915).
att(380,269).
att(813,920).
att(991,518).
att(380,262).
att(719,1112).
att(719,1120).
att(949,314).
att(595,768).
att(649,1132).
att(802,1094).
att(951,372).
att(813,1062).
att(621,1021).
att(581,963).
att(599,766).
att(599,762).
att(587,772).
att(593,854).
att(641,1139).
att(502,678).
att(599,761).
att(424,272).
att(595,806).
att(689,246).
att(651,1143).
att(597,803).
att(986,524).
att(452,290).
att(437,322).
att(816,1081).
att(809,1068).
att(603,1102).
att(799,1096).
att(680,253).
att(791,1030).
att(604,1154).
att(624,1097).
att(687,276).
att(954,265).
att(439,280).
att(805,1042).
att(691,284).
att(581,891).
att(582,1015).
att(687,269).
att(610,446).
att(437,256).
att(689,189).
att(424,200).
att(682,231).
att(946,445).
att(433,216).
att(433,231).
att(613,1049).
att(809,1050).
att(378,374).
att(554,937).
att(631,449).
att(608,1046).
att(689,191).
att(618,1086).
att(380,363).
att(684,221).
att(370,378).
att(680,193).
att(602,705).
att(694,284).
att(954,307).
att(738,1112).
att(629,110).
att(629,114).
att(618,1123).
att(631,119).
att(719,943).
att(729,1114).
att(948,511).
att(945,469).
att(624,1123).
att(948,517).
att(742,1119).
att(388,259).
att(435,29).
att(652,297).
att(650,353).
att(382,315).
att(396,343).
att(382,313).
att(724,894).
att(384,317).
att(384,313).
att(398,359).
att(715,926).
att(394,297).
att(584,1103).
att(780,933).
att(613,1108).
att(954,375).
att(954,366).
att(740,1083).
att(712,821).
att(955,379).
att(396,253).
att(653,353).
att(382,324).
att(731,1030).
att(782,933).
att(779,915).
att(394,324).
att(598,957).
att(905,372).
att(905,369).
att(582,1103).
att(699,844).
att(952,392).
att(738,1016).
att(596,977).
att(654,246).
att(734,1100).
att(784,917).
att(905,387).
att(777,890).
att(368,259).
att(785,996).
att(376,276).
att(722,1094).
att(586,1048).
att(557,797).
att(813,821).
att(907,418).
att(581,710).
att(581,707).
att(570,1048).
att(581,695).
att(590,1048).
att(607,280).
att(582,1137).
att(610,218).
att(592,956).
att(624,1132).
att(648,427).
att(628,282).
att(617,187).
att(642,367).
att(638,439).
att(557,697).
att(718,1032).
att(586,956).
att(906,364).
att(907,426).
att(608,1136).
att(784,1007).
att(633,277).
att(903,369).
att(598,1041).
att(617,286).
att(653,439).
att(869,265).
att(652,444).
att(617,220).
att(592,1092).
att(363,189).
att(903,484).
att(620,221).
att(712,962).
att(955,460).
att(633,193).
att(363,185).
att(952,518).
att(570,1089).
att(871,339).
att(904,467).
att(952,514).
att(601,1117).
att(633,195).
att(699,969).
att(720,943).
att(398,382).
att(955,488).
att(629,225).
att(633,222).
att(363,216).
att(870,271).
att(904,494).
att(650,390).
att(628,202).
att(909,355).
att(916,338).
att(916,337).
att(779,941).
att(902,406).
att(729,198).
att(908,1040).
att(955,1134).
att(571,981).
att(653,803).
att(870,1055).
att(909,1025).
att(871,1049).
att(778,399).
att(742,286).
att(955,1150).
att(736,193).
att(575,980).
att(580,997).
att(653,700).
att(653,697).
att(579,1001).
att(784,441).
att(571,887).
att(734,221).
att(780,481).
att(911,1092).
att(574,845).
att(741,189).
att(664,382).
att(911,1061).
att(572,918).
att(909,1079).
att(658,376).
att(575,891).
att(742,188).
att(777,420).
att(916,1071).
att(736,122).
att(916,1086).
att(744,121).
att(911,1019).
att(786,416).
att(906,1132).
att(911,1013).
att(575,900).
att(751,248).
att(750,268).
att(572,845).
att(779,416).
att(575,921).
att(660,382).
att(666,374).
att(571,832).
att(571,826).
att(869,1044).
att(909,1105).
att(741,365).
att(778,469).
att(748,337).
att(741,370).
att(738,386).
att(749,345).
att(911,1105).
att(873,1121).
att(746,305).
att(727,394).
att(719,125).
att(745,252).
att(752,342).
att(734,308).
att(738,308).
att(753,338).
att(753,345).
att(734,398).
att(745,251).
att(645,842).
att(870,1061).
att(779,456).
att(745,391).
att(909,1135).
att(745,397).
att(881,1055).
att(731,259).
att(877,971).
att(741,317).
att(873,1109).
att(749,373).
att(634,958).
att(578,1043).
att(873,1147).
att(908,1133).
att(908,1131).
att(573,1039).
att(645,863).
att(910,1110).
att(573,1008).
att(745,312).
att(580,1033).
att(872,1115).
att(574,1004).
att(653,756).
att(572,960).
att(654,758).
att(871,1151).
att(876,1029).
att(660,225).
att(658,221).
att(876,1027).
att(693,430).
att(670,202).
att(686,367).
att(877,1015).
att(440,407).
att(680,430).
att(752,484).
att(440,401).
att(602,1004).
att(674,284).
att(436,410).
att(689,380).
att(870,1135).
att(666,231).
att(595,934).
att(872,1148).
att(664,119).
att(694,449).
att(670,221).
att(452,386).
att(452,381).
att(662,121).
att(440,435).
att(682,374).
att(746,451).
att(672,216).
att(746,426).
att(694,452).
att(880,1117).
att(990,347).
att(751,518).
att(593,822).
att(427,382).
att(805,1116).
att(585,845).
att(753,522).
att(670,121).
att(748,454).
att(752,514).
att(449,308).
att(676,297).
att(658,128).
att(682,386).
att(749,456).
att(749,463).
att(674,222).
att(689,297).
att(597,850).
att(446,343).
att(752,477).
att(554,1054).
att(813,1122).
att(583,1038).
att(430,315).
att(750,472).
att(687,386).
att(576,848).
att(589,1057).
att(673,394).
att(577,858).
att(579,839).
att(578,851).
att(672,317).
att(672,313).
att(674,400).
att(985,296).
att(571,787).
att(877,1123).
att(881,1107).
att(986,342).
att(876,1115).
att(673,297).
att(748,470).
att(987,347).
att(447,403).
att(580,852).
att(674,313).
att(637,1113).
att(874,1103).
att(572,774).
att(589,1031).
att(589,1006).
att(643,1052).
att(660,278).
att(589,981).
att(605,957).
att(990,432).
att(455,411).
att(577,800).
att(636,1142).
att(877,1152).
att(986,423).
att(602,1054).
att(447,435).
att(585,963).
att(635,1145).
att(646,1048).
att(686,446).
att(646,1044).
att(636,1107).
att(755,445).
att(662,202).
att(684,452).
att(452,444).
att(457,435).
att(578,697).
att(987,377).
att(577,703).
att(447,450).
att(595,35).
att(802,322).
att(552,192).
att(597,37).
att(986,1071).
att(557,281).
att(990,1113).
att(991,1101).
att(816,294).
att(462,453).
att(991,1106).
att(676,766).
att(464,428).
att(464,450).
att(461,447).
att(623,963).
att(689,756).
att(553,217).
att(990,1065).
att(617,1031).
att(987,1079).
att(808,266).
att(991,1121).
att(776,308).
att(555,287).
att(631,939).
att(693,803).
att(987,1150).
att(986,1141).
att(686,713).
att(755,1156).
att(986,1146).
att(949,1041).
att(949,1058).
att(557,135).
att(620,883).
att(813,286).
att(715,452).
att(554,171).
att(556,118).
att(951,968).
att(691,695).
att(699,427).
att(699,424).
att(951,1021).
att(676,891).
att(951,1086).
att(676,868).
att(808,449).
att(693,1006).
att(687,973).
att(674,806).
att(672,697).
att(985,1140).
att(802,365).
att(591,73).
att(985,1135).
att(948,1027).
att(585,153).
att(583,341).
att(593,140).
att(676,924).
att(569,64).
att(676,921).
att(485,405).
att(554,260).
att(808,384).
att(994,1123).
att(993,1111).
att(587,82).
att(693,921).
att(483,431).
att(480,431).
att(687,867).
att(776,444).
att(811,394).
att(557,244).
att(585,31).
att(994,1071).
att(686,856).
att(691,820).
att(485,436).
att(945,1097).
att(593,79).
att(776,376).
att(948,1061).
att(653,1033).
att(719,343).
att(626,806).
att(699,253).
att(724,346).
att(949,1104).
att(654,942).
att(482,474).
att(640,1010).
att(633,796).
att(629,707).
att(702,216).
att(702,228).
att(628,697).
att(709,185).
att(731,361).
att(954,1015).
att(640,921).
att(652,980).
att(955,1027).
att(629,713).
att(950,1156).
att(722,282).
att(720,277).
att(952,1084).
att(902,1058).
att(951,1155).
att(647,983).
att(903,1048).
att(640,867).
att(489,411).
att(712,222).
att(954,1044).
att(741,433).
att(699,110).
att(647,918).
att(719,200).
att(955,1058).
att(718,222).
att(947,1146).
att(905,1052).
att(948,1137).
att(712,380).
att(495,401).
att(498,403).
att(556,169).
att(809,198).
att(610,829).
att(557,165).
att(785,349).
att(556,157).
att(629,885).
att(782,339).
att(554,61).
att(808,222).
att(907,1065).
att(607,928).
att(718,376).
att(724,424).
att(558,171).
att(779,345).
att(904,1067).
att(779,352).
att(777,258).
att(628,981).
att(720,367).
att(905,1086).
att(583,34).
att(776,220).
att(552,95).
att(555,64).
att(583,37).
att(776,231).
att(718,382).
att(809,221).
att(496,438).
att(950,1158).
att(489,455).
att(782,271).
att(813,241).
att(780,248).
att(699,400).
att(780,258).
att(702,348).
att(702,346).
att(720,384).
att(780,385).
att(489,473).
att(699,297).
att(786,373).
att(718,308).
att(952,1143).
att(777,304).
att(904,1107).
att(558,82).
att(555,34).
att(620,774).
att(498,471).
att(623,758).
att(718,322).
att(720,308).
att(786,305).
att(620,761).
att(777,338).
att(497,473).
att(779,312).
att(729,835).
att(572,257).
att(785,1086).
att(499,480).
att(781,1015).
att(500,493).
att(777,1022).
att(572,325).
att(572,321).
att(650,68).
att(741,900).
att(576,257).
att(577,245).
att(647,93).
att(638,34).
att(780,1015).
att(784,1091).
att(744,937).
att(503,412).
att(573,203).
att(729,766).
att(736,858).
att(573,196).
att(503,403).
att(580,264).
att(576,264).
att(780,1073).
att(504,422).
att(576,274).
att(628,37).
att(752,966).
att(779,1145).
att(506,434).
att(738,1060).
att(780,1145).
att(738,1038).
att(781,1142).
att(650,186).
att(720,851).
att(645,283).
att(779,1148).
att(747,958).
att(788,961).
att(642,137).
att(734,963).
att(709,797).
att(720,756).
att(501,482).
att(501,496).
att(645,196).
att(736,1039).
att(777,1136).
att(508,483).
att(778,1159).
att(750,1097).
att(729,983).
att(782,1155).
att(512,489).
att(573,341).
att(640,75).
att(788,1023).
att(642,62).
att(647,155).
att(731,934).
att(722,700).
att(515,489).
att(508,503).
att(750,1027).
att(510,489).
att(729,867).
att(779,1140).
att(782,1137).
att(734,981).
att(782,1136).
att(740,889).
att(512,502).
att(745,1091).
att(751,1113).
att(752,1079).
att(666,826).
att(745,1084).
att(591,279).
att(748,1089).
att(788,1111).
att(662,854).
att(572,33).
att(520,414).
att(753,1113).
att(666,934).
att(575,71).
att(750,1113).
att(580,68).
att(593,357).
att(746,1063).
att(543,15).
att(777,1152).
att(597,274).
att(668,861).
att(673,839).
att(599,287).
att(662,766).
att(576,37).
att(595,245).
att(664,761).
att(747,1109).
att(684,940).
att(682,979).
att(668,760).
att(662,800).
att(597,190).
att(691,1038).
att(519,436).
att(664,794).
att(748,1105).
att(530,409).
att(658,768).
att(750,1144).
att(593,281).
att(527,414).
att(526,435).
att(746,1103).
att(595,232).
att(745,1077).
att(670,800).
att(591,126).
att(666,787).
att(752,1111).
att(673,756).
att(599,217).
att(686,999).
att(593,194).
att(672,796).
att(527,459).
att(521,480).
att(527,461).
att(734,797).
att(523,478).
att(577,223).
att(753,1160).
att(520,498).
att(674,1033).
att(748,1135).
att(749,1134).
att(740,806).
att(754,1044).
att(990,958).
att(752,1144).
att(748,1108).
att(788,1137).
att(662,895).
att(571,137).
att(580,242).
att(753,1134).
att(988,1052).
att(664,897).
att(989,1044).
att(571,132).
att(666,942).
att(576,157).
att(670,889).
att(658,891).
att(527,515).
att(575,61).
att(528,512).
att(662,820).
att(755,1099).
att(577,79).
att(748,1134).
att(755,1084).
att(749,1160).
att(599,341).
att(575,165).
att(575,169).
att(749,1156).
att(535,411).
att(703,1117).
att(950,253).
att(643,1085).
att(618,923).
att(557,922).
att(557,919).
att(599,661).
att(791,980).
att(695,1117).
att(551,899).
att(808,1004).
att(945,272).
att(641,1080).
att(776,1043).
att(948,322).
att(525,535).
att(649,1096).
att(710,1128).
att(552,855).
att(589,609).
att(684,163).
att(557,830).
att(597,688).
att(644,1026).
att(595,683).
att(684,169).
att(602,669).
att(686,157).
att(686,155).
att(951,266).
att(716,1128).
att(593,669).
att(602,663).
att(680,135).
att(555,929).
att(695,1071).
att(954,139).
att(687,165).
att(791,822).
att(676,81).
att(532,466).
att(558,860).
att(557,855).
att(605,1078).
att(710,1072).
att(607,357).
att(599,616).
att(813,889).
att(905,110).
att(948,396).
att(808,900).
att(953,238).
att(537,455).
att(602,677).
att(799,895).
att(583,767).
att(676,62).
att(611,982).
att(613,920).
att(946,359).
att(556,763).
att(604,1069).
att(531,491).
att(552,801).
att(703,1019).
att(631,351).
att(621,1000).
att(952,139).
att(626,257).
att(716,1093).
att(556,847).
att(593,630).
att(680,79).
att(799,900).
att(800,1097).
att(797,1092).
att(906,228).
att(946,363).
att(660,82).
att(952,188).
att(803,1093).
att(691,325).
att(950,368).
att(904,220).
att(582,967).
att(664,87).
att(621,1018).
att(693,341).
att(539,491).
att(658,73).
att(537,499).
att(696,1160).
att(905,200).
att(537,500).
att(945,374).
att(696,1152).
att(949,446).
att(705,1135).
att(534,515).
att(710,1153).
att(950,400).
att(595,810).
att(695,1136).
att(907,128).
att(534,503).
att(951,390).
att(994,367).
att(902,139).
att(531,529).
att(658,95).
att(945,388).
att(945,396).
att(536,502).
att(814,1091).
att(593,770).
att(613,995).
att(664,41).
att(954,216).
att(611,1088).
att(682,196).
att(613,1030).
att(785,806).
att(584,1012).
att(703,1141).
att(954,263).
att(794,966).
att(684,194).
att(907,278).
att(595,706).
att(796,957).
att(787,968).
att(907,246).
att(596,933).
att(814,1013).
att(670,35).
att(682,287).
att(611,1096).
att(687,247).
att(602,793).
att(789,1052).
att(602,807).
att(624,1090).
att(791,1051).
att(713,1142).
att(584,1037).
att(589,665).
att(584,1032).
att(593,728).
att(589,661).
att(534,535).
att(597,743).
att(950,424).
att(816,1038).
att(673,34).
att(694,285).
att(700,1142).
att(784,814).
att(789,974).
att(814,1058).
att(809,713).
att(709,883).
att(592,917).
att(786,856).
att(553,622).
att(955,313).
att(547,438).
att(782,861).
att(582,1076).
att(699,889).
att(780,848).
att(549,414).
att(902,356).
att(607,159).
att(624,1076).
att(556,630).
att(702,829).
att(594,936).
att(618,1080).
att(629,161).
att(618,1122).
att(638,325).
att(551,625).
att(777,803).
att(903,259).
att(724,885).
att(640,321).
att(903,394).
att(617,89).
att(781,822).
att(911,216).
att(549,464).
att(598,941).
att(872,122).
att(715,829).
att(781,832).
att(722,900).
att(782,832).
att(642,283).
att(547,476).
att(547,471).
att(654,360).
att(909,189).
att(640,273).
att(588,972).
att(601,1037).
att(545,496).
att(954,390).
att(719,829).
att(699,758).
att(545,495).
att(592,882).
att(594,1002).
att(911,122).
att(615,1127).
att(702,760).
att(633,91).
att(783,924).
att(783,937).
att(952,368).
att(724,822).
att(904,382).
att(778,851).
att(953,363).
att(777,868).
att(784,939).
att(702,1043).
att(633,244).
att(703,1048).
att(873,189).
att(581,717).
att(550,504).
att(909,262).
att(777,889).
att(541,529).
att(586,1011).
att(784,963).
att(544,528).
att(784,979).
att(808,850).
att(871,286).
att(910,284).
att(695,1041).
att(700,956).
att(623,173).
att(809,865).
att(703,966).
att(805,772).
att(703,958).
att(954,437).
att(553,739).
att(586,965).
att(617,275).
att(699,1035).
att(607,199).
att(805,768).
att(693,34).
att(909,286).
att(617,279).
att(872,221).
att(590,1100).
att(598,1068).
att(809,774).
att(776,758).
att(600,1078).
att(546,536).
att(718,940).
att(811,768).
att(557,739).
att(713,977).
att(749,789).
att(785,1035).
att(722,1039).
att(746,760).
att(750,865).
att(702,970).
att(570,1090).
att(745,787).
att(570,1094).
att(745,789).
att(777,973).
att(620,132).
att(910,259).
att(811,806).
att(553,683).
att(753,806).
att(633,229).
att(873,263).
att(550,544).
att(594,1074).
att(633,226).
att(783,1043).
att(783,1054).
att(869,277).
att(617,242).
att(581,683).
att(871,272).
att(752,796).
att(128,495).
att(731,199).
att(128,491).
att(752,195).
att(648,698).
att(122,499).
att(652,790).
att(861,1017).
att(592,481).
att(647,701).
att(110,461).
att(718,34).
att(699,46).
att(760,1135).
att(586,465).
att(744,273).
att(747,191).
att(777,386).
att(912,560).
att(764,1148).
att(852,966).
att(647,743).
att(778,396).
att(741,285).
att(720,46).
att(785,374).
att(756,1144).
att(744,289).
att(746,218).
att(908,1053).
att(865,1036).
att(117,455).
att(720,31).
att(746,231).
att(774,1132).
att(856,966).
att(640,743).
att(601,460).
att(772,1145).
att(764,1107).
att(121,508).
att(752,272).
att(573,817).
att(788,350).
att(910,1094).
att(772,1148).
att(753,262).
att(128,521).
att(648,665).
att(119,504).
att(731,140).
att(756,1101).
att(908,1068).
att(653,737).
att(908,1070).
att(852,971).
att(572,932).
att(871,1098).
att(871,1100).
att(573,853).
att(747,292).
att(576,830).
att(647,688).
att(777,430).
att(777,439).
att(573,860).
att(645,681).
att(768,1115).
att(738,135).
att(600,509).
att(760,1079).
att(750,262).
att(753,266).
att(746,277).
att(638,683).
att(638,690).
att(740,118).
att(654,657).
att(755,119).
att(652,932).
att(702,169).
att(131,543).
att(225,425).
att(715,123).
att(637,926).
att(874,888).
att(712,132).
att(119,536).
att(222,419).
att(989,119).
att(854,1106).
att(880,995).
att(633,661).
att(114,537).
att(848,1128).
att(850,1121).
att(854,1071).
att(854,1077).
att(702,69).
att(856,1072).
att(881,892).
att(125,534).
att(653,843).
att(851,1092).
att(720,140).
att(652,833).
att(719,118).
att(873,1098).
att(731,357).
att(749,324).
att(633,677).
att(638,849).
att(751,317).
att(607,630).
att(139,539).
att(635,930).
att(747,378).
att(715,71).
att(856,1091).
att(886,568).
att(888,561).
att(738,360).
att(642,793).
att(648,773).
att(722,153).
att(753,446).
att(886,561).
att(848,1082).
att(218,455).
att(740,354).
att(858,1093).
att(746,380).
att(848,1091).
att(231,461).
att(231,462).
att(746,363).
att(741,325).
att(760,1134).
att(854,1025).
att(869,1116).
att(640,714).
att(645,790).
att(748,308).
att(119,547).
att(712,93).
att(761,1138).
att(896,560).
att(892,563).
att(749,390).
att(753,365).
att(634,1000).
att(985,110).
att(709,79).
att(638,793).
att(989,238).
att(654,759).
att(985,292).
att(755,249).
att(571,655).
att(651,844).
att(787,1105).
att(986,202).
att(741,44).
att(591,935).
att(637,1042).
att(591,932).
att(774,1049).
att(984,277).
att(641,841).
att(768,956).
att(789,1149).
att(651,824).
att(985,280).
att(572,685).
att(990,188).
att(800,1109).
att(589,838).
att(748,380).
att(597,925).
att(752,439).
att(574,675).
att(637,1034).
att(574,685).
att(634,1047).
att(637,1037).
att(574,683).
att(984,191).
att(841,559).
att(635,1056).
att(666,173).
att(797,1143).
att(989,295).
att(573,609).
att(814,1105).
att(668,120).
att(602,925).
att(673,217).
att(577,678).
att(988,319).
att(664,159).
att(641,894).
att(666,236).
att(649,886).
att(580,657).
att(644,823).
att(880,1064).
att(806,1063).
att(986,292).
att(599,857).
att(641,923).
att(602,840).
att(823,567).
att(875,1064).
att(125,415).
att(989,367).
att(727,66).
att(645,619).
att(754,363).
att(122,409).
att(986,319).
att(738,169).
att(766,1075).
att(992,231).
att(987,388).
att(571,864).
att(574,757).
att(727,163).
att(984,396).
att(571,855).
att(989,374).
att(756,1073).
att(985,317).
att(573,798).
att(668,351).
att(575,757).
att(577,769).
att(577,767).
att(992,222).
att(580,853).
att(641,995).
att(988,390).
att(574,795).
att(664,254).
att(796,1136).
att(643,1059).
att(128,461).
att(649,1012).
att(803,1155).
att(121,419).
att(994,280).
att(579,771).
att(644,1053).
att(741,79).
att(577,815).
att(742,75).
att(578,807).
att(744,71).
att(131,435).
att(604,1050).
att(984,368).
att(668,293).
att(794,1144).
att(643,975).
att(658,186).
att(738,44).
att(664,199).
att(990,367).
att(766,1052).
att(117,412).
att(646,1016).
att(664,186).
att(646,1014).
att(673,273).
att(949,185).
att(672,275).
att(571,701).
att(666,267).
att(128,412).
att(744,93).
att(993,188).
att(713,465).
att(800,352).
att(288,411).
att(682,775).
att(985,1120).
att(990,1125).
att(693,855).
att(621,252).
att(639,418).
att(808,341).
att(187,502).
att(987,1118).
att(569,54).
att(913,1093).
att(202,520).
att(682,815).
att(754,1129).
att(597,54).
att(985,1070).
att(805,264).
att(921,1022).
att(191,512).
att(684,815).
att(202,515).
att(991,1112).
att(599,57).
att(928,1065).
att(928,1063).
att(602,40).
att(569,14).
att(921,1055).
att(946,969).
att(921,1052).
att(290,455).
att(993,1056).
att(286,457).
att(691,801).
att(595,12).
att(608,250).
att(651,460).
att(941,565).
att(947,1000).
att(587,22).
att(791,275).
att(992,1030).
att(558,230).
att(805,285).
att(924,1048).
att(611,342).
att(947,943).
att(680,807).
att(707,492).
att(583,130).
att(604,488).
att(713,426).
att(288,428).
att(280,412).
att(799,186).
att(290,425).
att(837,1140).
att(200,548).
att(198,546).
att(286,428).
att(813,289).
att(934,1052).
att(934,1049).
att(994,975).
att(286,425).
att(651,481).
att(703,369).
att(618,265).
att(684,743).
att(595,26).
att(639,494).
att(816,287).
att(820,1141).
att(716,448).
att(558,124).
att(191,531).
att(611,268).
att(602,11).
att(900,1027).
att(552,101).
att(816,293).
att(913,968).
att(288,500).
att(666,704).
att(658,725).
att(921,1148).
att(571,1).
att(286,495).
att(577,30).
att(803,445).
att(597,124).
att(893,1058).
att(885,964).
att(582,311).
att(664,726).
att(867,1029).
att(953,912).
att(992,1074).
att(278,476).
att(591,166).
att(3,560).
att(918,1140).
att(593,243).
att(897,1046).
att(578,21).
att(959,568).
att(593,235).
att(576,9).
att(597,167).
att(792,392).
att(792,391).
att(587,65).
att(282,461).
att(928,1148).
att(618,311).
att(993,1014).
att(577,9).
att(978,561).
att(595,156).
att(787,399).
att(292,462).
att(286,473).
att(605,467).
att(948,1028).
att(792,373).
att(195,549).
att(282,440).
att(658,737).
att(282,438).
att(571,5).
att(639,517).
att(641,507).
att(580,30).
att(794,296).
att(954,896).
att(955,879).
att(658,679).
att(286,529).
att(907,912).
att(934,1107).
att(796,312).
att(615,379).
att(662,688).
att(705,509).
att(664,681).
att(608,432).
att(676,818).
att(784,119).
att(599,72).
att(927,1126).
att(903,915).
att(918,1110).
att(621,404).
att(948,1116).
att(913,1130).
att(789,393).
att(867,964).
att(713,507).
att(280,499).
att(946,1085).
att(593,88).
att(710,511).
att(928,1126).
att(684,857).
att(280,498).
att(662,614).
att(694,898).
att(597,90).
att(948,1078).
att(585,84).
att(680,827).
att(900,1109).
att(593,78).
att(946,1090).
att(552,16).
att(799,87).
att(600,252).
att(620,815).
att(231,503).
att(805,91).
att(781,139).
att(220,496).
att(802,97).
att(222,510).
att(618,467).
att(626,804).
att(713,258).
att(610,812).
att(791,93).
att(953,1050).
att(617,773).
att(601,349).
att(863,1155).
att(555,11).
att(556,18).
att(702,192).
att(945,1120).
att(628,807).
att(628,804).
att(851,1147).
att(955,1000).
att(858,1133).
att(858,1132).
att(615,443).
att(615,429).
att(618,420).
att(222,493).
att(783,216).
att(835,1052).
att(865,1152).
att(241,493).
att(221,461).
att(608,402).
att(581,22).
att(820,1044).
att(852,1160).
att(780,128).
att(611,408).
att(712,190).
att(221,521).
att(552,8).
att(778,195).
att(839,1036).
att(590,358).
att(712,199).
att(607,656).
att(809,31).
att(782,185).
att(610,656).
att(845,1052).
att(842,1058).
att(851,1145).
att(570,339).
att(902,1053).
att(608,517).
att(601,397).
att(699,197).
att(916,825).
att(863,1145).
att(785,195).
att(854,1108).
att(620,665).
att(719,199).
att(786,188).
att(719,197).
att(842,971).
att(623,657).
att(856,1110).
att(642,833).
att(848,1104).
att(631,725).
att(848,1103).
att(596,305).
att(586,355).
att(858,1104).
att(617,739).
att(596,296).
att(608,454).
att(638,919).
att(905,1066).
att(598,366).
att(785,348).
att(903,1096).
att(583,90).
att(680,661).
att(776,196).
att(911,933).
att(189,462).
att(785,350).
att(586,369).
att(705,391).
att(187,419).
att(185,435).
att(552,172).
att(776,275).
att(193,422).
att(811,234).
att(839,1107).
att(682,690).
att(553,99).
att(552,84).
att(903,1016).
att(791,153).
att(829,1113).
att(691,665).
att(813,234).
att(832,1130).
att(220,537).
att(225,549).
att(557,78).
att(581,98).
att(808,140).
att(596,379).
att(909,926).
att(705,305).
att(195,407).
att(676,685).
att(953,1080).
att(620,899).
att(693,655).
att(776,190).
att(791,126).
att(871,825).
att(551,63).
att(791,123).
att(686,678).
att(195,409).
att(556,84).
att(601,477).
att(747,139).
att(752,131).
att(829,1077).
att(620,853).
att(707,309).
att(788,238).
att(916,941).
att(600,420).
att(752,139).
att(680,616).
att(832,1072).
att(842,1117).
att(191,487).
att(713,316).
att(188,474).
att(809,120).
att(558,84).
att(686,630).
att(594,475).
att(631,836).
att(837,1104).
att(751,222).
att(791,161).
att(871,998).
att(780,319).
att(552,54).
att(910,882).
att(712,351).
att(785,310).
att(583,15).
att(826,1091).
att(193,480).
att(954,1125).
att(718,323).
att(873,912).
att(781,340).
att(713,352).
att(715,354).
att(809,158).
att(781,356).
att(786,317).
att(813,153).
att(607,771).
att(680,632).
att(822,1093).
att(697,345).
att(784,388).
att(628,838).
att(202,480).
att(707,296).
att(910,879).
att(788,131).
att(998,561).
att(845,1079).
att(861,373).
att(640,90).
att(760,522).
att(761,516).
att(1016,562).
att(262,542).
att(903,511).
att(262,546).
att(590,1124).
att(1004,1107).
att(712,663).
att(778,1016).
att(911,397).
att(642,88).
att(350,464).
att(595,453).
att(712,657).
att(785,1083).
att(719,730).
att(980,1144).
att(980,1142).
att(722,728).
att(715,655).
att(583,540).
att(18,562).
att(596,1149).
att(746,844).
att(783,1068).
att(596,1144).
att(640,78).
att(747,819).
att(596,1142).
att(909,364).
att(942,957).
att(944,974).
att(551,545).
att(348,405).
att(727,929).
att(903,472).
att(851,349).
att(350,440).
att(709,692).
att(785,1020).
att(903,458).
att(601,1105).
att(353,434).
att(781,1045).
att(702,606).
att(851,342).
att(594,1123).
att(738,838).
att(766,522).
att(266,548).
att(340,414).
att(594,1128).
att(648,99).
att(744,935).
att(594,1101).
att(783,1090).
att(556,546).
att(782,1016).
att(856,309).
att(852,399).
att(272,535).
att(322,419).
att(570,1071).
att(249,525).
att(751,841).
att(1004,1105).
att(645,77).
att(551,536).
att(777,1056).
att(599,491).
att(745,926).
att(601,1158).
att(640,54).
att(871,426).
att(760,477).
att(356,496).
att(598,1138).
att(1004,1075).
att(869,362).
att(589,480).
att(653,94).
att(753,878).
att(343,471).
att(742,838).
att(742,818).
att(642,55).
att(595,495).
att(1006,1079).
att(731,773).
att(359,485).
att(594,1158).
att(585,476).
att(746,882).
att(1004,1111).
att(854,252).
att(788,886).
att(887,1151).
att(852,250).
att(322,487).
att(748,834).
att(780,1062).
att(729,810).
att(653,43).
att(574,243).
att(16,567).
att(594,1134).
att(911,426).
att(650,53).
att(762,463).
att(782,1076).
att(870,369).
att(909,441).
att(587,455).
att(779,1076).
att(1016,568).
att(348,438).
att(744,857).
att(756,494).
att(779,1064).
att(779,1066).
att(1001,1158).
att(752,978).
att(837,349).
att(589,512).
att(623,60).
att(874,261).
att(595,530).
att(911,481).
att(633,43).
att(976,1091).
att(350,526).
att(873,484).
att(850,488).
att(724,859).
att(845,347).
att(944,1075).
att(876,248).
att(556,555).
att(939,1099).
att(973,1023).
att(851,432).
att(1006,1151).
att(623,18).
att(1001,1134).
att(750,967).
att(908,490).
att(909,488).
att(871,420).
att(574,405).
att(585,541).
att(851,366).
att(861,406).
att(960,966).
att(353,546).
att(597,547).
att(297,440).
att(851,372).
att(591,533).
att(753,1096).
att(650,116).
att(748,1011).
att(976,1046).
att(988,844).
att(319,414).
att(981,1160).
att(870,513).
att(870,509).
att(724,804).
att(750,1088).
att(850,423).
att(699,721).
att(750,1081).
att(718,698).
att(724,798).
att(944,1015).
att(617,4).
att(640,67).
att(861,429).
att(709,726).
att(871,456).
att(916,522).
att(315,415).
att(745,975).
att(356,539).
att(916,518).
att(916,507).
att(297,415).
att(591,526).
att(595,538).
att(633,29).
att(748,1032).
att(872,465).
att(623,4).
att(595,539).
att(650,166).
att(875,311).
att(350,534).
att(981,1134).
att(854,423).
att(944,1046).
att(848,379).
att(865,451).
att(554,410).
att(755,878).
att(745,1094).
att(986,834).
att(266,434).
att(788,1119).
att(745,1088).
att(556,435).
att(731,614).
att(988,884).
att(578,98).
att(792,511).
att(269,407).
att(278,532).
att(883,1115).
att(573,58).
att(881,372).
att(794,479).
att(556,414).
att(636,307).
att(745,1028).
att(876,395).
att(660,775).
att(754,933).
att(636,318).
att(762,342).
att(290,537).
att(579,100).
att(872,522).
att(288,539).
att(752,1088).
att(578,40).
att(555,409).
att(277,508).
att(278,529).
att(988,917).
att(634,395).
att(740,612).
att(744,681).
att(989,917).
att(984,841).
att(292,530).
att(747,1090).
att(738,612).
att(558,471).
att(558,480).
att(576,58).
att(880,488).
att(794,404).
att(921,1160).
att(986,879).
att(259,457).
att(986,884).
att(986,886).
att(1056,565).
att(796,404).
att(672,765).
att(742,616).
att(249,434).
att(741,619).
att(756,258).
att(262,425).
att(674,849).
att(634,413).
att(581,422).
att(897,1099).
att(875,413).
att(266,464).
att(754,1007).
att(990,886).
att(595,237).
att(253,438).
att(280,548).
att(670,815).
att(553,434).
att(577,18).
att(1034,562).
att(30,564).
att(991,896).
att(897,1025).
att(749,1129).
att(787,445).
att(599,227).
att(867,1086).
att(895,1029).
att(277,534).
att(796,451).
att(551,425).
att(762,271).
att(921,1158).
att(792,406).
att(580,56).
att(875,418).
att(262,412).
att(797,479).
att(875,517).
att(895,1159).
att(876,470).
att(638,23).
att(573,101).
att(576,240).
att(554,498).
att(754,1014).
att(897,1156).
att(652,54).
att(1006,1017).
att(556,512).
att(642,25).
att(768,420).
att(987,1050).
att(253,498).
att(556,501).
att(653,60).
att(634,454).
att(740,793).
att(744,763).
att(558,491).
att(577,136).
att(764,448).
att(553,485).
att(881,470).
att(889,1141).
att(557,495).
att(578,101).
att(1047,567).
att(1001,968).
att(893,1140).
att(603,261).
att(654,18).
att(653,10).
att(641,338).
att(583,459).
att(262,459).
att(551,476).
att(575,230).
att(756,442).
att(249,447).
att(744,804).
att(985,959).
att(643,391).
att(259,525).
att(734,726).
att(993,917).
att(764,364).
att(741,698).
att(636,513).
att(574,80).
att(605,311).
att(579,136).
att(729,663).
att(766,364).
att(650,7).
att(897,1149).
att(605,385).
att(774,432).
att(256,523).
att(263,536).
att(574,63).
att(742,723).
att(583,515).
att(653,29).
att(949,926).
att(575,127).
att(575,141).
att(762,432).
att(883,1144).
att(262,510).
att(650,8).
att(885,1124).
att(727,681).
att(734,667).
att(990,1012).
att(662,846).
att(991,1028).
att(768,387).
att(603,318).
att(555,527).
att(949,824).
att(738,671).
att(263,523).
att(895,1109).
att(634,522).
att(604,314).
att(666,13).
att(689,235).
att(792,896).
att(398,491).
att(653,508).
att(691,227).
att(390,468).
att(803,1005).
att(924,445).
att(382,501).
att(934,413).
att(670,15).
att(937,406).
att(388,474).
att(789,998).
att(913,445).
att(654,493).
att(792,917).
att(672,20).
att(394,474).
att(684,166).
att(660,2).
att(647,480).
att(684,172).
att(695,1080).
att(796,914).
att(696,1069).
att(806,894).
att(716,1127).
att(700,1116).
att(928,404).
att(386,473).
att(806,878).
att(693,133).
att(1043,1141).
att(363,403).
att(921,397).
att(802,899).
att(1051,1107).
att(668,8).
att(386,527).
att(388,505).
att(697,1066).
att(695,1087).
att(1035,1149).
att(696,1090).
att(814,879).
att(1043,1108).
att(640,503).
att(650,510).
att(1039,1133).
att(654,527).
att(707,1114).
att(672,9).
att(927,392).
att(680,90).
att(797,834).
att(918,311).
att(900,392).
att(813,929).
att(388,499).
att(716,1081).
att(713,1098).
att(713,1094).
att(934,391).
att(691,65).
att(645,506).
att(934,399).
att(808,818).
att(676,90).
att(918,397).
att(696,1028).
att(814,936).
att(100,563).
att(400,544).
att(572,580).
att(400,542).
att(631,453).
att(670,70).
att(887,305).
att(887,314).
att(361,459).
att(668,76).
att(887,304).
att(647,543).
att(887,309).
att(363,440).
att(645,546).
att(378,410).
att(792,1087).
att(868,371).
att(376,409).
att(381,545).
att(934,509).
att(918,518).
att(895,311).
att(664,47).
att(673,70).
att(895,318).
att(673,78).
att(640,520).
att(868,389).
att(774,831).
att(631,411).
att(633,407).
att(658,52).
att(361,500).
att(921,490).
att(363,500).
att(572,555).
att(623,471).
att(918,463).
att(883,355).
att(789,1059).
att(626,462).
att(1125,567).
att(378,464).
att(794,982).
att(891,252).
att(931,484).
att(928,488).
att(1054,1156).
att(934,488).
att(94,568).
att(787,1003).
att(937,481).
att(577,551).
att(628,468).
att(94,559).
att(580,599).
att(918,488).
att(380,431).
att(626,434).
att(710,882).
att(963,1108).
att(1031,1049).
att(1039,1048).
att(1100,564).
att(629,101).
att(791,657).
att(973,1145).
att(689,21).
att(802,730).
att(631,138).
att(1098,563).
att(294,489).
att(940,1134).
att(973,1150).
att(682,6).
att(976,1146).
att(979,1143).
att(1033,1048).
att(1094,562).
att(799,721).
att(776,798).
att(970,1132).
att(628,235).
att(676,9).
att(346,547).
att(837,371).
att(295,468).
att(313,453).
att(689,6).
att(713,930).
att(842,362).
att(942,1145).
att(839,377).
att(313,462).
att(691,2).
att(820,385).
att(58,568).
att(691,1).
att(572,428).
att(813,739).
att(295,466).
att(842,369).
att(942,1144).
att(826,366).
att(617,170).
att(295,459).
att(939,1110).
att(574,499).
att(315,506).
att(574,491).
att(816,678).
att(317,504).
att(576,506).
att(575,515).
att(813,657).
att(979,1117).
att(858,524).
att(837,366).
att(820,309).
att(578,497).
att(697,841).
att(617,77).
att(712,853).
att(940,1111).
att(628,88).
att(776,677).
att(809,688).
att(858,458).
att(863,524).
att(863,513).
att(313,496).
att(848,458).
att(848,456).
att(313,491).
att(837,385).
att(851,463).
att(578,483).
att(709,817).
att(317,533).
att(687,84).
att(682,43).
att(653,425).
att(809,840).
att(928,314).
att(308,526).
att(931,309).
att(308,521).
att(689,86).
att(396,403).
att(591,585).
att(654,410).
att(928,383).
att(693,88).
att(297,535).
att(697,1024).
att(689,43).
att(842,463).
att(587,558).
att(832,475).
att(921,265).
att(578,523).
att(837,470).
att(1043,1019).
att(1043,1017).
att(682,54).
att(313,519).
att(297,527).
att(816,847).
att(571,512).
att(696,975).
att(829,463).
att(571,503).
att(695,965).
att(820,490).
att(648,466).
att(381,485).
att(976,1155).
att(382,473).
att(49,568).
att(610,116).
att(837,494).
att(308,547).
att(1033,1093).
att(45,567).
att(640,422).
att(697,943).
att(808,804).
att(1035,1091).
att(386,453).
att(716,972).
att(805,804).
att(811,759).
att(813,773).
att(1038,1092).
att(398,428).
att(693,56).
att(707,1050).
att(695,1002).
att(319,547).
att(396,428).
att(610,156).
att(650,431).
att(776,793).
att(578,545).
att(939,1151).
att(577,548).
att(689,10).
att(648,419).
att(811,807).
att(832,451).
att(388,410).
att(652,455).
att(575,546).
att(900,258).
att(638,401).
att(580,547).
att(1008,463).
att(694,541).
att(960,248).
att(629,571).
att(1001,488).
att(712,47).
att(854,1045).
att(1004,511).
att(693,525).
att(699,50).
att(702,19).
att(691,526).
att(444,508).
att(940,352).
att(427,520).
att(689,523).
att(940,338).
att(617,602).
att(680,504).
att(944,355).
att(944,352).
att(944,349).
att(333,563).
att(718,60).
att(699,24).
att(761,1120).
att(335,559).
att(668,462).
att(980,488).
att(172,562).
att(740,235).
att(633,551).
att(452,540).
att(673,459).
att(997,406).
att(664,409).
att(724,57).
att(999,377).
att(848,912).
att(662,401).
att(761,1066).
att(731,160).
att(736,127).
att(718,29).
att(682,532).
att(740,134).
att(718,22).
att(758,1118).
att(676,530).
att(694,543).
att(676,526).
att(997,426).
att(858,888).
att(791,3).
att(826,884).
att(837,1003).
att(850,1076).
att(660,482).
att(710,110).
att(842,1005).
att(809,11).
att(710,117).
att(940,406).
att(973,445).
att(805,28).
att(694,555).
att(970,404).
att(816,19).
att(835,879).
att(960,426).
att(673,491).
att(850,1098).
att(668,480).
att(720,130).
att(802,9).
att(940,432).
att(712,164).
att(813,30).
att(842,888).
att(865,1116).
att(626,629).
att(976,379).
att(164,563).
att(162,559).
att(852,1112).
att(712,70).
att(854,1100).
att(776,1).
att(960,307).
att(829,819).
att(939,369).
att(963,307).
att(633,628).
att(813,9).
att(842,923).
att(718,77).
att(976,397).
att(850,1094).
att(724,160).
att(813,8).
att(670,508).
att(699,38).
att(670,502).
att(839,825).
att(863,1083).
att(623,571).
att(715,96).
att(633,521).
att(645,552).
att(758,998).
att(623,512).
att(887,416).
att(980,349).
att(662,224).
att(760,996).
att(610,495).
att(740,58).
att(648,554).
att(361,520).
att(727,58).
att(756,962).
att(883,477).
att(660,133).
att(376,498).
att(662,101).
att(660,124).
att(660,141).
att(660,138).
att(760,888).
att(736,17).
att(664,133).
att(670,230).
att(883,421).
att(762,975).
att(633,499).
att(740,13).
att(981,261).
att(378,538).
att(684,407).
att(684,409).
att(760,914).
att(631,546).
att(631,545).
att(363,543).
att(694,440).
att(768,884).
att(610,529).
att(672,141).
att(361,544).
att(693,410).
att(607,523).
att(756,890).
att(794,1096).
att(691,410).
att(427,410).
att(794,1081).
att(800,1068).
att(365,533).
att(376,521).
att(672,162).
att(761,821).
att(742,29).
att(610,508).
att(760,1096).
att(764,1080).
att(1004,373).
att(768,1064).
att(444,453).
att(741,130).
att(854,923).
att(981,448).
att(610,547).
att(761,1100).
att(686,436).
att(722,21).
att(848,933).
att(452,425).
att(647,652).
att(885,522).
att(885,511).
att(80,568).
att(758,1026).
att(983,392).
att(861,926).
att(889,509).
att(861,917).
att(887,522).
att(687,466).
att(77,564).
att(858,825).
att(430,438).
att(741,156).
att(427,440).
att(865,915).
att(734,170).
att(848,828).
att(638,585).
att(861,834).
att(980,395).
att(680,500).
att(768,1030).
att(1008,305).
att(741,67).
att(981,385).
att(676,480).
att(756,1024).
att(893,458).
att(642,552).
att(867,509).
att(867,507).
att(424,498).
att(682,473).
att(774,1026).
att(895,472).
att(63,568).
att(449,457).
att(680,473).
att(654,576).
att(868,912).
att(937,1069).
att(796,266).
att(731,550).
att(720,476).
att(243,561).
att(924,1085).
att(889,828).
att(900,1114).
att(670,617).
att(237,566).
att(240,559).
att(235,562).
att(674,693).
att(699,419).
att(789,340).
att(918,1066).
att(664,650).
att(931,1094).
att(1054,513).
att(205,559).
att(797,249).
att(868,823).
att(934,1094).
att(924,1030).
att(893,828).
att(738,542).
att(736,544).
att(664,575).
att(814,324).
att(789,272).
att(918,1085).
att(718,401).
att(931,1014).
att(797,276).
att(792,200).
att(1060,463).
att(924,1056).
att(1057,454).
att(705,424).
att(672,578).
att(792,228).
att(672,581).
att(720,493).
att(705,374).
att(1054,494).
att(660,556).
att(702,450).
att(1038,454).
att(716,452).
att(716,446).
att(934,1059).
att(724,485).
att(227,564).
att(787,225).
att(758,231).
att(720,538).
att(762,195).
att(152,562).
att(712,530).
att(764,188).
att(729,552).
att(702,506).
att(719,538).
att(776,405).
att(895,1045).
att(796,370).
att(718,508).
att(699,501).
att(885,1009).
att(109,564).
att(885,1005).
att(744,553).
att(720,526).
att(895,943).
att(709,512).
att(768,241).
att(761,125).
att(796,390).
att(742,591).
att(756,241).
att(738,581).
att(762,122).
att(709,546).
att(806,394).
att(814,361).
att(799,419).
att(774,218).
att(792,381).
att(787,308).
att(867,965).
att(794,350).
att(792,340).
att(722,546).
att(797,308).
att(887,917).
att(924,1074).
att(885,920).
att(712,531).
att(895,882).
att(709,537).
att(918,1125).
att(742,450).
att(776,67).
att(809,78).
att(832,1020).
att(1033,387).
att(835,1011).
att(670,545).
att(805,99).
att(689,652).
att(686,577).
att(820,1012).
att(979,513).
att(845,1081).
att(660,535).
att(680,653).
att(700,246).
att(1031,318).
att(822,962).
att(963,481).
att(697,187).
att(939,509).
att(734,414).
att(734,409).
att(662,523).
att(973,472).
att(805,38).
att(842,1020).
att(832,1047).
att(1033,307).
att(674,539).
att(693,572).
att(963,467).
att(816,84).
att(674,540).
att(1038,318).
att(837,1088).
att(820,1053).
att(791,12).
att(826,967).
att(776,49).
att(713,198).
att(1031,347).
att(729,459).
att(940,456).
att(845,1056).
att(744,478).
att(130,563).
att(837,1016).
att(686,552).
att(940,475).
att(1039,248).
att(740,450).
att(791,26).
att(791,25).
att(703,117).
att(842,969).
att(703,131).
att(710,220).
att(1031,250).
att(813,59).
att(718,240).
att(805,14).
att(703,110).
att(713,228).
att(695,121).
att(695,114).
att(738,436).
att(672,549).
att(742,462).
att(802,240).
att(742,523).
att(1039,494).
att(705,384).
att(803,221).
att(670,557).
att(1057,416).
att(787,119).
att(744,506).
att(734,501).
att(1038,494).
att(937,962).
att(1051,451).
att(738,491).
att(822,1078).
att(713,390).
att(741,504).
att(729,474).
att(673,555).
att(1060,443).
att(934,998).
att(1039,492).
att(700,384).
att(1051,404).
att(697,398).
att(697,396).
att(676,687).
att(1038,408).
att(740,532).
att(689,694).
att(680,623).
att(700,353).
att(740,533).
att(931,878).
att(811,133).
att(835,1062).
att(738,531).
att(686,620).
att(1060,366).
att(705,343).
att(1035,432).
att(809,205).
att(696,359).
att(676,620).
att(829,1120).
att(918,890).
att(744,537).
att(791,167).
att(742,533).
att(710,324).
att(694,626).
att(1043,305).
att(1051,393).
att(845,1069).
att(924,844).
att(687,610).
att(727,515).
att(934,923).
att(727,503).
att(1038,371).
att(1051,364).
att(918,930).
att(816,160).
att(702,689).
att(845,110).
att(970,1005).
att(976,982).
att(715,673).
att(973,998).
att(944,941).
att(858,400).
att(850,382).
att(718,660).
att(848,398).
att(999,1080).
att(963,930).
att(699,626).
att(854,295).
att(211,565).
att(207,560).
att(940,1003).
att(942,998).
att(208,559).
att(839,110).
att(942,1003).
att(854,356).
att(712,617).
att(719,684).
att(1001,1094).
att(720,684).
att(850,324).
att(944,882).
att(850,288).
att(973,828).
att(720,628).
att(856,246).
att(722,628).
att(863,356).
att(848,269).
att(865,343).
att(722,626).
att(976,823).
att(939,1080).
att(939,1074).
att(963,1026).
att(973,1083).
att(816,638).
att(696,710).
att(808,574).
att(976,1087).
att(839,359).
att(976,1088).
att(813,620).
att(837,269).
att(829,284).
att(973,1028).
att(791,569).
att(811,640).
att(805,575).
att(776,629).
att(816,647).
att(808,575).
att(842,278).
att(858,444).
att(976,1056).
att(816,577).
att(826,290).
att(816,583).
att(712,727).
att(973,978).
att(842,195).
att(802,583).
att(179,561).
att(852,444).
att(960,969).
att(944,1050).
att(813,493).
att(893,1114).
att(885,1074).
att(983,888).
att(799,483).
att(761,346).
att(980,1002).
att(897,1112).
att(1004,982).
att(1010,878).
att(1010,886).
att(734,617).
att(802,461).
att(885,1087).
att(867,1112).
att(734,607).
att(731,650).
att(758,282).
att(758,290).
att(762,253).
att(867,1064).
att(731,580).
att(805,503).
att(741,628).
att(766,249).
att(768,266).
att(776,530).
att(744,623).
att(776,521).
att(776,526).
att(734,577).
att(794,444).
att(764,286).
att(805,487).
att(809,508).
att(791,483).
att(813,500).
att(1006,1014).
att(1006,1026).
att(983,1085).
att(858,288).
att(760,376).
att(709,593).
att(1006,1032).
att(760,363).
att(980,1012).
att(802,523).
att(1008,1047).
att(148,567).
att(727,662).
att(738,744).
att(856,241).
att(1001,1005).
att(760,400).
att(766,367).
att(861,200).
att(762,444).
att(983,1050).
att(887,1114).
att(999,882).
att(852,131).
att(1004,1009).
att(761,317).
att(719,558).
att(731,689).
att(719,583).
att(980,962).
att(722,583).
att(799,542).
att(740,660).
att(756,398).
att(887,202).
att(927,437).
att(762,695).
att(897,277).
att(774,803).
att(897,280).
att(883,221).
att(883,231).
att(868,187).
att(931,439).
att(921,365).
att(867,290).
att(891,222).
att(883,128).
att(868,191).
att(868,117).
att(1060,1114).
att(867,221).
att(897,128).
att(913,319).
att(868,363).
att(980,218).
att(1008,121).
att(758,762).
att(761,760).
att(889,356).
att(761,774).
att(891,340).
att(883,256).
att(893,343).
att(761,794).
att(868,294).
att(756,768).
att(891,294).
att(897,340).
att(758,695).
att(764,789).
att(885,284).
att(897,249).
att(897,259).
att(813,720).
att(802,731).
att(839,452).
att(927,241).
att(900,280).
att(1060,978).
att(802,666).
att(1051,1000).
att(1039,978).
att(835,384).
att(1054,996).
att(842,368).
att(811,731).
att(826,374).
att(822,381).
att(1060,1009).
att(900,117).
att(931,128).
att(928,121).
att(811,674).
att(928,117).
att(1035,1007).
att(813,664).
att(845,400).
att(970,1080).
att(832,353).
att(820,322).
att(835,356).
att(944,1120).
att(799,694).
att(900,125).
att(820,343).
att(813,676).
att(1060,917).
att(1054,1064).
att(918,343).
att(1060,1069).
att(900,396).
att(931,324).
att(794,806).
att(1039,1119).
att(928,256).
att(792,707).
att(934,246).
att(1054,1030).
att(808,802).
att(934,249).
att(1043,1016).
att(835,427).
att(802,702).
att(1039,1098).
att(1051,1014).
att(1051,1012).
att(1038,1028).
att(913,200).
att(976,350).
att(973,343).
att(845,856).
att(826,796).
att(820,697).
att(839,762).
att(973,276).
att(960,292).
att(835,700).
att(837,707).
att(1008,433).
att(1006,452).
att(976,187).
att(1033,277).
att(1060,202).
att(1051,231).
att(939,430).
att(1051,220).
att(979,378).
att(1039,220).
att(1054,110).
att(835,837).
att(1060,119).
att(960,348).
att(820,760).
att(832,861).
att(1033,121).
att(826,845).
att(820,852).
att(865,787).
att(848,697).
att(999,276).
att(861,760).
att(997,263).
att(997,185).
att(1008,280).
att(1001,193).
att(983,187).
att(980,290).
att(1006,193).
att(1008,195).
att(980,276).
att(980,282).
att(997,198).
att(1004,220).
att(999,128).
att(1008,225).
att(897,380).
att(970,220).
att(999,390).
att(979,225).
att(979,241).
att(981,370).
att(1010,394).
att(1010,381).
att(944,241).
att(999,348).
att(999,343).
att(410,564).
att(1010,308).
att(411,560).
att(980,315).
att(980,297).
att(858,764).
att(997,356).
att(891,918).
att(885,822).
att(887,839).
att(889,837).
att(887,861).
att(889,848).
att(887,762).
att(868,758).
att(897,756).
att(999,794).
att(981,856).
att(997,696).
att(980,703).
att(887,924).
att(980,710).
att(981,700).
att(1033,381).
att(928,832).
att(1043,346).
att(934,845).
att(1031,368).
att(918,842).
att(1035,294).
att(1033,297).
att(1033,310).
att(927,768).
att(900,768).
att(934,766).
att(934,774).
att(913,814).
att(1038,277).
att(455,567).
att(883,703).
att(457,560).
att(889,703).
att(927,924).
att(867,707).
att(913,924).
att(1038,433).
att(1039,424).
att(944,940).
att(1033,697).
att(1033,713).
att(960,897).
att(1035,716).
att(471,560).
att(970,931).
att(940,893).
att(944,891).
att(970,845).
att(1031,839).
att(1051,848).
att(1035,835).
att(1043,707).
att(1031,768).
att(1033,758).
att(999,918).
att(980,893).
att(495,564).
att(981,867).
att(496,560).
att(491,568).
att(497,559).
att(999,854).
att(1008,835).
att(981,900).
att(981,913).
att(981,839).
att(942,832).
att(970,800).
att(999,868).
att(503,567).
att(976,703).
att(1021,974).
att(506,559).
att(508,566).
att(1023,974).
att(521,561).
att(1019,1046).
att(528,568).
att(1033,1031).
att(1054,942).
att(1038,1033).
att(1036,968).
att(1051,893).
att(1054,885).
att(1035,981).
att(1051,927).
att(1038,913).
att(1033,867).
att(1039,980).
att(531,567).
att(534,563).
att(966,1142).
att(1041,1049).
att(1077,1084).
att(35,1077).
att(1077,1013).
att(1075,1021).
att(41,1013).
att(1071,1052).
att(39,961).
att(1061,1041).
att(541,559).
att(1065,1049).
att(35,1046).
att(35,1052).
att(1067,1036).
att(85,977).
att(85,974).
att(1126,961).
att(95,1055).
att(41,1147).
att(1128,964).
att(31,1143).
att(1126,957).
att(35,1135).
att(83,1046).
att(1117,1041).
att(1121,956).
att(1111,956).
att(1111,958).
att(97,977).
att(37,1147).
att(37,1146).
att(39,1117).
att(41,1117).
att(46,1108).
att(44,1128).
att(1091,1058).
att(1091,1049).
att(1095,1027).
att(1089,1025).
att(1093,1049).
att(1092,968).
att(1092,964).
att(1086,1025).
att(1061,956).
att(705,419).
att(169,966).
att(1145,961).
att(696,407).
att(1107,1103).
att(703,411).
att(700,412).
att(79,1109).
att(79,1102).
att(697,412).
att(1109,1077).
att(71,1101).
att(64,1115).
att(62,1130).
att(1104,1126).
att(716,409).
att(1107,1093).
att(73,1073).
att(1102,1065).
att(1103,1073).
att(61,1084).
att(696,457).
att(1104,1079).
att(64,1063).
att(705,457).
att(705,464).
att(216,560).
att(87,1157).
att(696,440).
att(1102,1095).
att(81,1153).
att(707,474).
att(161,1089).
att(705,501).
att(1142,1089).
att(1143,1082).
att(163,1097).
att(696,487).
att(707,528).
att(697,501).
att(1143,1092).
att(713,512).
att(703,487).
att(1149,1048).
att(1149,1046).
att(68,1133).
att(75,1157).
att(171,1097).
att(165,1025).
att(716,491).
att(705,532).
att(794,414).
att(713,546).
att(64,1133).
att(153,1055).
att(69,1152).
att(66,1102).
att(1110,1105).
att(1143,974).
att(710,531).
att(159,1052).
att(69,1139).
att(1143,957).
att(95,1115).
att(83,1123).
att(1111,1061).
att(95,1077).
att(87,1099).
att(1115,1075).
att(128,561).
att(33,1154).
att(41,1137).
att(48,1157).
att(81,1055).
att(35,1151).
att(97,1025).
att(1128,1058).
att(83,1029).
att(1107,1058).
att(69,1019).
att(1109,1049).
att(1108,1040).
att(64,1013).
att(1106,1084).
att(87,1149).
att(1106,1058).
att(1110,977).
att(1101,956).
att(83,1144).
att(79,977).
att(129,1137).
att(1140,1143).
att(135,1156).
att(48,406).
att(758,478).
att(48,413).
att(277,561).
att(118,1138).
att(232,1048).
att(1159,1044).
att(1132,1141).
att(120,1104).
att(282,567).
att(756,459).
att(41,369).
att(756,461).
att(787,548).
att(242,1048).
att(774,476).
att(1157,1058).
att(120,1117).
att(39,383).
att(1140,1111).
att(129,1110).
att(137,1144).
att(34,304).
att(760,508).
att(774,523).
att(1132,1111).
att(772,527).
att(766,502).
att(764,501).
att(137,1110).
att(1139,1113).
att(768,499).
att(85,311).
att(93,399).
att(39,518).
att(39,517).
att(97,383).
att(850,410).
att(764,548).
att(87,307).
att(861,455).
att(95,383).
att(848,403).
att(97,393).
att(768,539).
att(83,393).
att(1158,1101).
att(1155,1117).
att(39,460).
att(44,511).
att(232,1065).
att(764,537).
att(229,1075).
att(95,312).
att(1154,1063).
att(89,345).
att(48,513).
att(39,514).
att(217,1072).
att(82,352).
att(234,1101).
att(774,539).
att(863,412).
att(236,1065).
att(1151,1084).
att(858,468).
att(583,566).
att(48,454).
att(581,560).
att(262,560).
att(262,566).
att(89,251).
att(33,486).
att(35,458).
att(239,1077).
att(33,494).
att(236,1084).
att(41,408).
att(95,265).
att(761,542).
att(39,420).
att(848,431).
att(239,1092).
att(1156,1092).
att(760,541).
att(760,542).
att(856,436).
att(217,1017).
att(1154,1017).
att(97,251).
att(37,486).
att(1142,1141).
att(796,455).
att(1143,1146).
att(135,1044).
att(195,565).
att(185,559).
att(158,1101).
att(191,565).
att(153,1146).
att(695,541).
att(161,1102).
att(794,438).
att(200,564).
att(797,462).
att(158,1111).
att(794,419).
att(1135,968).
att(789,431).
att(171,1143).
att(792,419).
att(797,453).
att(140,956).
att(140,958).
att(155,1105).
att(1146,1108).
att(806,496).
att(1144,1124).
att(157,1082).
att(797,500).
att(153,1061).
att(171,1111).
att(766,403).
att(129,1072).
att(120,1092).
att(796,520).
att(794,525).
att(48,307).
att(762,407).
att(46,309).
att(789,519).
att(796,515).
att(118,1061).
att(787,510).
att(774,403).
att(1131,1092).
att(1140,1029).
att(135,1075).
att(48,352).
att(1131,1029).
att(764,455).
att(165,1152).
att(1140,1040).
att(158,1133).
att(286,562).
att(766,436).
att(760,414).
att(803,541).
att(1150,1148).
att(1131,1040).
att(158,1142).
att(163,1139).
att(1135,1029).
att(163,1133).
att(1133,1041).
att(165,1140).
att(1134,1052).
att(814,547).
att(931,412).
att(291,1061).
att(155,250).
att(171,314).
att(820,515).
att(64,469).
att(281,1017).
att(159,255).
att(281,1013).
att(289,1097).
att(171,352).
att(275,1061).
att(287,1063).
att(71,408).
att(297,564).
att(835,543).
att(201,1160).
att(196,1138).
att(68,426).
att(289,1029).
att(186,1134).
att(579,560).
att(171,265).
att(913,401).
att(75,420).
att(822,537).
att(159,271).
att(171,250).
att(927,412).
att(275,1095).
att(293,1029).
att(64,371).
att(928,428).
att(73,429).
att(900,422).
att(75,443).
att(937,411).
att(197,1154).
att(285,956).
att(289,1137).
att(287,1139).
att(244,1029).
att(274,1157).
att(157,369).
att(153,432).
att(918,473).
att(279,1136).
att(900,491).
att(293,1132).
att(159,420).
att(264,1013).
att(273,1048).
att(153,451).
att(913,450).
att(308,562).
att(934,468).
att(319,566).
att(924,447).
att(157,383).
att(572,563).
att(924,459).
att(571,562).
att(319,562).
att(937,459).
att(247,1052).
att(900,468).
att(313,564).
att(820,545).
att(927,428).
att(161,393).
att(289,1101).
att(153,304).
att(163,387).
att(171,377).
att(274,1144).
att(934,512).
att(281,1071).
att(924,491).
att(71,522).
att(158,355).
att(157,337).
att(68,469).
att(289,1123).
att(163,296).
att(291,1121).
att(157,355).
att(289,1126).
att(171,397).
att(900,512).
att(293,1124).
att(61,458).
att(97,477).
att(89,404).
att(95,488).
att(861,521).
att(561,869).
att(89,421).
att(197,1067).
att(219,1158).
att(217,1160).
att(95,404).
att(1152,1131).
att(856,500).
att(93,406).
att(863,505).
att(1151,1132).
att(239,1160).
att(1152,1140).
att(1153,1137).
att(219,1135).
att(848,476).
att(203,1013).
att(223,1159).
att(242,1151).
att(85,413).
att(190,966).
att(1155,1136).
att(837,422).
att(854,537).
att(1156,1131).
att(239,1138).
att(829,407).
att(568,883).
att(848,530).
att(845,410).
att(194,966).
att(854,531).
att(234,1154).
att(85,429).
att(226,1136).
att(190,1036).
att(82,362).
att(1158,1131).
att(851,515).
att(34,524).
att(865,531).
att(234,1149).
att(839,409).
att(239,1147).
att(851,504).
att(1156,1146).
att(848,510).
att(201,964).
att(1153,1103).
att(232,1104).
att(236,1135).
att(219,1102).
att(203,977).
att(66,395).
att(287,966).
att(201,1149).
att(822,431).
att(850,549).
att(585,563).
att(837,485).
att(287,956).
att(173,1131).
att(564,1033).
att(837,471).
att(203,1141).
att(192,1141).
att(842,461).
att(858,549).
att(293,956).
att(293,958).
att(192,1126).
att(602,562).
att(829,419).
att(822,411).
att(826,440).
att(61,318).
att(82,516).
att(196,1128).
att(196,1117).
att(190,1110).
att(197,1143).
att(842,435).
att(82,522).
att(842,506).
att(89,469).
att(826,500).
att(61,352).
att(81,470).
att(829,489).
att(820,482).
att(826,482).
att(95,472).
att(569,567).
att(186,1082).
att(842,478).
att(91,513).
att(343,562).
att(344,1123).
att(91,914).
att(887,548).
att(1001,435).
att(85,841).
att(1001,431).
att(885,550).
att(229,393).
att(885,541).
att(997,425).
att(83,923).
att(368,563).
att(1008,428).
att(897,549).
att(226,305).
att(351,1128).
att(320,1102).
att(229,312).
att(887,532).
att(93,828).
att(325,1101).
att(48,1096).
att(357,1123).
att(360,1113).
att(897,535).
att(97,824).
att(83,844).
att(351,1106).
att(118,517).
att(239,312).
att(321,1128).
att(129,470).
att(48,1020).
att(239,304).
att(132,472).
att(239,307).
att(341,1079).
att(223,312).
att(341,1073).
att(33,1034).
att(980,496).
att(234,358).
att(1001,461).
att(1001,459).
att(48,1032).
att(39,967).
att(39,962).
att(239,342).
att(357,1099).
att(981,471).
att(1008,466).
att(97,1042).
att(91,1026).
att(1010,512).
att(186,268).
att(196,248).
att(980,525).
att(85,1000).
att(97,962).
att(201,248).
att(83,962).
att(81,1000).
att(1010,495).
att(217,417).
att(226,451).
att(344,1143).
att(1010,542).
att(87,879).
att(999,538).
att(979,410).
att(33,1119).
att(85,982).
att(33,1129).
att(82,894).
att(81,884).
att(983,546).
att(95,896).
att(360,1148).
att(97,894).
att(223,448).
att(320,1157).
att(81,926).
att(217,375).
att(351,1136).
att(937,541).
att(135,392).
att(928,548).
att(921,533).
att(35,834).
att(153,522).
att(931,538).
att(129,358).
att(270,1067).
att(129,352).
att(934,531).
att(158,486).
att(247,1128).
att(893,474).
att(123,252).
att(161,477).
att(260,1019).
att(398,565).
att(650,563).
att(638,562).
att(885,457).
att(893,468).
att(868,482).
att(887,436).
att(257,1055).
att(867,468).
att(386,566).
att(291,1154).
att(267,1027).
att(868,447).
att(889,407).
att(159,479).
att(279,1153).
att(937,549).
att(270,1155).
att(118,441).
att(889,493).
att(126,408).
att(351,1027).
att(46,978).
att(39,1009).
att(234,248).
att(48,962).
att(239,258).
att(140,486).
att(123,479).
att(48,967).
att(344,958).
att(44,1009).
att(257,1148).
att(260,1145).
att(267,1131).
att(895,495).
att(126,432).
att(257,1143).
att(325,1040).
att(357,1052).
att(41,878).
att(273,1139).
att(323,1027).
att(41,884).
att(642,565).
att(257,1109).
att(357,968).
att(245,1135).
att(887,523).
att(1004,412).
att(126,371).
att(981,409).
att(257,1128).
att(257,1126).
att(120,304).
att(260,1128).
att(48,936).
att(39,824).
att(257,1106).
att(123,375).
att(254,1108).
att(867,530).
att(897,504).
att(287,418).
att(163,1003).
att(1031,508).
att(1039,503).
att(1054,474).
att(64,1076).
att(291,443).
att(161,886).
att(171,982).
att(664,561).
att(1057,521).
att(293,375).
att(169,888).
att(285,395).
att(291,369).
att(274,429).
att(287,392).
att(1043,487).
att(186,507).
att(68,1018).
att(62,1096).
att(165,834).
att(161,1096).
att(137,930).
att(126,834).
att(273,389).
att(1057,534).
att(289,507).
att(273,314).
att(1031,543).
att(123,844).
att(1057,529).
att(1038,535).
att(281,494).
att(257,261).
att(264,337).
att(169,1030).
att(247,296).
att(273,358).
att(281,408).
att(279,490).
att(95,1120).
att(85,1078).
att(449,563).
att(66,936).
att(199,445).
att(79,1007).
att(979,457).
att(81,1068).
att(201,442).
att(69,1009).
att(62,823).
att(976,455).
att(97,1064).
att(89,1094).
att(430,559).
att(201,362).
att(693,565).
att(89,1100).
att(567,219).
att(687,564).
att(942,447).
att(186,387).
att(62,936).
att(62,930).
att(82,1085).
att(81,1090).
att(199,393).
att(197,399).
att(93,1083).
att(95,1096).
att(963,495).
att(75,844).
att(963,489).
att(970,504).
att(232,513).
att(979,496).
att(87,1032).
att(940,510).
att(976,482).
att(944,487).
att(281,339).
att(979,531).
att(289,304).
att(68,1037).
att(169,834).
att(79,1087).
att(285,347).
att(69,1047).
att(283,271).
att(62,1034).
att(186,479).
att(1039,407).
att(75,1037).
att(979,505).
att(275,250).
att(1054,466).
att(66,1002).
att(79,1050).
att(1039,471).
att(979,546).
att(64,878).
att(87,1112).
att(197,420).
att(963,539).
att(81,1120).
att(81,1119).
att(1039,462).
att(1051,422).
att(89,1116).
att(963,538).
att(226,1059).
att(91,277).
att(226,1050).
att(31,424).
att(83,282).
att(81,195).
att(33,430).
att(44,452).
att(354,475).
att(341,486).
att(48,452).
att(344,486).
att(234,1012).
att(97,185).
att(351,463).
att(234,965).
att(48,376).
att(87,110).
att(229,1000).
att(357,420).
att(809,561).
att(321,402).
att(223,879).
att(120,1070).
att(97,125).
att(48,388).
att(217,896).
att(229,1122).
att(93,390).
att(91,368).
att(81,297).
att(190,1009).
att(82,319).
att(75,110).
att(75,121).
att(186,896).
att(219,1122).
att(186,890).
att(226,1078).
att(89,350).
att(805,566).
att(194,933).
att(82,340).
att(217,1080).
att(173,1005).
att(223,1112).
att(97,324).
att(186,841).
att(93,266).
att(357,511).
att(95,266).
att(236,1090).
att(97,259).
att(201,844).
att(219,1016).
att(201,823).
att(267,475).
att(245,456).
att(41,231).
att(257,451).
att(123,998).
att(44,220).
att(320,258).
att(135,975).
att(244,479).
att(48,225).
att(41,131).
att(245,490).
att(39,119).
att(257,369).
att(44,139).
att(118,926).
att(123,878).
att(257,375).
att(118,930).
att(153,1112).
att(254,448).
att(115,894).
att(155,1096).
att(267,379).
att(267,377).
att(153,1062).
att(219,828).
att(37,353).
att(718,560).
att(718,566).
att(48,310).
att(232,920).
att(242,890).
att(239,896).
att(37,295).
att(34,280).
att(120,1028).
att(323,377).
att(48,356).
att(341,347).
att(236,819).
att(236,831).
att(344,338).
att(323,385).
att(357,318).
att(325,397).
att(39,198).
att(260,475).
att(325,347).
att(360,355).
att(357,342).
att(264,514).
att(283,1083).
att(157,246).
att(264,930).
att(244,890).
att(283,1096).
att(144,23).
att(293,1066).
att(270,917).
att(176,134).
att(145,4).
att(174,170).
att(155,288).
att(161,259).
att(163,246).
att(245,920).
att(275,1066).
att(165,269).
att(293,1081).
att(291,1098).
att(279,1098).
att(68,437).
att(281,1037).
att(150,53).
att(283,1042).
att(146,14).
att(178,240).
att(291,1011).
att(281,1045).
att(275,1085).
att(245,844).
att(158,195).
att(293,1016).
att(244,819).
att(143,57).
att(143,24).
att(150,17).
att(155,221).
att(143,16).
att(143,10).
att(163,188).
att(215,438).
att(75,433).
att(159,286).
att(211,415).
att(165,188).
att(149,88).
att(206,409).
att(146,42).
att(245,1020).
att(46,695).
att(46,703).
att(214,455).
att(215,464).
att(142,40).
att(752,560).
att(209,459).
att(208,435).
att(163,370).
att(257,995).
att(147,32).
att(257,1002).
att(212,466).
att(214,474).
att(129,228).
att(244,1045).
att(140,188).
att(211,464).
att(144,45).
att(254,878).
att(208,464).
att(146,162).
att(147,141).
att(245,969).
att(210,487).
att(212,496).
att(289,1127).
att(273,894).
att(147,164).
att(210,502).
att(159,384).
att(206,497).
att(199,1085).
att(144,237).
att(199,1083).
att(287,825).
att(69,262).
att(142,134).
att(146,224).
att(186,1014).
att(186,1011).
att(103,10).
att(79,346).
att(108,11).
att(184,230).
att(71,290).
att(105,3).
att(64,198).
att(209,530).
att(109,25).
att(145,164).
att(66,195).
att(180,411).
att(183,403).
att(73,286).
att(106,26).
att(146,164).
att(106,13).
att(68,193).
att(183,412).
att(203,1011).
att(207,528).
att(148,227).
att(79,253).
att(64,231).
att(71,202).
att(69,187).
att(176,401).
att(82,390).
att(73,189).
att(105,52).
att(106,38).
att(194,941).
att(178,410).
att(103,40).
att(103,42).
att(197,1012).
att(175,411).
att(108,32).
att(93,380).
att(177,434).
att(208,532).
att(105,12).
att(181,462).
att(87,400).
att(989,559).
att(64,117).
att(81,400).
att(91,439).
att(83,363).
att(175,419).
att(196,995).
att(177,453).
att(991,560).
att(75,363).
att(105,70).
att(283,995).
att(106,170).
att(275,1047).
att(279,972).
att(275,1053).
att(151,166).
att(107,168).
att(194,1112).
att(71,386).
att(180,495).
att(66,306).
att(182,487).
att(163,110).
att(169,216).
att(106,74).
att(163,114).
att(171,228).
att(69,361).
att(331,27).
att(177,499).
att(332,24).
att(328,3).
att(73,313).
att(105,156).
att(105,164).
att(285,923).
att(291,879).
att(274,1009).
att(275,998).
att(279,894).
att(69,394).
att(103,133).
att(174,496).
att(113,21).
att(108,166).
att(199,1064).
att(183,521).
att(289,926).
att(180,530).
att(109,172).
att(291,914).
att(326,6).
att(173,1122).
att(186,1081).
att(68,253).
att(192,1069).
att(103,156).
att(82,850).
att(108,840).
att(113,667).
att(192,117).
att(213,5).
att(327,678).
att(239,378).
att(173,193).
att(112,663).
att(236,394).
att(85,858).
att(82,768).
att(173,131).
att(357,1127).
att(152,818).
att(329,622).
att(105,864).
att(357,1129).
att(112,678).
att(203,128).
att(223,381).
att(39,1035).
att(113,701).
att(95,861).
att(209,21).
att(210,26).
att(214,21).
att(321,1062).
att(82,700).
att(321,1080).
att(357,1087).
att(332,671).
att(332,667).
att(39,979).
att(242,356).
att(213,25).
att(326,655).
att(48,1043).
att(87,787).
att(33,976).
att(97,761).
att(81,806).
att(325,1078).
att(81,797).
att(217,263).
att(62,787).
att(212,11).
att(66,787).
att(62,774).
att(207,29).
att(112,815).
att(62,705).
att(214,18).
att(331,708).
att(212,27).
att(208,1).
att(95,970).
att(328,728).
att(332,721).
att(111,775).
att(329,807).
att(201,249).
att(201,259).
att(61,705).
att(326,723).
att(82,1004).
att(214,86).
att(335,688).
att(219,380).
att(332,849).
att(212,38).
att(75,713).
att(327,849).
att(91,944).
att(330,846).
att(302,625).
att(91,939).
att(207,57).
att(82,820).
att(334,614).
att(212,45).
att(332,862).
att(208,59).
att(186,231).
att(85,867).
att(91,1004).
att(217,370).
att(79,710).
att(83,895).
att(91,980).
att(267,1125).
att(351,888).
att(118,343).
att(210,168).
att(257,1076).
att(44,837).
att(126,313).
att(183,2).
att(35,848).
att(181,20).
att(215,172).
att(267,1127).
att(215,134).
att(41,854).
att(118,295).
att(31,848).
att(31,858).
att(299,671).
att(327,846).
att(214,76).
att(214,72).
att(33,803).
att(214,80).
att(331,827).
att(137,295).
att(320,888).
att(37,761).
att(333,657).
att(354,936).
att(247,1114).
att(273,1070).
att(123,319).
att(264,1118).
att(341,936).
att(206,96).
att(206,101).
att(351,828).
att(214,230).
att(325,821).
att(270,1096).
att(137,350).
att(336,812).
att(37,796).
att(34,713).
att(273,1090).
att(357,823).
att(264,1020).
att(335,723).
att(183,24).
att(157,427).
att(336,714).
att(180,22).
att(320,819).
att(37,695).
att(180,19).
att(334,795).
att(321,831).
att(334,798).
att(176,29).
att(212,101).
att(335,706).
att(335,698).
att(335,860).
att(344,1032).
att(87,700).
att(95,797).
att(87,713).
att(321,1096).
att(41,981).
att(34,887).
att(226,280).
att(234,249).
att(232,280).
att(334,827).
att(223,263).
att(325,1100).
att(175,55).
att(129,437).
att(219,225).
att(354,1032).
att(207,240).
att(118,380).
att(44,981).
att(183,55).
att(178,18).
att(234,276).
att(334,849).
att(334,860).
att(232,187).
att(335,769).
att(341,1032).
att(175,14).
att(175,96).
att(34,822).
att(323,1042).
att(176,65).
att(48,868).
att(184,2).
att(37,867).
att(325,1056).
att(115,378).
att(181,167).
att(182,86).
att(178,42).
att(236,228).
att(183,99).
att(132,390).
att(298,862).
att(341,1003).
att(123,367).
att(35,934).
att(325,943).
att(281,444).
att(299,247).
att(158,868).
att(260,185).
att(132,697).
att(155,918).
att(281,363).
att(335,244).
att(267,200).
att(165,887).
att(180,775).
att(285,378).
att(279,452).
att(171,999).
att(175,862).
att(157,820).
att(183,833).
att(244,200).
att(150,692).
att(274,452).
att(285,396).
att(180,932).
att(181,922).
att(247,198).
att(247,110).
att(270,131).
att(274,378).
att(176,859).
att(176,849).
att(247,228).
att(176,853).
att(149,614).
att(299,344).
att(126,837).
att(325,119).
att(123,829).
att(267,400).
att(147,730).
att(140,928).
att(143,728).
att(245,378).
att(270,390).
att(270,400).
att(129,832).
att(143,743).
att(360,117).
att(144,726).
att(325,222).
att(145,683).
att(183,925).
att(178,840).
att(273,315).
att(321,131).
att(325,128).
att(148,733).
att(264,348).
att(150,795).
att(153,1039).
att(155,1051).
att(247,317).
att(132,756).
att(123,796).
att(120,713).
att(118,695).
att(244,350).
att(150,711).
att(137,762).
att(115,803).
att(184,840).
att(275,188).
att(279,222).
att(281,221).
att(194,380).
att(194,367).
att(62,868).
att(68,924).
att(283,218).
att(201,449).
att(69,1006).
att(190,444).
att(184,853).
att(201,376).
att(194,396).
att(287,216).
att(106,632).
att(196,390).
att(146,773).
att(274,200).
att(147,862).
att(62,921).
att(71,845).
att(145,846).
att(106,655).
att(106,735).
att(102,665).
att(143,932).
att(75,822).
att(108,663).
att(192,340).
att(142,859).
att(69,848).
att(105,612).
att(184,898).
att(194,359).
att(274,125).
att(173,381).
att(203,313).
att(201,319).
att(107,659).
att(197,381).
att(153,760).
att(105,730).
att(161,858).
att(274,384).
att(291,317).
att(103,698).
att(171,820).
att(169,848).
att(165,774).
att(75,1054).
att(61,939).
att(279,359).
att(64,1001).
att(108,757).
att(287,253).
att(109,769).
att(152,866).
att(283,286).
att(105,804).
att(158,703).
att(158,700).
att(171,768).
att(275,356).
att(192,449).
att(281,185).
att(293,288).
att(291,282).
att(196,446).
att(274,246).
att(107,775).
att(199,848).
att(111,31).
att(194,772).
att(229,1038).
att(106,293).
att(201,854).
att(106,274).
att(197,762).
att(239,1035).
att(105,129).
att(190,787).
att(107,192).
att(192,705).
att(199,797).
att(330,66).
att(239,960).
att(107,341).
att(330,71).
att(226,883).
att(219,921).
att(108,283).
att(113,91).
att(199,697).
att(329,83).
att(232,893).
att(223,1004).
att(201,696).
att(331,153).
att(275,697).
att(196,897).
att(210,683).
att(275,814).
att(207,616).
att(103,357).
att(111,157).
att(215,632).
att(192,913).
att(329,68).
att(213,606).
att(560,537).
att(274,700).
att(330,171).
att(192,826).
att(66,83).
att(199,927).
att(199,921).
att(328,132).
att(208,669).
att(334,35).
att(111,291).
att(329,194).
att(328,236).
att(326,234).
att(64,46).
att(211,688).
att(212,685).
att(64,31).
att(64,41).
att(197,822).
att(209,677).
att(68,48).
att(203,829).
att(210,667).
att(214,795).
att(234,774).
att(211,704).
att(351,266).
att(214,798).
att(344,282).
att(113,320).
att(239,758).
att(298,41).
att(239,764).
att(137,1043).
att(232,794).
att(223,700).
att(332,203).
att(332,274).
att(242,794).
att(326,173).
att(257,374).
att(118,934).
att(211,769).
att(302,79).
att(333,155).
att(126,885).
att(298,66).
att(298,75).
att(323,286).
att(132,891).
att(118,891).
att(118,867).
att(299,62).
att(323,277).
att(327,273).
att(118,826).
att(260,390).
att(244,452).
att(260,400).
att(215,765).
att(180,632).
att(323,191).
att(245,449).
att(321,193).
att(264,433).
att(299,135).
att(182,667).
att(302,126).
att(82,93).
att(176,677).
att(232,937).
att(298,120).
att(242,867).
att(229,927).
att(300,234).
att(301,223).
att(325,446).
att(302,157).
att(219,865).
att(335,137).
att(217,848).
att(333,118).
att(212,857).
att(175,612).
att(223,928).
att(325,376).
att(178,732).
att(183,721).
att(239,822).
att(174,732).
att(223,839).
att(325,386).
att(126,1057).
att(126,1054).
att(223,756).
att(123,1043).
att(236,858).
att(93,48).
att(115,1031).
att(357,346).
att(132,1054).
att(242,848).
att(181,711).
att(118,1031).
att(232,768).
att(264,918).
att(267,913).
att(257,832).
att(113,212).
att(247,868).
att(244,937).
att(126,87).
att(115,93).
att(132,89).
att(137,61).
att(247,928).
att(270,861).
att(285,1051).
att(260,766).
att(247,839).
att(254,794).
att(254,806).
att(244,865).
att(257,789).
att(289,1060).
att(137,35).
att(285,979).
att(270,774).
att(285,970).
att(247,861).
att(255,966).
att(330,106).
att(323,861).
att(254,1057).
att(257,1039).
att(328,183).
att(341,713).
att(257,981).
att(320,760).
att(354,803).
att(326,181).
att(354,814).
att(112,142).
att(341,696).
att(351,792).
att(244,939).
att(329,182).
att(327,206).
att(112,175).
att(273,1004).
att(112,149).
att(254,913).
att(118,69).
att(245,980).
att(120,75).
att(126,153).
att(163,82).
att(163,81).
att(169,79).
att(171,62).
att(171,73).
att(279,764).
att(279,762).
att(169,97).
att(153,48).
att(275,829).
att(279,863).
att(165,41).
att(192,970).
att(192,963).
att(203,1043).
att(287,800).
att(283,980).
att(281,981).
att(102,176).
att(247,806).
att(102,182).
att(291,970).
att(289,979).
att(293,973).
att(245,766).
att(102,210).
att(283,897).
att(151,146).
att(158,155).
att(245,797).
att(285,895).
att(104,209).
att(109,179).
att(293,867).
att(155,95).
att(155,91).
att(285,845).
att(163,64).
att(158,91).
att(299,869).
att(339,1107).
att(302,875).
att(203,242).
att(336,875).
att(113,691).
att(300,910).
att(334,637).
att(352,1123).
att(330,682).
att(203,120).
att(330,693).
att(112,722).
att(190,73).
att(333,911).
att(251,1158).
att(298,951).
att(175,178).
att(301,910).
att(334,575).
att(329,724).
att(336,869).
att(302,955).
att(303,907).
att(179,209).
att(303,948).
att(186,37).
att(251,1137).
att(199,62).
att(355,1093).
att(298,754).
att(334,554).
att(177,182).
att(347,1027).
att(358,1091).
att(287,73).
att(146,214).
att(345,1159).
att(347,1152).
att(331,809).
att(624,560).
att(298,590).
att(333,645).
att(328,715).
att(307,1021).
att(291,64).
att(301,650).
att(328,811).
att(293,62).
att(305,1093).
att(333,576).
att(289,93).
att(355,1152).
att(149,211).
att(298,602).
att(149,210).
att(334,652).
att(305,1029).
att(961,415).
att(336,588).
att(302,633).
att(307,974).
att(347,1142).
att(337,1142).
att(293,48).
att(339,1134).
att(302,607).
att(199,173).
att(347,1102).
att(194,236).
att(301,618).
att(298,653).
att(299,648).
att(299,651).
att(339,1143).
att(337,1110).
att(302,641).
att(336,613).
att(226,169).
att(217,68).
att(328,905).
att(111,874).
att(252,1072).
att(111,875).
att(268,1124).
att(236,137).
att(242,135).
att(217,161).
att(325,997).
att(217,171).
att(113,909).
att(351,937).
att(326,947).
att(261,1084).
att(330,908).
att(261,1089).
att(112,873).
att(261,1086).
att(248,1099).
att(323,889).
att(219,48).
att(328,985).
att(341,850).
att(252,1022).
att(329,950).
att(329,993).
att(226,87).
att(303,715).
att(321,931).
att(333,808).
att(354,845).
att(219,39).
att(229,89).
att(330,952).
att(207,214).
att(229,95).
att(325,924).
att(325,918).
att(596,564).
att(255,1058).
att(250,956).
att(302,740).
att(351,854).
att(329,984).
att(303,736).
att(333,816).
att(360,863).
att(236,87).
att(332,987).
att(588,566).
att(299,740).
att(333,950).
att(298,749).
att(300,991).
att(181,210).
att(261,1131).
att(329,586).
att(358,1021).
att(219,217).
att(352,1049).
att(303,805).
att(326,643).
att(342,961).
att(337,974).
att(333,987).
att(219,123).
att(328,634).
att(329,604).
att(335,777).
att(325,1043).
att(341,973).
att(336,750).
att(226,123).
att(261,1128).
att(112,604).
att(252,1109).
att(325,976).
att(341,981).
att(254,186).
att(325,41).
att(329,447).
att(612,971).
att(326,435).
att(371,968).
att(612,968).
att(1046,483).
att(105,543).
att(111,476).
att(362,1017).
att(622,1048).
att(260,197).
att(362,1023).
att(1036,491).
att(385,1159).
att(321,93).
att(1041,476).
att(1048,459).
att(331,457).
att(1048,457).
att(149,576).
att(175,715).
att(619,966).
att(182,791).
att(111,489).
att(1055,473).
att(326,464).
att(392,1102).
att(111,496).
att(872,563).
att(257,219).
att(147,578).
att(872,567).
att(143,578).
att(1041,447).
att(332,478).
att(1048,436).
att(321,44).
att(625,977).
att(254,201).
att(1055,459).
att(379,977).
att(606,958).
att(389,1123).
att(149,680).
att(395,1103).
att(397,1104).
att(267,219).
att(270,239).
att(362,964).
att(389,1105).
att(616,974).
att(385,1148).
att(247,118).
att(247,132).
att(145,653).
att(146,650).
att(1044,498).
att(143,626).
att(387,1130).
att(327,502).
att(149,731).
att(371,1073).
att(612,1073).
att(1027,419).
att(364,1102).
att(1052,543).
att(150,742).
att(362,1102).
att(614,1073).
att(102,556).
att(143,729).
att(1015,438).
att(1044,535).
att(1015,434).
att(379,1111).
att(609,1126).
att(108,552).
att(619,1101).
att(327,529).
att(360,140).
att(111,542).
att(326,528).
att(372,1082).
att(145,676).
att(369,1092).
att(145,684).
att(341,69).
att(251,248).
att(332,535).
att(111,550).
att(328,527).
att(320,115).
att(328,525).
att(614,1099).
att(1055,531).
att(1023,412).
att(147,662).
att(150,741).
att(321,120).
att(357,165).
att(323,137).
att(321,115).
att(142,680).
att(329,550).
att(298,401).
att(257,244).
att(1021,459).
att(344,81).
att(152,652).
att(362,1075).
att(377,1086).
att(614,1029).
att(1025,473).
att(616,1065).
att(327,544).
att(1015,482).
att(360,66).
att(1013,474).
att(323,158).
att(373,1063).
att(1027,459).
att(357,66).
att(257,279).
att(298,419).
att(1021,419).
att(184,799).
att(334,468).
att(612,1055).
att(1021,434).
att(145,738).
att(328,549).
att(354,97).
att(1023,459).
att(105,557).
att(344,37).
att(876,561).
att(625,1021).
att(354,87).
att(147,813).
att(260,283).
att(634,561).
att(366,1086).
att(1058,550).
att(104,581).
att(289,197).
att(637,563).
att(307,1102).
att(283,223).
att(958,462).
att(314,1150).
att(393,957).
att(336,496).
att(244,41).
att(304,1101).
att(336,497).
att(956,435).
att(247,44).
att(244,34).
att(108,607).
att(334,505).
att(298,473).
att(109,652).
att(968,462).
att(106,633).
att(296,1147).
att(302,489).
att(107,620).
att(302,496).
att(964,412).
att(971,510).
att(275,118).
att(300,506).
att(333,526).
att(105,666).
att(304,1065).
att(311,1072).
att(318,1126).
att(302,505).
att(336,527).
att(274,242).
att(283,158).
att(274,219).
att(299,512).
att(299,508).
att(304,1073).
att(305,1113).
att(333,532).
att(303,521).
att(274,137).
att(312,1117).
att(977,471).
att(971,540).
att(273,68).
att(961,525).
att(1036,411).
att(264,158).
att(391,1086).
att(330,574).
att(109,776).
att(383,1124).
att(260,75).
att(254,83).
att(307,1154).
att(309,1155).
att(307,1160).
att(311,1151).
att(106,729).
att(391,1015).
att(971,521).
att(302,548).
att(330,597).
att(957,496).
att(311,1154).
att(302,550).
att(331,583).
att(387,1086).
att(956,493).
att(1046,422).
att(247,82).
att(247,89).
att(332,638).
att(391,1055).
att(329,650).
att(391,1052).
att(1052,447).
att(395,1027).
att(604,560).
att(244,66).
att(1049,447).
att(385,1092).
att(247,69).
att(112,620).
att(314,1134).
att(964,538).
att(103,816).
att(314,1139).
att(247,39).
att(113,647).
att(974,548).
att(109,791).
att(329,574).
att(291,275).
att(291,274).
att(111,653).
att(326,589).
att(285,194).
att(326,580).
att(957,528).
att(330,653).
att(103,808).
att(112,645).
att(112,47).
att(418,1093).
att(416,1021).
att(44,407).
att(150,409).
att(178,530).
att(406,1077).
att(206,553).
att(209,597).
att(150,414).
att(311,268).
att(207,583).
att(112,42).
att(177,535).
att(661,1015).
att(176,537).
att(148,438).
att(417,1027).
att(667,1093).
att(1092,499).
att(328,23).
att(179,532).
att(178,531).
att(314,252).
att(145,401).
att(657,1086).
att(1089,491).
att(655,1015).
att(326,18).
att(404,1092).
att(296,339).
att(327,17).
att(441,1152).
att(112,77).
att(413,1019).
att(331,96).
att(402,1015).
att(418,1048).
att(1067,440).
att(111,63).
att(329,86).
att(146,436).
att(663,1046).
att(149,459).
att(206,580).
att(683,1156).
att(1077,405).
att(443,1152).
att(1065,435).
att(41,411).
att(148,478).
att(331,40).
att(215,571).
att(1075,412).
att(659,971).
att(675,1145).
att(404,1036).
att(328,54).
att(418,971).
att(145,459).
att(671,1044).
att(432,1131).
att(1091,523).
att(404,1040).
att(946,568).
att(184,489).
att(432,1135).
att(48,407).
att(1099,526).
att(144,471).
att(423,1156).
att(144,480).
att(327,47).
att(214,573).
att(302,333).
att(331,42).
att(657,1052).
att(207,631).
att(46,500).
att(481,966).
att(211,617).
att(34,453).
att(420,1148).
att(37,478).
att(34,461).
att(737,1052).
att(418,1150).
att(657,1134).
att(413,1157).
att(326,156).
att(796,561).
att(792,564).
att(144,498).
att(402,1159).
att(144,495).
att(661,1103).
att(211,647).
att(486,961).
att(336,6).
att(39,453).
att(39,455).
att(145,493).
att(146,499).
att(1073,466).
att(213,623).
att(479,958).
att(739,958).
att(743,1036).
att(334,30).
att(803,562).
att(797,566).
att(149,510).
att(659,1143).
att(656,1108).
att(1079,425).
att(657,1148).
att(182,556).
att(307,314).
att(402,1108).
att(659,1130).
att(211,668).
att(1075,508).
att(334,51).
att(309,296).
att(420,1121).
att(333,43).
att(1072,489).
att(334,49).
att(655,1115).
att(177,557).
att(206,670).
att(302,10).
att(1077,487).
att(305,338).
att(416,1089).
att(659,1075).
att(39,487).
att(331,136).
att(420,1073).
att(112,204).
att(331,138).
att(213,660).
att(301,11).
att(326,141).
att(151,419).
att(152,438).
att(421,1072).
att(685,1027).
att(357,247).
att(333,84).
att(1021,489).
att(102,414).
att(333,94).
att(299,215).
att(302,210).
att(334,70).
att(144,546).
att(152,464).
att(679,1089).
att(679,1099).
att(151,466).
att(144,550).
att(143,547).
att(302,54).
att(443,1041).
att(336,42).
att(102,422).
att(102,440).
att(109,455).
att(211,741).
att(377,1131).
att(372,1149).
att(377,1132).
att(213,702).
att(181,572).
att(681,1013).
att(104,440).
att(371,1137).
att(178,583).
att(336,213).
att(612,1136).
att(299,57).
att(692,1022).
att(1095,410).
att(354,173).
att(179,642).
att(375,1146).
att(1025,532).
att(372,1109).
att(625,1148).
att(423,1046).
att(630,1140).
att(903,561).
att(1095,403).
att(179,653).
att(300,162).
att(379,1144).
att(1017,523).
att(1029,529).
att(379,1147).
att(301,156).
att(299,67).
att(451,957).
att(151,499).
att(373,1138).
att(692,1048).
att(335,72).
att(371,1123).
att(622,1107).
att(178,571).
att(302,84).
att(335,70).
att(341,129).
att(1025,519).
att(105,473).
att(625,1104).
att(364,1145).
att(625,1102).
att(357,229).
att(364,1143).
att(181,631).
att(619,1143).
att(325,203).
att(1013,526).
att(107,505).
att(103,496).
att(107,503).
att(616,1148).
att(106,503).
att(1091,438).
att(413,956).
att(335,240).
att(302,141).
att(1095,461).
att(429,1147).
att(1019,549).
att(692,1149).
att(713,562).
att(1082,464).
att(184,558).
att(174,691).
att(177,660).
att(298,138).
att(303,326).
att(184,557).
att(299,127).
att(1022,533).
att(333,331).
att(105,503).
att(104,505).
att(180,684).
att(692,1110).
att(692,1108).
att(1019,532).
att(1089,407).
att(300,136).
att(103,523).
att(181,666).
att(441,1115).
att(107,536).
att(451,1123).
att(344,360).
att(426,1111).
att(683,1073).
att(145,556).
att(105,528).
att(147,599).
att(442,1092).
att(148,572).
att(103,532).
att(332,414).
att(302,149).
att(151,547).
att(1084,491).
att(330,431).
att(352,349).
att(426,1061).
att(178,660).
att(429,1061).
att(179,658).
att(147,551).
att(448,1082).
att(683,1099).
att(423,1072).
att(426,1065).
att(685,1091).
att(298,230).
att(443,1067).
att(679,1071).
att(102,546).
att(174,666).
att(303,182).
att(700,566).
att(1099,447).
att(456,1101).
att(373,389).
att(89,547).
att(1108,434).
att(622,392).
att(371,304).
att(1101,459).
att(625,391).
att(1106,453).
att(1102,436).
att(1102,434).
att(75,428).
att(369,338).
att(73,431).
att(708,1123).
att(625,316).
att(362,387).
att(62,414).
att(87,538).
att(614,355).
att(460,1111).
att(465,1104).
att(698,1111).
att(458,1124).
att(717,1126).
att(69,422).
att(467,1109).
att(75,403).
att(79,422).
att(460,1117).
att(706,1097).
att(706,1095).
att(472,1082).
att(371,258).
att(698,1065).
att(463,1126).
att(467,1126).
att(467,1113).
att(708,1115).
att(850,565).
att(364,311).
att(698,1073).
att(73,471).
att(75,473).
att(619,265).
att(472,1023).
att(456,1089).
att(463,1073).
att(723,1073).
att(465,1067).
att(69,474).
att(467,1077).
att(364,338).
att(632,337).
att(1123,541).
att(68,501).
att(507,1082).
att(807,1084).
att(804,1089).
att(71,526).
att(516,1063).
att(614,421).
att(423,345).
att(681,251).
att(64,503).
att(616,458).
att(790,1082).
att(690,338).
att(69,528).
att(426,345).
att(429,338).
att(61,495).
att(66,499).
att(470,1134).
att(524,1036).
att(704,1140).
att(614,426).
att(1109,489).
att(630,486).
att(625,420).
att(812,1086).
att(423,252).
att(69,510).
att(460,1156).
att(807,1022).
att(801,1058).
att(704,1143).
att(721,1153).
att(171,435).
att(458,1139).
att(1104,533).
att(513,1058).
att(790,1055).
att(1104,535).
att(518,957).
att(75,531).
att(469,1109).
att(163,410).
att(66,523).
att(465,1136).
att(64,527).
att(472,1102).
att(507,958).
att(465,1131).
att(511,968).
att(463,1140).
att(513,977).
att(469,1147).
att(393,307).
att(1075,535).
att(34,526).
att(490,1079).
att(46,544).
att(486,1105).
att(479,1128).
att(725,1065).
att(37,537).
att(1065,539).
att(48,536).
att(399,304).
att(1067,534).
att(725,1071).
att(393,339).
att(1075,530).
att(1111,409).
att(31,520).
att(1113,405).
att(1077,525).
att(44,535).
att(492,1099).
att(488,1065).
att(418,1152).
att(768,568).
att(393,268).
att(1128,450).
att(34,547).
att(1121,478).
att(93,478).
att(1111,474).
att(91,471).
att(766,560).
att(492,1019).
att(655,1153).
att(1079,548).
att(89,435).
att(725,1019).
att(1077,546).
att(87,440).
att(733,1021).
att(774,567).
att(481,1040).
att(486,1017).
att(420,1133).
att(1075,544).
att(1075,541).
att(421,1134).
att(1071,534).
att(39,542).
att(1073,548).
att(1130,411).
att(97,425).
att(48,547).
att(733,1093).
att(33,535).
att(1128,412).
att(470,1040).
att(714,1029).
att(704,1041).
att(83,497).
att(81,485).
att(364,268).
att(82,483).
att(1124,489).
att(366,255).
att(723,1092).
att(1115,498).
att(89,468).
att(469,966).
att(701,961).
att(89,474).
att(1124,478).
att(93,487).
att(82,447).
att(472,964).
att(486,1155).
att(728,1132).
att(733,1153).
att(726,1140).
att(733,1152).
att(481,1139).
att(1126,527).
att(73,410).
att(87,528).
att(492,1106).
att(1123,504).
att(725,1108).
att(743,1139).
att(463,1046).
att(93,533).
att(69,403).
att(456,964).
att(494,1101).
att(733,1140).
att(475,1136).
att(735,1103).
att(97,519).
att(397,395).
att(479,1105).
att(391,314).
att(743,1149).
att(732,1130).
att(1115,504).
att(486,1148).
att(728,1105).
att(1136,501).
att(416,372).
att(1132,500).
att(857,1044).
att(120,474).
att(857,1052).
att(743,265).
att(864,1021).
att(420,441).
att(118,473).
att(859,1049).
att(665,488).
att(140,498).
att(656,426).
att(129,474).
att(659,372).
att(1132,473).
att(402,432).
att(847,1048).
att(1138,485).
att(418,371).
att(663,366).
att(1131,480).
att(1135,489).
att(864,1041).
att(924,562).
att(665,420).
att(759,1143).
att(665,406).
att(140,476).
att(849,971).
att(661,393).
att(667,377).
att(1135,538).
att(1132,529).
att(118,515).
att(663,385).
att(402,372).
att(862,958).
att(671,371).
att(1134,504).
att(118,505).
att(126,520).
att(847,1046).
att(1136,523).
att(671,383).
att(420,314).
att(773,1103).
att(1131,510).
att(129,501).
att(406,389).
att(757,1115).
att(665,375).
att(657,399).
att(862,1107).
att(661,518).
att(860,1108).
att(239,450).
att(868,564).
att(1131,548).
att(223,434).
att(737,397).
att(1139,539).
att(867,564).
att(217,405).
att(123,548).
att(120,531).
att(817,968).
att(733,377).
att(232,412).
att(475,316).
att(477,318).
att(234,431).
att(223,410).
att(120,527).
att(864,1111).
att(656,454).
att(866,1126).
att(725,349).
att(223,407).
att(1138,539).
att(1139,521).
att(657,514).
att(728,312).
att(853,1130).
att(725,338).
att(481,305).
att(733,337).
att(1153,468).
att(477,358).
att(477,339).
att(223,471).
att(665,518).
att(492,261).
att(847,1130).
att(657,470).
att(1153,459).
att(862,1084).
att(1155,476).
att(855,1023).
att(1156,476).
att(219,431).
att(475,248).
att(864,1086).
att(219,434).
att(895,560).
att(1154,438).
att(671,490).
att(477,258).
att(486,352).
att(1152,438).
att(132,547).
att(229,438).
att(891,566).
att(484,358).
att(1134,543).
att(683,362).
att(822,560).
att(514,1135).
att(812,1140).
att(1147,485).
att(767,958).
att(442,391).
att(155,455).
att(767,957).
att(807,1148).
att(61,547).
att(441,377).
att(757,966).
att(763,1055).
att(1142,466).
att(793,1142).
att(845,565).
att(795,1124).
att(810,1143).
att(161,461).
att(801,1107).
att(1150,422).
att(770,974).
att(1145,473).
att(685,397).
att(690,369).
att(1108,544).
att(690,375).
att(795,1128).
att(153,422).
att(790,1102).
att(1143,436).
att(451,393).
att(155,425).
att(801,1141).
att(507,1147).
att(793,1103).
att(1143,419).
att(1145,459).
att(514,1105).
att(513,1113).
att(426,392).
att(518,1107).
att(1145,503).
att(524,1082).
att(441,258).
att(1142,498).
att(155,483).
att(163,489).
att(514,1124).
att(155,482).
att(448,355).
att(793,1061).
att(129,403).
att(765,1079).
att(690,516).
att(683,467).
att(158,525).
att(659,352).
att(1148,529).
att(123,412).
att(685,460).
att(417,338).
att(767,1065).
att(406,307).
att(769,1071).
att(1137,414).
att(416,358).
att(1150,510).
att(665,393).
att(1135,415).
att(681,517).
att(417,252).
att(690,467).
att(163,530).
att(404,339).
att(155,512).
att(1141,530).
att(683,494).
att(1149,505).
att(775,1077).
att(671,352).
att(155,505).
att(159,528).
att(767,1092).
att(1144,510).
att(171,523).
att(665,314).
att(678,486).
att(937,563).
att(683,404).
att(158,544).
att(667,248).
att(773,1092).
att(1137,459).
att(1144,547).
att(511,1160).
att(1149,542).
att(115,438).
att(118,419).
att(795,1159).
att(413,349).
att(153,547).
att(406,250).
att(522,1156).
att(1132,425).
att(688,421).
att(759,961).
att(810,1158).
att(1143,543).
att(681,445).
att(759,971).
att(767,1044).
att(773,1025).
att(516,1152).
att(120,403).
att(1141,549).
att(161,549).
att(115,401).
att(159,546).
att(790,1137).
att(1147,550).
att(153,533).
att(801,1157).
att(441,432).
att(524,248).
att(507,337).
att(630,1028).
att(706,486).
att(517,296).
att(717,470).
att(717,469).
att(513,342).
att(469,460).
att(513,339).
att(186,504).
att(517,305).
att(203,528).
att(938,1071).
att(922,1025).
att(192,508).
att(899,1063).
att(614,998).
att(614,1009).
att(898,1073).
att(511,255).
att(698,484).
att(798,352).
att(203,508).
att(517,355).
att(609,941).
att(173,519).
att(186,489).
att(929,1022).
att(711,421).
att(840,1154).
att(929,1021).
att(470,429).
att(609,878).
att(833,1135).
att(291,447).
att(701,445).
att(901,1022).
att(836,1137).
att(614,892).
att(714,417).
att(287,462).
att(812,261).
att(717,417).
att(815,251).
att(518,268).
att(711,486).
att(698,421).
att(701,402).
att(827,1154).
att(517,268).
att(203,547).
att(196,535).
att(619,892).
att(192,536).
att(470,372).
att(704,372).
att(194,534).
att(706,364).
att(843,1132).
att(706,362).
att(275,425).
att(465,402).
att(463,416).
att(721,421).
att(929,1015).
att(186,520).
att(291,410).
att(465,421).
att(932,1134).
att(681,884).
att(922,1149).
att(619,1129).
att(275,496).
att(938,1131).
att(612,1120).
att(622,1076).
att(678,844).
att(810,423).
att(518,369).
att(976,565).
att(275,480).
att(919,1148).
att(692,888).
att(244,403).
att(514,364).
att(630,1069).
att(793,318).
att(901,1143).
att(279,505).
att(517,375).
att(511,399).
att(632,1078).
att(807,397).
att(516,369).
att(901,1145).
att(291,502).
att(714,518).
att(283,500).
att(283,497).
att(609,1047).
att(614,1045).
att(614,1059).
att(690,841).
att(925,1077).
att(517,385).
att(509,307).
att(513,307).
att(701,509).
att(807,311).
att(732,418).
att(1155,521).
att(817,1079).
att(1153,497).
att(728,442).
att(475,408).
att(735,408).
att(488,443).
att(1151,493).
att(737,420).
att(859,1137).
att(226,497).
att(226,498).
att(723,268).
att(836,1046).
att(486,484).
att(494,432).
att(1157,498).
att(836,1055).
att(1154,485).
att(1160,468).
att(855,1157).
att(1152,482).
att(481,418).
att(465,271).
att(199,431).
att(486,442).
att(201,425).
att(475,423).
att(486,441).
att(226,539).
att(830,956).
att(1152,531).
att(818,1013).
att(223,537).
att(726,429).
att(817,1025).
att(1159,548).
att(843,1058).
att(1158,539).
att(1158,536).
att(1160,523).
att(1153,525).
att(488,426).
att(853,1133).
att(1153,520).
att(197,411).
att(197,412).
att(236,537).
att(726,366).
att(739,377).
att(217,501).
att(494,392).
att(846,977).
att(711,369).
att(622,912).
att(219,549).
att(1160,544).
att(463,442).
att(1160,548).
att(472,399).
att(838,1132).
att(938,964).
att(899,1048).
att(192,436).
att(192,438).
att(830,1124).
att(192,425).
att(226,548).
att(817,1145).
att(704,316).
att(606,841).
att(899,977).
att(463,372).
att(1160,537).
att(458,383).
att(843,1110).
att(201,428).
att(723,379).
att(199,510).
att(830,1063).
att(199,503).
att(472,349).
att(454,304).
att(456,316).
att(714,316).
att(840,1123).
att(840,1128).
att(704,355).
att(173,506).
att(630,824).
att(456,309).
att(726,514).
att(723,392).
att(469,252).
att(838,1072).
att(192,482).
att(735,470).
att(199,487).
att(723,296).
att(472,268).
att(190,476).
att(472,271).
att(997,567).
att(735,514).
att(846,1072).
att(728,463).
att(260,549).
att(321,473).
att(260,548).
att(321,483).
att(667,1074).
att(320,473).
att(320,468).
att(862,369).
att(354,450).
att(341,419).
att(360,434).
att(866,372).
att(341,410).
att(769,516).
att(267,548).
att(859,309).
att(757,507).
att(671,1094).
att(757,514).
att(759,513).
att(665,1076).
att(862,314).
att(757,463).
att(866,311).
att(360,476).
att(354,483).
att(855,268).
att(665,1042).
att(765,477).
att(773,470).
att(663,972).
att(669,1037).
att(767,481).
att(853,355).
att(657,1056).
att(665,1014).
att(665,1012).
att(827,258).
att(838,355).
att(862,463).
att(739,1042).
att(325,521).
att(849,488).
att(857,404).
att(862,479).
att(739,941).
att(737,978).
att(730,998).
att(846,265).
att(843,261).
att(860,465).
att(325,503).
att(735,1000).
att(857,429).
att(341,536).
att(656,1112).
att(866,406).
att(341,538).
att(737,1002).
att(351,546).
att(726,1000).
att(656,1125).
att(325,546).
att(743,959).
att(862,429).
att(862,426).
att(862,423).
att(659,1080).
att(735,879).
att(671,1120).
att(857,375).
att(663,1062).
att(344,519).
att(732,936).
att(357,530).
att(866,441).
att(665,825).
att(771,392).
att(257,410).
att(765,304).
att(685,1012).
att(804,513).
att(254,407).
att(769,314).
att(793,511).
att(275,545).
att(274,543).
att(275,540).
att(675,1037).
att(511,470).
att(815,507).
att(285,504).
att(765,268).
att(770,339).
att(245,489).
att(260,462).
att(264,485).
att(524,420).
att(264,471).
att(511,490).
att(798,472).
att(270,459).
att(285,547).
att(679,1053).
att(507,406).
att(810,475).
att(925,1136).
att(793,448).
att(683,995).
att(938,1156).
att(254,440).
att(254,431).
att(681,943).
att(798,477).
att(260,499).
att(667,969).
att(767,416).
att(860,250).
att(763,481).
att(770,467).
att(656,923).
att(669,1003).
att(270,534).
att(688,1129).
att(681,1078).
att(763,369).
att(267,535).
att(267,532).
att(675,1069).
att(769,366).
att(665,1007).
att(681,1116).
att(757,371).
att(667,917).
att(270,523).
att(770,371).
att(260,510).
att(524,516).
att(245,533).
att(685,1098).
att(667,912).
att(244,533).
att(765,391).
att(667,920).
att(685,1088).
att(679,1070).
att(773,377).
att(681,1069).
att(655,825).
att(769,392).
att(922,451).
att(622,386).
att(925,442).
att(925,451).
att(801,1002).
att(685,131).
att(690,218).
att(625,390).
att(616,378).
att(616,376).
att(688,121).
att(810,1000).
att(935,429).
att(935,423).
att(698,1118).
att(901,402).
att(901,416).
att(619,381).
att(698,1125).
att(704,1094).
att(798,926).
att(609,262).
att(810,888).
att(795,831).
att(795,828).
att(935,362).
att(630,297).
att(815,892).
att(938,375).
att(632,319).
att(723,1114).
att(807,914).
att(938,369).
att(798,831).
att(630,359).
att(925,314).
att(922,311).
att(932,399).
att(801,828).
att(810,930).
att(901,362).
att(616,359).
att(815,920).
att(801,1100).
att(801,1085).
att(815,1069).
att(765,828).
att(795,1028).
att(773,917).
att(812,1080).
att(679,343).
att(790,1098).
att(775,917).
att(801,1030).
att(793,1047).
att(677,187).
att(688,266).
att(690,272).
att(678,185).
att(812,1081).
att(685,284).
att(807,1030).
att(685,282).
att(681,263).
att(810,1014).
att(898,517).
att(690,292).
att(812,1014).
att(692,290).
att(812,1018).
att(606,427).
att(679,284).
att(919,416).
att(690,189).
att(798,1037).
att(798,1032).
att(833,371).
att(711,878).
att(840,451).
att(836,372).
att(714,878).
att(817,417).
att(698,884).
att(830,393).
att(830,392).
att(843,379).
att(344,541).
att(723,896).
att(711,823).
att(836,296).
att(827,339).
att(739,1011).
att(859,454).
att(859,465).
att(866,511).
att(726,1024).
att(922,358).
att(929,316).
att(836,454).
att(833,470).
att(632,253).
att(899,385).
att(616,262).
att(616,259).
att(609,286).
att(612,238).
att(830,488).
att(714,1059).
att(935,337).
att(698,1032).
att(838,513).
att(698,1056).
att(901,314).
att(698,1050).
att(723,1030).
att(840,481).
att(616,218).
att(704,995).
att(622,225).
att(932,252).
att(843,486).
att(935,261).
att(614,117).
att(721,1059).
att(935,271).
att(836,408).
att(704,892).
att(838,420).
att(840,413).
att(655,444).
att(866,1014).
att(659,378).
att(669,444).
att(657,427).
att(739,198).
att(743,276).
att(265,907).
att(855,1003).
att(849,878).
att(862,967).
att(739,228).
att(847,1034).
att(864,959).
att(733,200).
att(860,1034).
att(657,380).
att(659,308).
att(730,297).
att(827,879).
att(708,114).
att(840,998).
att(859,1120).
att(732,294).
att(714,110).
att(725,295).
att(732,308).
att(717,119).
att(732,356).
att(730,348).
att(739,319).
att(726,310).
att(743,388).
att(728,249).
att(857,1083).
att(733,343).
att(833,844).
att(846,933).
att(849,1083).
att(817,894).
att(859,1098).
att(817,879).
att(728,276).
att(862,1085).
att(735,266).
att(853,1018).
att(737,272).
att(846,841).
att(866,1098).
att(739,256).
att(732,280).
att(743,359).
att(656,119).
att(688,449).
att(678,398).
att(681,380).
att(655,110).
att(656,125).
att(661,222).
att(657,193).
att(765,1009).
att(683,386).
att(677,310).
att(775,943).
att(769,1005).
att(775,962).
att(683,315).
att(665,131).
att(765,890).
att(763,912).
att(810,1112).
att(759,844).
att(690,306).
att(807,1064).
att(812,1118).
att(793,1066).
att(765,1074).
att(853,926).
att(771,1122).
att(847,879).
att(665,306).
att(857,933).
att(773,1114).
att(775,1112).
att(655,346).
att(767,1081).
att(775,1074).
att(864,923).
att(849,844).
att(866,920).
att(771,1094).
att(860,841).
att(656,191).
att(866,841).
att(757,1014).
att(681,449).
att(669,278).
att(771,1028).
att(661,200).
att(775,1011).
att(810,297).
att(901,1122).
att(807,350).
att(679,858).
att(929,1116).
att(678,710).
att(798,249).
att(630,1057).
att(622,960).
att(685,789).
att(632,1038).
att(675,797).
att(810,263).
att(612,867).
att(935,1026).
att(898,1096).
att(793,231).
att(932,1034).
att(793,225).
att(932,1032).
att(690,710).
att(630,1010).
att(630,1004).
att(606,897).
att(899,1024).
att(938,1042).
att(681,885).
att(681,883).
att(793,430).
att(675,885).
att(795,384).
att(801,374).
att(690,891).
att(675,934).
att(798,437).
att(677,937).
att(790,378).
att(790,374).
att(678,865).
att(692,924).
att(767,114).
att(810,386).
att(612,1054).
att(801,297).
att(804,306).
att(804,319).
att(925,1078).
att(925,1074).
att(688,832).
att(675,865).
att(815,396).
att(685,848).
att(692,837).
att(932,844).
att(817,1080).
att(846,1087).
att(708,324).
att(901,930).
att(730,444).
att(622,697).
att(723,266).
att(616,800).
att(737,424).
att(827,967).
att(836,941).
att(737,452).
att(737,430).
att(836,965).
att(725,378).
att(739,449).
att(698,189).
att(723,292).
att(726,444).
att(737,380).
att(730,398).
att(717,241).
att(725,384).
att(708,198).
att(723,195).
att(728,363).
att(817,1047).
att(714,380).
att(606,934).
att(723,446).
att(812,191).
att(616,883).
att(932,1003).
att(801,121).
att(925,896).
att(632,921).
att(812,238).
att(609,826).
att(901,959).
att(938,1000).
att(606,829).
att(723,370).
att(614,766).
att(925,920).
att(622,856).
att(632,829).
att(812,139).
att(919,892).
att(616,760).
att(612,796).
att(606,772).
att(935,912).
att(898,878).
att(721,306).
att(632,848).
att(730,839).
att(827,119).
att(732,837).
att(859,390).
att(859,400).
att(864,378).
att(857,306).
att(862,388).
att(849,295).
att(726,832).
att(743,921).
att(737,861).
att(655,1035).
att(743,829).
att(817,131).
att(656,1033).
att(817,128).
att(853,253).
att(862,346).
att(735,768).
att(669,1038).
att(657,1035).
att(655,973).
att(737,761).
att(730,794).
att(726,764).
att(847,317).
att(739,1033).
att(730,979).
att(817,319).
att(704,794).
att(714,766).
att(725,939).
att(698,768).
att(728,1051).
att(616,44).
att(818,306).
att(632,35).
att(701,697).
att(714,814).
att(833,290).
att(711,803).
att(726,944).
att(739,963).
att(739,979).
att(732,1010).
att(728,944).
att(711,695).
att(859,430).
att(730,889).
att(732,868).
att(817,253).
att(728,983).
att(725,887).
att(855,374).
att(840,193).
att(864,439).
att(859,367).
att(771,386).
att(765,317).
att(665,820).
att(657,848).
att(767,340).
att(661,768).
att(659,761).
att(663,762).
att(773,319).
att(771,324).
att(770,353).
att(765,256).
att(669,761).
att(692,1060).
att(773,340).
att(663,796).
att(769,262).
att(773,246).
att(688,963).
att(685,1010).
att(737,797).
att(655,1008).
att(743,760).
att(853,272).
att(849,290).
att(857,189).
att(862,292).
att(671,1001).
att(733,814).
att(743,792).
att(739,703).
att(866,292).
att(849,119).
att(667,887).
att(864,187).
att(775,444).
att(669,889).
att(864,202).
att(665,1004).
att(860,222).
att(659,826).
att(853,125).
att(661,826).
att(663,829).
att(862,220).
att(759,386).
att(677,158).
att(678,159).
att(681,132).
att(793,889).
att(955,62).
att(679,115).
att(994,344).
att(771,797).
att(767,703).
att(954,62).
att(922,363).
att(993,244).
att(678,61).
att(994,257).
att(615,863).
att(678,64).
att(994,267).
att(688,126).
att(919,449).
att(919,446).
att(945,291).
att(692,118).
att(954,87).
att(898,439).
att(627,1001).
att(677,87).
att(612,267).
att(790,822).
att(690,161).
att(594,697).
att(627,1006).
att(678,81).
att(688,155).
att(596,705).
att(615,867).
att(810,895).
att(596,806).
att(608,983).
att(611,997).
att(582,868).
att(609,354).
att(692,157).
att(785,677).
att(600,703).
att(781,614).
att(678,44).
att(922,306).
att(612,287).
att(786,609).
att(613,900).
att(783,614).
att(683,83).
att(899,361).
att(907,73).
att(627,868).
att(683,93).
att(783,692).
att(606,267).
att(815,928).
att(904,161).
att(952,137).
att(608,868).
att(611,883).
att(935,400).
att(919,400).
att(945,341).
att(601,707).
att(609,267).
att(584,928).
att(665,64).
att(688,351).
att(655,31).
att(770,928).
att(586,796).
att(627,1035).
att(771,934).
att(907,242).
att(663,87).
att(692,344).
att(902,232).
att(953,281).
att(671,61).
att(679,341).
att(916,35).
att(757,837).
att(795,1038).
att(681,281).
att(600,797).
att(586,696).
att(678,194).
att(782,692).
att(769,854).
att(679,244).
att(779,659).
att(769,865).
att(770,900).
att(601,766).
att(775,835).
att(671,87).
att(611,939).
att(954,217).
att(665,41).
att(600,829).
att(906,283).
att(908,85).
att(767,760).
att(767,756).
att(685,190).
att(916,64).
att(775,865).
att(780,801).
att(590,766).
att(681,223).
att(688,173).
att(594,851).
att(690,190).
att(759,695).
att(782,726).
att(795,997).
att(952,281).
att(675,242).
att(685,217).
att(777,732).
att(953,260).
att(692,173).
att(777,739).
att(779,723).
att(601,826).
att(777,737).
att(598,856).
att(780,711).
att(833,363).
att(594,876).
att(601,981).
att(704,900).
att(781,759).
att(840,424).
att(906,357).
att(932,195).
att(873,73).
att(586,913).
att(601,635).
att(786,864).
att(598,634).
att(782,862).
att(902,344).
att(609,171).
att(777,775).
att(632,118).
att(711,934).
att(616,66).
att(588,904).
att(601,869).
att(907,260).
att(596,916).
att(714,931).
att(955,325).
att(598,873).
att(594,891).
att(706,820).
att(836,388).
att(782,775).
att(870,73).
att(596,895).
att(588,927).
att(596,897).
att(714,924).
att(600,870).
att(698,921).
att(616,171).
att(778,795).
att(869,95).
att(871,79).
att(570,839).
att(784,862).
att(748,677).
att(840,394).
att(598,976).
att(590,1010).
att(619,93).
att(594,953).
att(596,906).
att(701,852).
att(586,993).
att(609,48).
att(781,846).
att(908,219).
att(711,822).
att(749,679).
att(570,988).
att(929,117).
att(601,911).
att(873,234).
att(594,1033).
att(750,735).
att(632,79).
att(717,842).
att(625,93).
att(747,655).
att(594,906).
att(935,110).
att(777,840).
att(601,1051).
att(838,319).
att(570,748).
att(778,847).
att(600,983).
att(619,31).
att(746,614).
att(870,158).
att(911,135).
att(701,760).
att(721,835).
att(817,400).
att(783,925).
att(898,131).
att(590,754).
att(827,319).
att(783,929).
att(869,158).
att(846,310).
att(752,685).
att(910,283).
att(881,97).
att(688,81).
att(935,315).
att(590,1039).
att(681,34).
att(748,733).
att(688,83).
att(793,761).
att(616,245).
att(899,388).
att(899,400).
att(812,826).
att(751,793).
att(635,46).
att(635,48).
att(616,267).
att(807,858).
att(711,1043).
att(777,901).
att(788,723).
att(916,274).
att(749,656).
att(753,735).
att(908,192).
att(592,944).
att(908,293).
att(804,760).
att(777,938).
att(588,1038).
att(598,1060).
att(692,35).
att(616,287).
att(793,713).
att(788,853).
att(798,803).
att(637,87).
att(594,618).
att(622,217).
att(873,260).
att(932,259).
att(704,999).
att(570,644).
att(812,766).
att(812,764).
att(717,944).
att(880,155).
att(701,944).
att(919,269).
att(606,219).
att(807,794).
att(880,161).
att(747,763).
att(704,891).
att(586,634).
att(586,635).
att(711,1004).
att(745,723).
att(910,244).
att(622,115).
att(801,705).
att(801,703).
att(935,276).
att(598,604).
att(717,1010).
att(717,1008).
att(935,280).
att(790,713).
att(938,277).
att(790,710).
att(751,765).
att(899,259).
att(881,852).
att(910,1035).
att(711,35).
att(749,190).
att(717,44).
att(615,902).
att(849,1043).
att(725,196).
att(871,1060).
att(747,192).
att(754,35).
att(618,955).
att(862,1039).
att(753,229).
att(737,201).
att(846,772).
att(732,229).
att(864,1043).
att(723,35).
att(751,201).
att(751,199).
att(827,703).
att(986,31).
att(733,226).
att(840,806).
att(877,842).
att(737,239).
att(735,217).
att(991,91).
att(725,135).
att(627,946).
att(635,822).
att(836,696).
att(615,991).
att(985,91).
att(869,1057).
att(618,754).
att(853,885).
att(637,758).
att(748,194).
att(874,858).
att(872,1035).
att(739,126).
att(750,260).
att(739,137).
att(746,291).
att(817,794).
att(754,85).
att(847,973).
att(698,158).
att(881,997).
att(830,867).
att(987,62).
att(711,132).
att(590,746).
att(584,608).
att(714,120).
att(843,1001).
att(717,135).
att(634,893).
att(827,983).
att(989,137).
att(935,695).
att(723,223).
att(935,703).
att(747,360).
att(636,835).
att(755,157).
att(582,877).
att(745,244).
att(732,323).
att(584,634).
att(601,751).
att(701,66).
att(840,893).
att(590,779).
att(749,344).
att(634,918).
att(725,323).
att(984,79).
att(723,118).
att(818,999).
att(754,165).
att(817,1001).
att(698,85).
att(639,806).
att(711,75).
att(877,944).
att(637,942).
att(603,803).
att(584,881).
att(613,875).
att(827,900).
att(643,794).
att(582,902).
att(711,81).
att(611,873).
att(701,41).
att(726,245).
att(584,908).
att(603,710).
att(706,35).
att(634,1010).
att(641,806).
att(733,354).
att(754,219).
att(723,71).
att(754,217).
att(765,979).
att(853,803).
att(985,275).
att(639,850).
att(605,768).
att(649,904).
att(775,1038).
att(651,903).
att(649,953).
att(763,1057).
att(859,787).
att(759,940).
att(651,952).
att(866,766).
att(643,858).
att(651,848).
att(659,115).
att(771,944).
att(651,858).
att(765,1006).
att(641,987).
att(994,46).
att(992,41).
att(986,236).
att(987,190).
att(991,287).
att(643,984).
att(663,118).
att(757,981).
att(949,31).
att(641,858).
att(659,234).
att(643,761).
att(770,1039).
att(770,997).
att(646,897).
att(860,705).
att(990,323).
att(986,247).
att(671,137).
att(864,710).
att(651,989).
att(866,700).
att(655,155).
att(644,788).
att(759,820).
att(765,918).
att(759,835).
att(994,62).
att(665,163).
att(994,64).
att(951,87).
att(677,257).
att(641,783).
att(773,868).
att(754,320).
att(685,323).
att(990,244).
att(948,87).
att(651,745).
att(945,87).
att(773,885).
att(661,61).
att(984,257).
att(759,928).
att(949,75).
att(984,267).
att(763,891).
att(671,155).
att(615,695).
att(644,646).
att(860,897).
att(627,800).
att(951,118).
att(948,120).
att(646,1051).
att(992,190).
att(603,1006).
att(737,165).
att(818,713).
att(726,161).
att(613,700).
att(949,242).
att(608,782).
att(735,69).
att(950,157).
att(618,703).
att(667,321).
att(669,344).
att(857,826).
att(857,842).
att(992,129).
att(627,779).
att(639,1004).
att(627,785).
att(611,710).
att(641,1008).
att(725,85).
att(726,69).
att(604,895).
att(739,64).
att(993,115).
att(993,283).
att(605,953).
att(862,820).
att(955,44).
att(603,955).
att(618,852).
att(671,254).
att(643,910).
att(954,33).
att(946,186).
att(655,281).
att(641,1039).
att(765,1051).
att(667,275).
att(649,1039).
att(735,37).
att(994,203).
att(855,768).
att(994,173).
att(866,850).
att(613,789).
att(604,430).
att(795,267).
att(823,1160).
att(915,1025).
att(665,632).
att(793,254).
att(923,1097).
att(950,891).
att(795,270).
att(608,292).
att(757,71).
att(819,1159).
att(618,193).
att(992,885).
att(819,1154).
att(773,75).
att(769,81).
att(912,1017).
att(603,368).
att(641,427).
att(790,264).
att(831,1138).
att(912,956).
att(955,762).
att(804,279).
att(950,976).
att(993,1031).
att(765,35).
att(831,1133).
att(952,764).
att(807,289).
att(914,1049).
att(825,1153).
att(611,324).
att(775,93).
att(930,1049).
att(906,697).
att(993,976).
att(627,272).
att(907,700).
att(993,942).
att(605,452).
att(618,269).
att(932,1054).
att(952,803).
att(902,705).
att(773,35).
att(904,789).
att(819,1141).
att(771,31).
att(903,696).
att(905,803).
att(912,958).
att(624,256).
att(825,1133).
att(860,46).
att(594,110).
att(920,1148).
att(786,87).
att(915,1105).
att(930,1136).
att(770,287).
att(892,1058).
att(915,1109).
att(894,1048).
att(896,1049).
att(588,131).
att(964,565).
att(584,310).
att(598,119).
att(866,35).
att(878,974).
att(763,274).
att(763,219).
att(765,236).
att(954,863).
att(958,560).
att(615,346).
att(582,348).
att(763,201).
att(611,295).
att(584,368).
att(955,895).
att(770,219).
att(765,126).
att(904,887).
att(582,370).
att(588,195).
att(920,1106).
att(778,66).
att(590,231).
att(598,189).
att(906,829).
att(906,832).
att(954,934).
att(917,1071).
att(782,81).
att(786,62).
att(627,376).
att(786,64).
att(930,1126).
att(783,165).
att(608,376).
att(783,171).
att(926,1077).
att(779,79).
att(601,193).
att(775,115).
att(611,376).
att(903,822).
att(598,225).
att(611,363).
att(798,89).
att(919,851).
att(825,1021).
att(711,245).
att(906,1010).
att(714,257).
att(908,787).
att(721,325).
att(706,285).
att(588,262).
att(783,190).
att(935,826).
att(810,66).
att(905,983).
att(785,123).
att(901,858).
att(932,858).
att(955,1008).
att(786,132).
att(833,1057).
att(717,289).
att(904,1008).
att(790,48).
att(916,792).
att(938,851).
att(916,794).
att(953,970).
att(570,200).
att(584,449).
att(819,1055).
att(910,700).
att(910,703).
att(601,382).
att(840,1031).
att(830,940).
att(753,35).
att(873,772).
att(922,803).
att(783,257).
att(834,977).
att(721,283).
att(783,254).
att(751,83).
att(935,774).
att(723,283).
att(902,1038).
att(827,1035).
att(778,186).
att(812,41).
att(784,267).
att(778,242).
att(906,960).
att(785,199).
att(954,1031).
att(592,263).
att(704,126).
att(817,1060).
att(899,774).
att(898,766).
att(907,1039).
att(588,356).
att(779,199).
att(788,41).
att(938,789).
att(902,970).
att(935,796).
att(828,1110).
att(932,970).
att(823,1123).
att(785,323).
att(815,201).
att(815,199).
att(586,376).
att(834,1109).
att(908,891).
att(788,155).
att(793,165).
att(910,832).
att(932,981).
att(793,159).
att(798,132).
att(823,1063).
att(600,398).
att(810,242).
att(594,365).
att(807,140).
att(935,1001).
att(779,257).
att(824,1071).
att(821,1117).
att(790,126).
att(922,937).
att(748,158).
att(929,897).
att(752,129).
att(795,64).
att(874,716).
att(750,118).
att(634,707).
att(804,153).
att(873,980).
att(570,365).
att(788,140).
att(869,931).
att(708,344).
att(704,273).
att(819,1084).
att(819,1086).
att(717,357).
att(812,159).
att(925,835).
att(790,79).
att(909,981).
att(881,696).
att(752,158).
att(876,125).
att(1000,1113).
att(876,139).
att(877,119).
att(788,918).
att(1013,568).
att(869,297).
att(998,1113).
att(911,394).
att(590,1120).
att(838,219).
att(250,532).
att(347,414).
att(634,125).
att(833,115).
att(998,1106).
att(747,820).
att(747,822).
att(818,203).
att(347,410).
att(355,436).
att(9,966).
att(788,913).
att(869,359).
att(778,1057).
att(843,135).
att(1007,1126).
att(255,534).
att(778,1033).
att(911,319).
att(911,315).
att(781,1051).
att(749,852).
att(586,1116).
att(271,537).
att(998,1111).
att(909,394).
att(570,1078).
att(996,1113).
att(747,891).
att(818,158).
att(755,700).
att(1003,1073).
att(838,157).
att(749,924).
att(637,241).
att(817,126).
att(833,68).
att(843,161).
att(833,62).
att(873,437).
att(875,280).
att(358,473).
att(870,427).
att(982,1130).
att(723,688).
att(714,614).
att(745,913).
att(747,885).
att(751,1006).
att(1003,1091).
att(827,95).
att(827,93).
att(637,121).
att(339,466).
att(1027,566).
att(855,257).
att(817,161).
att(859,254).
att(878,1151).
att(634,228).
att(843,71).
att(859,264).
att(875,200).
att(870,363).
att(982,1079).
att(875,198).
att(721,606).
att(836,85).
att(817,165).
att(1002,1022).
att(1023,566).
att(998,1160).
att(355,526).
att(843,354).
att(967,1013).
att(4,1029).
att(972,1099).
att(833,264).
att(342,506).
att(753,979).
att(978,1086).
att(634,253).
att(995,1158).
att(988,772).
att(875,359).
att(2,1086).
att(3,1058).
att(962,1052).
att(975,1015).
att(962,1040).
att(872,424).
att(20,1048).
att(989,787).
att(1009,1154).
att(978,1023).
att(836,289).
att(978,1013).
att(20,1049).
att(6,1086).
att(635,284).
att(989,800).
att(899,75).
att(830,190).
att(1005,1132).
att(1005,1133).
att(636,346).
att(646,117).
att(986,756).
att(4,958).
att(965,977).
att(975,1036).
att(704,735).
att(748,1054).
att(745,1039).
att(840,293).
att(1007,1132).
att(639,122).
att(898,87).
att(846,274).
att(305,401).
att(833,196).
att(20,968).
att(967,968).
att(337,519).
att(358,535).
att(649,131).
att(846,285).
att(347,520).
att(7,968).
att(754,856).
att(345,526).
att(352,538).
att(708,737).
att(990,762).
att(987,792).
att(7,974).
att(978,974).
att(634,343).
att(984,758).
att(717,743).
att(339,527).
att(634,350).
att(943,1058).
att(899,39).
att(985,758).
att(746,1038).
att(989,865).
att(892,1124).
att(733,690).
att(651,200).
att(860,135).
att(849,62).
att(864,135).
att(252,409).
att(636,382).
att(855,165).
att(877,376).
att(886,1065).
att(862,135).
att(866,135).
att(987,921).
att(743,659).
att(890,1104).
att(739,675).
att(643,220).
att(739,679).
att(985,918).
att(879,1022).
att(884,1099).
att(651,228).
att(755,928).
att(862,169).
att(733,606).
att(987,842).
att(737,632).
att(989,921).
att(643,114).
att(880,370).
att(890,1092).
att(754,973).
att(268,471).
att(849,35).
att(994,806).
att(636,446).
att(888,1013).
att(767,273).
att(636,444).
att(892,1099).
att(912,1153).
att(947,710).
att(859,91).
att(775,323).
att(949,792).
att(759,247).
att(604,280).
att(884,1058).
att(985,897).
att(930,1152).
att(879,964).
att(994,697).
att(755,1001).
att(936,1156).
att(639,187).
att(767,291).
att(860,87).
att(646,288).
att(987,924).
att(261,414).
att(637,424).
att(949,697).
att(261,407).
att(849,48).
att(634,427).
att(649,276).
att(775,254).
att(635,446).
att(985,1054).
att(864,264).
att(644,359).
att(603,348).
att(859,279).
att(896,1152).
att(639,313).
att(860,320).
att(993,764).
att(261,473).
att(990,960).
att(255,476).
att(646,359).
att(855,186).
att(603,249).
att(866,289).
att(1009,1036).
att(261,464).
att(1009,1049).
att(732,743).
att(846,39).
att(996,1058).
att(884,1137).
att(984,944).
att(882,1131).
att(892,1148).
att(258,525).
att(892,1147).
att(271,531).
att(888,1106).
att(947,851).
att(992,913).
att(611,220).
att(252,519).
att(726,677).
att(950,854).
att(862,223).
att(994,837).
att(947,758).
att(986,1057).
att(992,829).
att(951,839).
att(864,242).
att(894,1109).
att(948,842).
att(726,671).
att(879,1117).
att(271,502).
att(261,500).
att(271,508).
att(445,605).
att(749,542).
att(1053,1134).
att(29,1151).
att(330,1104).
att(391,476).
att(985,436).
att(989,457).
att(954,80).
att(1047,1147).
att(906,94).
att(1032,1155).
att(211,311).
att(327,1111).
att(613,818).
att(613,817).
att(618,919).
att(765,714).
att(208,309).
att(215,364).
att(332,1103).
att(745,541).
att(1042,1136).
att(1059,1132).
att(777,571).
att(936,406).
att(16,1058).
att(111,1143).
att(26,1153).
att(23,1136).
att(985,459).
att(775,801).
att(954,67).
att(22,1133).
att(903,94).
att(985,453).
att(29,1132).
att(29,1131).
att(989,478).
att(782,569).
att(917,372).
att(1071,560).
att(393,480).
att(21,1145).
att(782,597).
att(15,964).
att(30,1138).
att(41,564).
att(332,1071).
att(782,593).
att(915,387).
att(211,355).
att(215,307).
att(1012,1049).
att(1056,1142).
att(1077,568).
att(212,305).
att(767,732).
att(777,587).
att(1037,1138).
att(1037,1131).
att(19,1055).
att(601,659).
att(926,377).
att(1014,1052).
att(385,483).
att(21,1141).
att(611,830).
att(754,489).
att(763,723).
att(754,498).
att(213,383).
att(397,459).
att(326,1067).
att(785,572).
att(905,99).
att(989,489).
att(391,508).
att(302,966).
att(592,732).
att(749,753).
att(988,496).
att(207,375).
att(984,480).
att(389,508).
att(870,4).
att(988,500).
att(594,711).
att(824,513).
att(746,750).
att(824,522).
att(389,510).
att(28,1101).
att(783,684).
att(952,130).
att(1056,1106).
att(215,417).
att(755,508).
att(926,391).
att(601,793).
att(986,482).
att(25,1146).
att(869,2).
att(779,694).
att(904,101).
att(598,704).
att(570,733).
att(206,372).
att(917,375).
att(301,1055).
att(775,737).
att(910,26).
att(335,1040).
att(590,726).
att(903,162).
att(29,1102).
att(831,507).
att(206,393).
att(391,496).
att(757,612).
att(1045,1071).
att(757,609).
att(989,508).
att(397,508).
att(821,472).
att(207,385).
att(592,667).
att(824,460).
att(779,642).
att(782,628).
att(215,429).
att(582,922).
att(909,29).
att(821,513).
att(26,1103).
att(111,1136).
att(213,426).
att(301,958).
att(769,675).
att(784,687).
att(590,655).
att(748,785).
att(778,645).
att(926,304).
att(12,1072).
att(182,250).
att(612,414).
att(987,779).
att(989,530).
att(614,401).
att(206,406).
att(785,727).
att(326,1159).
att(906,227).
att(1011,1103).
att(619,428).
att(855,685).
att(16,1124).
att(908,54).
att(987,505).
att(594,767).
att(371,407).
att(750,556).
att(879,338).
att(1020,1072).
att(379,412).
att(864,659).
att(10,1128).
att(379,409).
att(896,397).
att(990,526).
att(215,460).
att(896,393).
att(746,555).
att(298,1019).
att(888,296).
att(1014,1103).
att(1030,1121).
att(213,472).
att(1030,1111).
att(570,804).
att(588,775).
att(784,718).
att(57,971).
att(213,456).
att(57,968).
att(334,1067).
att(902,235).
att(903,224).
att(399,536).
att(1011,1130).
att(330,1151).
att(847,675).
att(600,807).
att(884,355).
att(949,412).
att(590,721).
att(930,516).
att(785,666).
att(303,1040).
att(992,419).
att(923,472).
att(991,532).
att(211,445).
att(395,536).
att(870,21).
att(1012,1124).
att(391,519).
att(13,1117).
att(385,540).
att(864,681).
att(755,549).
att(19,1123).
att(779,662).
att(857,622).
att(588,807).
att(993,422).
att(1018,1077).
att(788,553).
att(912,472).
att(946,407).
att(755,751).
att(991,785).
att(10,1071).
att(917,509).
att(17,1079).
att(630,493).
att(989,549).
att(377,474).
att(24,1155).
att(757,793).
att(630,498).
att(911,92).
att(991,545).
att(619,474).
att(81,562).
att(178,349).
att(179,305).
att(211,509).
att(754,779).
att(10,1095).
att(926,494).
att(870,96).
att(10,1082).
att(751,645).
att(369,455).
att(926,488).
att(1014,1067).
att(1117,567).
att(755,783).
att(788,647).
att(788,648).
att(871,100).
att(949,447).
att(85,565).
att(177,305).
att(177,355).
att(209,467).
att(784,776).
att(83,561).
att(778,736).
att(335,1075).
att(600,853).
att(915,423).
att(1117,566).
att(785,709).
att(1113,568).
att(947,419).
att(1012,1086).
att(908,36).
att(373,461).
att(930,490).
att(933,486).
att(336,1111).
att(1014,1091).
att(1028,1021).
att(779,718).
att(870,50).
att(1113,562).
att(909,98).
att(334,1123).
att(783,813).
att(13,1092).
att(630,464).
att(614,411).
att(632,447).
att(747,595).
att(1018,1025).
att(181,316).
att(379,431).
att(769,795).
att(177,347).
att(301,1079).
att(752,589).
att(1018,1015).
att(298,1082).
att(769,790).
att(206,492).
att(387,542).
att(872,51).
att(922,242).
att(334,1135).
att(972,1142).
att(929,201).
att(1050,977).
att(590,929).
att(28,968).
att(753,631).
att(967,1101).
att(592,899).
att(1097,568).
att(812,701).
att(978,1149).
att(179,371).
att(994,495).
att(824,391).
att(751,687).
att(871,160).
att(1034,1046).
att(943,1139).
att(748,572).
att(177,393).
att(309,428).
att(901,217).
att(911,70).
att(804,665).
att(296,464).
att(932,226).
att(749,575).
att(831,383).
att(992,506).
att(870,88).
att(938,239).
att(925,115).
att(9,1148).
att(176,389).
att(746,652).
att(935,242).
att(1,1101).
att(9,1144).
att(333,1143).
att(804,669).
att(825,377).
att(916,156).
att(919,239).
att(946,491).
att(938,229).
att(208,517).
att(819,393).
att(6,1123).
att(815,678).
att(949,515).
att(748,680).
att(872,124).
att(299,1137).
att(753,660).
att(823,345).
att(841,383).
att(873,130).
att(875,10).
att(178,404).
att(1,1128).
att(989,551).
att(975,1123).
att(312,505).
att(824,345).
att(303,1155).
att(3,1111).
att(318,489).
att(751,744).
att(298,1133).
att(177,443).
att(314,498).
att(881,17).
att(177,426).
att(953,401).
att(841,314).
att(947,515).
att(746,676).
att(750,658).
att(943,1121).
att(870,141).
att(9,1124).
att(300,1140).
att(836,325).
att(880,14).
att(751,668).
att(910,133).
att(946,527).
att(745,734).
att(953,428).
att(986,557).
att(22,1092).
att(311,523).
att(821,490).
att(23,1084).
att(823,486).
att(844,516).
att(947,525).
att(904,411).
att(925,325).
att(1045,1091).
att(305,526).
att(926,358).
att(183,513).
att(749,724).
att(952,438).
att(984,602).
att(312,537).
att(752,779).
att(767,616).
att(955,434).
att(828,507).
att(989,580).
att(747,702).
att(773,677).
att(991,553).
att(1045,1025).
att(298,1159).
att(793,812).
att(872,243).
att(184,349).
att(793,810).
att(795,790).
att(175,402).
att(841,458).
att(872,235).
att(27,1091).
att(1032,1067).
att(933,338).
att(296,528).
att(634,58).
att(312,525).
att(875,49).
att(180,470).
att(989,595).
att(754,589).
att(773,614).
att(745,658).
att(906,436).
att(35,560).
att(1053,1013).
att(26,1017).
att(972,1158).
att(184,377).
att(395,461).
att(20,1134).
att(824,443).
att(877,80).
att(988,642).
att(178,513).
att(395,450).
att(146,387).
att(1061,565).
att(906,450).
att(46,559).
att(305,546).
att(1056,1017).
att(2,1159).
att(933,255).
att(20,1140).
att(143,389).
att(989,617).
att(318,548).
att(391,412).
att(3,1159).
att(144,389).
att(148,375).
att(174,460).
att(823,375).
att(144,314).
att(309,537).
att(4,1145).
att(142,358).
att(876,99).
att(145,347).
att(962,1142).
att(636,43).
att(877,94).
att(178,460).
att(393,435).
att(874,96).
att(874,80).
att(146,307).
att(844,408).
att(935,285).
att(989,638).
att(749,816).
att(804,698).
att(24,956).
att(941,1153).
att(144,304).
att(798,810).
att(938,285).
att(397,414).
att(998,494).
att(685,521).
att(174,1152).
att(45,1067).
att(142,1029).
att(986,19).
att(442,508).
att(637,790).
att(929,612).
att(1002,479).
att(877,773).
att(175,1152).
att(972,345).
att(442,515).
att(972,358).
att(426,533).
att(36,1067).
att(641,622).
att(1080,1095).
att(978,355).
att(9,316).
att(50,1115).
att(975,342).
att(984,58).
att(1002,488).
att(675,504).
att(1003,511).
att(43,1126).
att(899,685).
att(978,337).
att(36,1079).
att(785,414).
att(651,609).
att(20,248).
att(40,1025).
att(747,240).
att(752,233).
att(448,508).
att(55,1158).
att(838,771).
att(1078,1025).
att(47,1099).
att(441,499).
att(779,412).
att(150,1029).
att(975,250).
att(978,268).
att(441,487).
att(898,622).
att(49,1099).
att(1090,1156).
att(677,497).
att(8,271).
att(827,775).
att(989,60).
att(429,504).
att(1070,1073).
att(1,258).
att(943,355).
att(943,349).
att(1003,463).
att(754,72).
att(784,459).
att(880,932).
att(1098,1136).
att(144,1124).
att(780,435).
att(1074,1041).
att(675,543).
att(1074,1055).
att(420,425).
att(451,541).
att(142,1073).
att(639,678).
att(51,1138).
att(417,431).
att(605,619).
att(637,857).
att(678,536).
att(830,714).
att(47,1013).
att(637,818).
att(51,1132).
att(147,1109).
att(150,1106).
att(678,533).
att(54,1154).
att(1003,481).
att(649,657).
att(32,1048).
att(36,1029).
att(677,535).
att(1068,1025).
att(836,698).
att(995,445).
att(148,1111).
att(1083,1136).
att(1003,448).
att(880,817).
att(876,860).
att(1068,956).
att(688,550).
att(840,698).
att(1002,362).
att(56,1149).
att(142,1086).
att(877,855).
att(47,1058).
att(877,864).
att(60,1138).
att(786,473).
att(681,535).
att(50,1025).
att(1088,1155).
att(1100,1143).
att(443,535).
att(1007,451).
att(1090,1150).
att(984,43).
att(1070,1027).
att(995,369).
att(996,443).
att(846,717).
att(1003,404).
att(754,86).
att(1094,1137).
att(675,530).
att(54,1137).
att(780,476).
att(53,1139).
att(671,405).
att(962,379).
att(994,21).
att(1076,1143).
att(404,500).
att(47,1135).
att(1064,1135).
att(144,1141).
att(420,471).
att(605,663).
att(667,496).
att(1066,1131).
att(416,466).
att(109,964).
att(109,958).
att(149,1147).
att(659,485).
att(782,480).
att(786,491).
att(929,698).
att(100,1025).
att(949,27).
att(898,807).
att(975,451).
att(3,426).
att(780,491).
att(1148,565).
att(421,453).
att(655,459).
att(2,429).
att(635,901).
att(1144,559).
att(7,366).
att(636,836).
att(876,938).
att(153,567).
att(876,898).
att(986,94).
att(967,383).
att(413,478).
att(603,678).
att(992,7).
att(149,1103).
att(986,99).
att(919,656).
att(161,567).
att(637,899).
att(978,373).
att(665,478).
att(925,659).
att(1,364).
att(1080,1103).
att(967,393).
att(655,419).
att(943,442).
att(778,497).
att(92,1052).
att(159,565).
att(84,974).
att(147,1141).
att(451,550).
att(985,72).
att(993,5).
att(1076,1117).
att(779,502).
att(406,521).
att(104,1040).
att(990,224).
att(1074,1126).
att(9,364).
att(975,393).
att(1066,1101).
att(1064,1108).
att(948,12).
att(1000,522).
att(402,530).
att(972,387).
att(922,690).
att(781,512).
att(778,505).
att(9,375).
att(780,523).
att(146,1158).
att(406,505).
att(784,537).
att(1070,1142).
att(1120,977).
att(779,525).
att(151,1021).
att(2,338).
att(418,495).
att(990,130).
att(1074,1079).
att(932,679).
att(951,26).
att(149,1134).
att(783,540).
att(1009,514).
att(40,1072).
att(47,1126).
att(105,957).
att(603,730).
att(948,27).
att(416,471).
att(1009,524).
att(935,692).
att(150,1151).
att(1078,1071).
att(4,338).
att(50,1102).
att(657,500).
att(965,347).
att(5,392).
att(655,473).
att(1074,1117).
att(103,1040).
att(752,410).
att(899,661).
att(988,204).
att(146,1136).
att(147,1151).
att(784,545).
att(950,38).
att(16,1159).
att(783,547).
att(1088,1091).
att(625,506).
att(982,261).
att(892,484).
att(1081,1082).
att(651,838).
att(862,769).
att(862,767).
att(622,506).
att(1003,251).
att(1028,1152).
att(622,504).
att(621,669).
att(605,862).
att(1030,1154).
att(603,866).
att(611,688).
att(1030,1151).
att(54,1093).
att(625,499).
att(777,536).
att(604,866).
att(1085,1092).
att(372,474).
att(860,804).
att(1012,1151).
att(892,406).
att(643,773).
att(12,1144).
att(15,1138).
att(52,964).
att(1024,1139).
att(622,487).
att(857,723).
att(371,468).
att(371,478).
att(1081,1017).
att(109,1099).
att(53,1013).
att(948,36).
att(51,1052).
att(788,468).
att(949,36).
att(752,455).
att(364,496).
att(632,496).
att(847,763).
att(745,422).
att(102,1093).
att(1024,1158).
att(745,435).
att(747,455).
att(632,497).
att(993,172).
att(746,450).
att(879,391).
att(1081,1052).
att(615,669).
att(113,966).
att(951,63).
att(56,971).
att(888,364).
att(952,1).
att(55,964).
att(1096,977).
att(58,1048).
att(371,529).
att(953,4).
att(639,925).
att(948,67).
att(864,701).
att(951,167).
att(1018,1146).
att(109,1143).
att(152,1138).
att(10,1144).
att(111,1036).
att(432,409).
att(882,451).
att(11,1150).
att(747,480).
att(106,1141).
att(788,497).
att(58,958).
att(102,1121).
att(12,1128).
att(853,657).
att(847,730).
att(890,377).
att(103,1117).
att(1011,1144).
att(753,489).
att(888,383).
att(750,498).
att(862,735).
att(1081,957).
att(625,520).
att(605,855).
att(1081,966).
att(892,375).
att(948,76).
att(992,172).
att(945,86).
att(584,677).
att(748,482).
att(621,743).
att(888,385).
att(19,1144).
att(364,527).
att(632,528).
att(890,426).
att(106,1101).
att(1016,1150).
att(627,661).
att(1018,1101).
att(613,711).
att(750,503).
att(683,457).
att(62,566).
att(627,798).
att(950,127).
att(1090,1123).
att(1107,559).
att(73,568).
att(904,24).
att(1098,1107).
att(151,1158).
att(950,101).
att(45,956).
att(108,1132).
att(59,1144).
att(111,1019).
att(113,1015).
att(104,1132).
att(328,1044).
att(369,548).
att(609,547).
att(788,520).
att(328,1055).
att(50,1036).
att(328,1058).
att(675,440).
att(54,1144).
att(692,447).
att(954,10).
att(1081,1136).
att(102,1134).
att(330,1027).
att(692,466).
att(71,564).
att(613,704).
att(1088,1133).
att(1009,379).
att(106,1157).
att(955,22).
att(688,461).
att(683,440).
att(103,1141).
att(950,160).
att(331,971).
att(103,1147).
att(1000,316).
att(994,141).
att(998,311).
att(1000,312).
att(582,739).
att(57,1146).
att(108,1137).
att(104,1147).
att(53,1105).
att(953,19).
att(752,525).
att(788,538).
att(106,1133).
att(327,957).
att(817,730).
att(616,547).
att(1090,1115).
att(1094,1106).
att(846,665).
att(1090,1111).
att(52,1113).
att(616,546).
att(1088,1141).
att(1081,1128).
att(59,1111).
att(624,864).
att(429,502).
att(996,345).
att(907,55).
att(989,410).
att(1090,1091).
att(955,43).
att(1007,314).
att(594,630).
att(423,508).
att(582,795).
att(209,338).
att(328,1097).
att(952,99).
att(598,625).
att(1100,1061).
att(601,688).
att(996,316).
att(584,769).
att(58,1105).
att(751,547).
att(746,531).
att(327,1091).
att(624,771).
att(685,473).
att(862,860).
att(862,847).
att(331,1022).
att(442,466).
att(998,265).
att(423,500).
att(615,790).
att(683,485).
att(886,494).
att(1109,566).
att(328,1046).
att(443,483).
att(784,583).
att(988,438).
att(896,472).
att(748,539).
att(681,468).
att(210,251).
att(105,1155).
att(330,1093).
att(326,1013).
att(704,434).
att(1026,385).
att(72,1110).
att(242,563).
att(874,991).
att(1020,316).
att(875,986).
att(72,1104).
att(214,1046).
att(785,29).
att(490,543).
att(211,977).
att(239,563).
att(1020,311).
att(904,725).
att(17,372).
att(711,459).
att(952,815).
att(777,20).
att(728,550).
att(588,48).
att(876,988).
att(1155,564).
att(876,989).
att(1012,371).
att(881,951).
att(953,801).
att(481,544).
att(1018,399).
att(1159,559).
att(206,961).
att(905,708).
att(1016,379).
att(584,203).
att(172,958).
att(723,455).
att(624,279).
att(906,671).
att(634,780).
att(714,435).
att(72,1115).
att(627,203).
att(18,399).
att(470,403).
att(490,539).
att(904,663).
att(67,1079).
att(618,199).
att(953,725).
att(947,836).
att(894,831).
att(1028,309).
att(584,226).
att(896,819).
att(723,431).
att(613,232).
att(207,1021).
att(74,1061).
att(17,314).
att(1045,492).
att(600,69).
att(954,773).
att(456,498).
att(454,489).
att(1047,494).
att(782,13).
att(1032,513).
att(469,485).
att(1026,339).
att(1032,522).
att(212,1091).
att(1014,307).
att(76,1079).
att(80,1113).
att(208,1019).
att(16,339).
att(209,1091).
att(19,296).
att(611,344).
att(780,52).
att(1018,355).
att(706,461).
att(1024,296).
att(1018,349).
att(206,1021).
att(13,318).
att(584,270).
att(22,456).
att(780,58).
att(1050,516).
att(592,39).
att(1127,1152).
att(454,483).
att(714,473).
att(214,1019).
att(470,466).
att(955,807).
att(1053,484).
att(214,1027).
att(906,721).
att(78,1065).
att(232,560).
att(701,453).
att(74,1095).
att(596,87).
att(28,477).
att(17,345).
att(72,1092).
att(952,804).
att(22,484).
att(78,1072).
att(213,1099).
att(780,12).
att(1152,562).
att(582,289).
att(601,62).
att(226,559).
att(600,81).
att(600,82).
att(785,12).
att(19,347).
att(723,471).
att(54,248).
att(954,846).
att(1026,477).
att(12,420).
att(786,88).
att(456,527).
att(164,1091).
att(783,90).
att(18,469).
att(635,873).
att(909,663).
att(953,925).
att(783,77).
att(52,252).
att(779,100).
att(12,486).
att(57,296).
att(903,857).
att(213,1101).
att(460,501).
att(57,250).
att(57,248).
att(162,1025).
att(600,159).
att(721,527).
att(879,892).
att(1011,475).
att(592,75).
att(874,916).
att(16,406).
att(711,515).
att(875,911).
att(164,1015).
att(11,402).
att(876,869).
att(172,1086).
att(711,503).
att(711,501).
att(17,465).
att(213,1115).
att(916,679).
att(166,1022).
att(15,445).
att(785,156).
att(1011,420).
att(177,977).
att(590,242).
att(910,743).
att(162,1052).
att(795,407).
att(15,426).
att(509,435).
att(509,428).
att(524,411).
att(778,77).
att(804,431).
att(810,461).
att(214,1149).
att(704,535).
att(782,67).
att(793,407).
att(16,426).
att(1012,417).
att(793,412).
att(708,548).
att(1016,406).
att(166,1055).
att(164,1040).
att(518,422).
att(636,945).
att(467,550).
att(807,407).
att(881,871).
att(909,723).
att(1024,408).
att(72,1157).
att(1016,418).
att(154,1055).
att(213,1136).
att(801,411).
att(704,529).
att(721,543).
att(785,63).
att(911,671).
att(1012,448).
att(786,78).
att(586,223).
att(815,409).
att(70,1136).
att(467,540).
att(902,836).
att(588,232).
att(708,538).
att(876,949).
att(788,3).
att(916,739).
att(904,899).
att(10,369).
att(8,517).
att(735,434).
att(600,254).
att(406,546).
att(421,531).
att(778,141).
att(911,793).
att(30,383).
att(486,438).
att(899,898).
att(909,752).
att(975,522).
att(96,1123).
att(728,405).
att(1114,1123).
att(1129,1061).
att(669,546).
att(586,273).
att(183,1095).
att(869,783).
att(935,836).
att(211,1151).
att(750,57).
att(486,425).
att(1129,1077).
att(26,393).
att(655,521).
att(92,1107).
att(421,519).
att(959,513).
att(21,305).
att(922,763).
att(418,529).
att(4,475).
att(209,1136).
att(598,287).
att(749,3).
att(27,338).
att(182,1052).
att(207,1143).
att(746,4).
att(1053,355).
att(1112,1072).
att(1034,305).
att(416,505).
att(413,535).
att(899,846).
att(751,11).
att(869,725).
att(978,454).
att(408,520).
att(215,1156).
att(2,472).
att(2,470).
att(784,227).
att(911,784).
att(1118,1067).
att(732,450).
att(881,679).
att(932,770).
att(475,482).
att(477,468).
att(479,468).
att(872,765).
att(788,99).
att(730,464).
att(748,58).
att(98,1082).
att(132,559).
att(911,864).
att(1032,352).
att(1133,561).
att(132,560).
att(1053,258).
att(737,468).
att(911,860).
att(1053,265).
att(126,568).
att(5,454).
att(751,90).
att(941,458).
att(978,486).
att(925,804).
att(176,1079).
att(123,565).
att(570,344).
att(655,546).
att(421,549).
att(1059,258).
att(656,544).
att(788,45).
att(47,1151).
att(962,445).
att(910,763).
att(492,425).
att(1137,566).
att(3,429).
att(749,11).
att(753,59).
att(1078,1134).
att(1127,1058).
att(418,547).
att(475,459).
att(8,413).
att(943,477).
att(30,252).
att(935,804).
att(1032,261).
att(1068,1156).
att(941,479).
att(40,1155).
att(943,494).
att(479,434).
att(752,52).
att(180,1061).
att(969,486).
att(1120,1091).
att(901,770).
att(84,1023).
att(877,655).
att(181,1144).
att(788,172).
att(637,677).
att(732,495).
att(881,735).
att(910,929).
att(1112,1152).
att(1116,1151).
att(74,1017).
att(1012,252).
att(911,929).
att(750,67).
att(753,168).
att(76,1017).
att(1056,416).
att(30,481).
att(98,1154).
att(147,974).
att(70,1099).
att(147,968).
att(754,6).
att(1014,258).
att(86,1156).
att(881,732).
att(174,1067).
att(752,86).
att(477,491).
att(27,429).
att(877,685).
att(1053,423).
att(914,930).
att(874,678).
att(72,1048).
att(77,1029).
att(1056,426).
att(1114,1132).
att(182,1105).
att(1034,421).
att(30,408).
att(1116,1134).
att(1042,448).
att(746,92).
att(176,1126).
att(176,1124).
att(494,453).
att(788,67).
att(92,1152).
att(876,692).
att(86,1136).
att(29,426).
att(636,728).
att(492,523).
att(96,1145).
att(149,1044).
att(743,544).
att(747,101).
att(456,401).
att(922,898).
att(637,737).
att(175,1142).
att(752,134).
att(1032,448).
att(1119,1133).
att(175,1146).
att(182,1132).
att(737,532).
att(1119,1137).
att(25,432).
att(749,124).
att(92,1135).
att(21,362).
att(28,369).
att(910,949).
att(723,411).
att(22,379).
att(180,1160).
att(63,961).
att(144,1040).
att(484,539).
att(174,1150).
att(908,985).
att(26,392).
att(1053,383).
att(86,1123).
att(637,661).
att(3,511).
att(177,1142).
att(877,739).
att(909,985).
att(1056,395).
att(1056,383).
att(1053,399).
att(1119,1147).
att(96,1103).
att(99,1146).
att(1059,395).
att(989,24).
att(183,1133).
att(926,844).
att(486,527).
att(1059,383).
att(100,1141).
att(147,1055).
att(750,101).
att(1042,399).
att(1042,393).
att(876,730).
att(908,986).
att(148,1049).
att(726,502).
att(919,898).
att(771,506).
att(45,406).
att(5,995).
att(755,671).
att(8,1007).
att(975,1003).
att(752,843).
att(771,501).
att(753,836).
att(637,161).
att(204,1099).
att(1066,420).
att(9,975).
att(116,1137).
att(955,778).
att(975,998).
att(230,1048).
att(767,485).
att(1080,442).
att(769,478).
att(136,1139).
att(990,622).
att(2,912).
att(38,369).
att(767,482).
att(869,325).
att(1062,423).
att(240,1049).
att(752,864).
att(753,853).
att(874,165).
att(47,443).
att(49,442).
att(50,408).
att(141,1134).
att(775,478).
att(763,474).
att(754,685).
att(651,35).
att(651,37).
att(40,385).
att(862,401).
att(881,285).
att(959,821).
att(943,914).
att(235,974).
att(773,539).
att(2,831).
att(3,824).
att(4,844).
att(1078,385).
att(748,932).
att(860,412).
att(771,537).
att(50,448).
att(124,1147).
att(770,533).
att(49,369).
att(847,412).
att(943,896).
att(1068,379).
att(205,1058).
att(769,504).
att(20,824).
att(124,1144).
att(1080,387).
att(636,120).
att(127,1117).
att(773,528).
att(134,1107).
att(945,985).
att(51,517).
att(749,836).
att(984,678).
att(124,1106).
att(1066,393).
att(7,823).
att(133,1117).
att(134,1142).
att(36,399).
att(747,919).
att(855,436).
att(907,993).
att(6,1090).
att(86,305).
att(94,393).
att(907,992).
att(1050,841).
att(1122,387).
att(1080,516).
att(605,44).
att(240,1106).
att(767,543).
att(902,755).
att(21,844).
att(641,66).
att(30,933).
att(20,1028).
att(29,926).
att(853,425).
att(86,393).
att(235,1142).
att(757,536).
att(92,364).
att(4,1034).
att(1122,311).
att(40,467).
att(877,279).
att(88,337).
att(240,1117).
att(847,440).
att(1078,458).
att(42,460).
att(49,518).
att(8,1014).
att(641,33).
att(987,708).
att(1032,824).
att(903,988).
att(32,469).
att(100,385).
att(1129,347).
att(233,1073).
att(754,795).
att(86,248).
att(651,115).
att(993,690).
att(862,495).
att(902,777).
att(1112,352).
att(1122,337).
att(990,855).
att(952,754).
att(99,314).
att(9,1012).
att(230,1099).
att(953,754).
att(7,1042).
att(953,755).
att(88,271).
att(40,492).
att(227,1091).
att(43,518).
att(1080,481).
att(233,1097).
att(847,497).
att(1114,345).
att(6,1024).
att(257,560).
att(45,517).
att(92,314).
att(45,514).
att(907,747).
att(946,632).
att(962,1009).
att(1076,408).
att(1076,417).
att(646,158).
att(859,450).
att(2,998).
att(636,270).
att(877,360).
att(965,1003).
att(40,421).
att(949,622).
att(1078,416).
att(243,1082).
att(955,748).
att(1114,255).
att(247,568).
att(98,251).
att(38,486).
att(859,428).
att(514,497).
att(993,735).
att(1094,372).
att(136,1036).
att(514,498).
att(950,671).
att(801,473).
att(947,685).
att(127,964).
att(992,735).
att(196,564).
att(514,489).
att(605,140).
att(646,201).
att(801,474).
att(815,483).
att(603,229).
att(134,1015).
att(996,896).
att(649,192).
att(641,173).
att(192,562).
att(509,447).
att(1003,920).
att(12,524).
att(1088,371).
att(167,1150).
att(643,137).
att(60,364).
att(55,391).
att(1083,366).
att(203,562).
att(646,223).
att(987,857).
att(203,560).
att(991,846).
att(469,544).
att(1085,371).
att(51,395).
att(949,656).
att(641,232).
att(949,657).
att(987,817).
att(141,957).
att(511,428).
att(516,466).
att(517,447).
att(698,546).
att(1087,373).
att(509,510).
att(12,460).
att(15,517).
att(1030,514).
att(992,807).
att(992,775).
att(11,516).
att(603,289).
att(624,85).
att(162,1106).
att(945,708).
att(949,807).
att(57,375).
att(12,517).
att(613,37).
att(982,930).
att(1018,507).
att(1090,251).
att(643,194).
att(1090,248).
att(167,1126).
att(644,190).
att(951,728).
att(947,663).
att(18,524).
att(801,500).
att(18,513).
att(1098,342).
att(156,1073).
att(624,37).
att(649,281).
att(517,491).
att(58,524).
att(767,409).
att(767,410).
att(994,857).
att(507,536).
att(643,321).
att(608,64).
att(1076,345).
att(621,158).
att(812,542).
att(994,862).
att(605,273).
att(124,1121).
att(1069,393).
att(518,535).
att(53,507).
att(513,525).
att(116,1077).
att(815,538).
att(49,311).
att(773,412).
att(43,338).
att(55,479).
att(511,523).
att(1094,494).
att(1090,416).
att(134,1073).
att(45,337).
att(56,479).
att(52,475).
att(133,1089).
att(133,1099).
att(603,260).
att(950,748).
att(42,258).
att(1078,255).
att(1076,251).
att(1094,458).
att(36,345).
att(946,804).
att(947,777).
att(951,752).
att(53,469).
att(949,901).
att(43,258).
att(618,219).
att(993,929).
att(56,417).
att(904,685).
att(136,1097).
att(116,1013).
att(154,1152).
att(757,422).
att(784,1).
att(903,675).
att(947,817).
att(60,481).
att(49,251).
att(1087,492).
att(101,1073).
att(992,749).
att(955,675).
att(524,540).
att(1081,417).
att(950,853).
att(801,547).
att(274,559).
att(127,1048).
att(953,677).
att(1087,404).
att(138,1021).
att(608,137).
att(994,777).
att(1085,417).
att(903,614).
att(905,679).
att(1098,448).
att(134,1086).
att(162,1157).
att(773,428).
att(815,546).
att(1088,481).
att(57,488).
att(624,115).
att(903,632).
att(141,1017).
att(1090,423).
att(74,456).
att(168,296).
att(302,884).
att(336,995).
att(592,682).
att(77,517).
att(214,398).
att(180,121).
att(830,529).
att(333,1000).
att(929,410).
att(211,382).
att(13,1012).
att(170,316).
att(333,941).
att(899,403).
att(70,511).
att(299,884).
att(326,1116).
att(302,914).
att(326,1070).
att(594,686).
att(830,508).
att(830,512).
att(215,319).
att(588,684).
att(213,390).
att(10,969).
att(596,668).
att(213,382).
att(1018,969).
att(11,941).
att(932,453).
att(1020,894).
att(175,238).
att(335,1037).
att(78,490).
att(830,550).
att(178,241).
att(15,998).
att(168,265).
att(19,962).
att(570,731).
att(72,486).
att(334,1024).
att(301,1045).
att(13,972).
att(63,418).
att(1011,1007).
att(1024,886).
att(1018,912).
att(592,658).
att(929,428).
att(74,441).
att(18,1009).
att(302,1003).
att(24,1078).
att(18,1003).
att(1011,996).
att(12,923).
att(938,410).
att(830,535).
att(1014,995).
att(19,995).
att(818,543).
att(335,1100).
att(175,290).
att(182,256).
att(586,802).
att(1094,878).
att(929,500).
att(333,1066).
att(298,1018).
att(160,417).
att(175,200).
att(206,439).
att(175,202).
att(299,1037).
att(922,459).
att(13,1119).
att(156,373).
att(925,440).
att(1100,912).
att(174,189).
att(206,446).
att(598,799).
att(935,521).
att(160,391).
att(899,535).
att(67,517).
att(922,505).
att(19,1070).
att(59,933).
att(925,503).
att(1096,825).
att(932,521).
att(1081,920).
att(56,821).
att(172,373).
att(13,1062).
att(172,366).
att(1085,930).
att(298,1076).
att(1026,1024).
att(57,821).
att(17,1096).
att(162,314).
att(67,467).
att(935,505).
att(1020,1045).
att(179,262).
att(60,831).
att(19,1094).
att(164,311).
att(19,1087).
att(935,500).
att(11,1024).
att(154,318).
att(172,389).
att(166,304).
att(1114,475).
att(1127,417).
att(149,231).
att(145,114).
att(1042,998).
att(1120,463).
att(24,1009).
att(145,122).
att(27,959).
att(21,969).
att(847,525).
att(78,342).
att(77,338).
att(22,978).
att(92,470).
att(80,339).
att(1122,454).
att(24,886).
att(860,506).
att(24,890).
att(88,451).
att(182,381).
att(1119,484).
att(148,220).
att(30,972).
att(853,495).
att(25,962).
att(80,261).
att(80,258).
att(7,1116).
att(86,379).
att(145,195).
att(1112,423).
att(150,277).
att(1127,379).
att(243,1134).
att(24,915).
att(1,1112).
att(204,1153).
att(1034,982).
att(1125,423).
att(92,417).
att(1034,995).
att(235,1157).
att(1050,923).
att(142,231).
att(174,374).
att(6,1080).
att(9,1114).
att(1032,882).
att(857,523).
att(94,371).
att(24,819).
att(143,191).
att(243,1141).
att(1118,371).
att(1011,894).
att(17,896).
att(72,377).
att(840,474).
att(341,563).
att(30,1116).
att(150,356).
att(67,397).
att(830,453).
att(354,565).
att(143,359).
att(1018,936).
att(859,550).
att(1014,888).
att(184,343).
att(184,353).
att(30,1064).
att(90,509).
att(150,353).
att(76,397).
att(843,428).
att(144,259).
att(19,914).
att(836,409).
att(853,544).
att(22,1085).
att(96,507).
att(103,139).
att(142,306).
att(142,317).
att(836,487).
att(184,374).
att(1127,465).
att(1011,823).
att(28,1016).
att(72,304).
att(109,139).
att(1014,825).
att(146,396).
att(22,1016).
att(67,250).
att(1129,490).
att(27,1045).
att(98,465).
att(27,1059).
att(29,1016).
att(1127,492).
att(84,467).
att(100,511).
att(827,478).
att(1125,456).
att(846,480).
att(80,307).
att(836,462).
att(7,353).
att(601,474).
att(47,1070).
att(598,457).
att(1066,1064).
att(637,805).
att(8,322).
att(594,476).
att(90,823).
att(1120,890).
att(1,356).
att(1116,920).
att(50,1125).
att(145,1088).
att(1068,1062).
att(96,923).
att(205,441).
att(92,823).
att(3,292).
att(636,699).
att(1062,1081).
att(100,824).
att(50,1069).
att(230,312).
att(1064,1085).
att(604,578).
att(99,933).
att(604,576).
att(45,1062).
att(235,366).
att(45,1069).
att(84,825).
att(224,383).
att(143,1014).
att(204,372).
att(108,878).
att(151,996).
att(136,518).
att(1070,1030).
att(109,878).
att(4,191).
att(130,470).
att(7,292).
att(105,923).
att(1,292).
att(641,662).
att(49,1020).
att(224,318).
att(6,246).
att(243,307).
att(9,249).
att(590,497).
att(142,1100).
att(42,975).
att(144,1070).
att(149,1078).
att(237,347).
att(133,475).
att(40,978).
att(149,1062).
att(145,1066).
att(233,255).
att(600,521).
att(150,1116).
att(603,631).
att(8,191).
att(641,689).
att(136,514).
att(36,1047).
att(124,469).
att(124,460).
att(148,1129).
att(103,920).
att(570,502).
att(27,198).
att(230,477).
att(151,1047).
att(651,715).
att(92,1047).
att(8,449).
att(204,507).
att(24,222).
att(99,1016).
att(233,484).
att(594,536).
att(88,959).
att(594,539).
att(611,554).
att(1127,975).
att(590,521).
att(98,1037).
att(641,712).
att(641,722).
att(102,943).
att(588,532).
att(1120,1020).
att(627,597).
att(230,413).
att(92,967).
att(618,558).
att(594,542).
att(1127,1002).
att(152,969).
att(230,417).
att(1120,1053).
att(624,554).
att(600,550).
att(1119,1042).
att(8,370).
att(105,982).
att(1129,1009).
att(106,943).
att(235,460).
att(84,978).
att(103,1000).
att(627,552).
att(570,540).
att(237,406).
att(615,575).
att(92,1000).
att(90,890).
att(88,886).
att(99,941).
att(644,811).
att(1127,882).
att(96,982).
att(109,1087).
att(90,886).
att(9,367).
att(329,841).
att(613,572).
att(590,547).
att(1122,943).
att(2,396).
att(102,1016).
att(643,715).
att(47,1122).
att(235,442).
att(86,917).
att(644,702).
att(38,1076).
att(235,443).
att(582,554).
att(1112,888).
att(1,313).
att(5,381).
att(1,294).
att(90,917).
att(240,451).
att(1127,914).
att(88,915).
att(25,131).
att(6,382).
att(106,1011).
att(1120,998).
att(103,1074).
att(60,1085).
att(164,524).
att(1062,831).
att(55,1018).
att(164,513).
att(109,1080).
att(1062,828).
att(328,917).
att(104,1069).
att(154,517).
att(329,882).
att(166,513).
att(329,894).
att(613,610).
att(116,309).
att(935,540).
att(52,1024).
att(327,923).
att(330,894).
att(330,892).
att(54,1045).
att(615,650).
att(168,507).
att(938,531).
att(59,1018).
att(172,516).
att(332,834).
att(59,1026).
att(898,546).
att(59,1024).
att(621,626).
att(1085,1030).
att(330,926).
att(50,834).
att(1069,834).
att(54,1011).
att(1090,1037).
att(55,941).
att(207,139).
att(1090,1002).
att(166,477).
att(166,486).
att(136,339).
att(59,1034).
att(215,241).
att(1100,943).
att(212,241).
att(111,1034).
att(1090,969).
att(1100,967).
att(133,251).
att(600,551).
att(141,339).
att(162,420).
att(162,408).
att(1094,1009).
att(136,261).
att(168,490).
att(328,896).
att(326,888).
att(611,670).
att(209,139).
att(326,896).
att(40,1003).
att(330,1012).
att(136,475).
att(136,484).
att(214,286).
att(111,1020).
att(3,128).
att(7,238).
att(40,1007).
att(240,255).
att(50,1032).
att(133,408).
att(224,268).
att(624,808).
att(101,469).
att(49,967).
att(127,443).
att(215,185).
att(1064,1005).
att(1076,882).
att(45,1000).
att(56,1112).
att(328,959).
att(1078,888).
att(601,579).
att(598,602).
att(327,967).
att(592,553).
att(45,882).
att(327,1100).
att(38,917).
att(330,1069).
att(214,346).
att(327,1083).
att(303,819).
att(1078,930).
att(333,915).
att(333,920).
att(331,1081).
att(331,1069).
att(141,426).
att(332,1070).
att(1068,884).
att(116,372).
att(328,1083).
att(101,420).
att(59,1070).
att(127,385).
att(586,572).
att(613,809).
att(60,1062).
att(56,1081).
att(127,391).
att(588,571).
att(212,284).
att(608,805).
att(51,1098).
att(52,1088).
att(596,633).
att(133,399).
att(51,1085).
att(334,917).
att(111,1070).
att(111,1062).
att(209,266).
att(329,1083).
att(1070,890).
att(124,366).
att(57,218).
att(635,528).
att(906,740).
att(911,599).
att(12,315).
att(57,231).
att(634,528).
att(67,1120).
att(955,718).
att(55,114).
att(874,539).
att(594,50).
att(12,310).
att(56,117).
att(60,225).
att(13,363).
att(334,304).
att(107,909).
att(333,316).
att(13,368).
att(332,456).
att(334,311).
att(880,544).
att(170,978).
att(601,84).
att(154,1002).
att(301,355).
att(590,55).
att(601,99).
att(592,10).
att(152,953).
att(207,1002).
att(72,1127).
att(14,306).
att(11,348).
att(327,408).
att(14,317).
att(17,382).
att(586,12).
att(146,586).
att(211,1009).
att(634,540).
att(58,114).
att(211,1003).
att(646,457).
att(211,941).
att(113,465).
att(902,662).
att(60,121).
att(104,990).
att(330,492).
att(635,548).
att(905,742).
att(330,488).
att(911,554).
att(167,888).
att(641,450).
att(209,1081).
att(335,395).
att(14,356).
att(14,353).
att(102,746).
att(19,295).
att(146,627).
att(162,923).
att(605,434).
att(636,543).
att(16,343).
att(215,1064).
att(172,879).
att(176,825).
att(154,936).
att(299,309).
att(649,474).
att(166,914).
att(601,170).
att(145,584).
att(166,926).
att(299,355).
att(149,618).
att(301,296).
att(150,615).
att(873,587).
att(327,454).
att(955,805).
att(160,825).
att(906,709).
att(870,589).
att(107,753).
att(332,522).
att(300,309).
att(332,513).
att(586,99).
att(212,1011).
att(869,597).
att(598,88).
att(10,249).
att(206,1047).
att(651,497).
att(903,715).
att(209,1112).
att(104,651).
att(911,680).
att(207,1076).
att(179,912).
att(106,624).
att(106,601).
att(107,592).
att(333,418).
att(336,413).
att(113,987).
att(160,1078).
att(916,662).
att(334,417).
att(101,894).
att(53,350).
att(177,884).
att(301,445).
att(873,638).
att(52,195).
att(105,876).
att(603,487).
att(160,1018).
att(55,277).
att(603,495).
att(59,249).
att(107,618).
att(215,1122).
att(174,828).
att(176,933).
att(111,745).
att(141,831).
att(174,844).
att(869,654).
att(181,890).
att(910,633).
att(162,1056).
att(177,943).
att(178,995).
att(873,664).
att(182,972).
att(16,430).
att(870,664).
att(154,1037).
att(183,1050).
att(154,1032).
att(621,415).
att(172,1014).
att(51,187).
att(333,465).
att(51,195).
att(624,401).
att(177,967).
att(627,414).
att(15,374).
att(872,693).
att(12,398).
att(15,363).
att(106,873).
att(14,376).
att(106,871).
att(106,910).
att(16,363).
att(302,429).
att(621,436).
att(880,581).
att(60,198).
att(588,224).
att(598,233).
att(916,740).
att(643,539).
att(104,907).
att(172,1047).
att(641,546).
att(1127,1066).
att(23,353).
att(70,884).
att(65,930).
att(637,593).
att(17,119).
att(634,587).
att(621,453).
att(1116,1122).
att(142,984).
att(582,414).
att(174,598).
att(145,986).
att(13,125).
att(180,1083).
att(86,1114).
att(604,541).
att(298,469).
att(174,1053).
att(175,596).
att(603,543).
att(916,811).
att(182,596).
att(874,591).
att(605,545).
att(72,914).
att(74,930).
att(618,476).
att(336,458).
att(148,993).
att(908,816).
att(21,353).
att(25,294).
att(30,306).
att(303,458).
att(627,474).
att(67,824).
att(77,879).
att(149,990).
att(80,878).
att(333,516).
att(881,573).
att(150,987).
att(176,1056).
att(63,936).
att(149,755).
att(584,450).
att(72,844).
att(94,1100).
att(1112,1100).
att(86,1020).
att(621,487).
att(611,485).
att(180,613).
att(183,621).
att(618,491).
att(181,582).
att(181,598).
att(880,682).
att(613,471).
att(624,489).
att(176,1064).
att(881,684).
att(298,507).
att(584,478).
att(86,1047).
att(88,1037).
att(624,497).
att(877,647).
att(3,433).
att(147,783).
att(180,643).
att(582,483).
att(99,1085).
att(20,439).
att(608,500).
att(1118,1011).
att(28,282).
att(175,636).
att(90,1045).
att(183,1069).
att(148,914).
att(177,641).
att(22,290).
att(184,914).
att(584,487).
att(146,636).
att(142,884).
att(65,1056).
att(78,1096).
att(143,637).
att(151,781).
att(641,557).
att(874,742).
att(143,1009).
att(145,876).
att(77,1016).
att(12,241).
att(146,872).
att(184,1009).
att(601,403).
att(27,427).
att(13,188).
att(582,508).
att(184,982).
att(150,879).
att(874,682).
att(15,189).
att(627,531).
att(72,1047).
att(143,875).
att(874,674).
att(22,439).
att(143,881).
att(613,526).
att(615,530).
att(21,424).
att(14,286).
att(148,1002).
att(65,1034).
att(184,641).
att(29,427).
att(144,1056).
att(651,575).
att(881,805).
att(65,1007).
att(601,435).
att(636,734).
att(639,585).
att(17,185).
att(148,870).
att(592,403).
att(637,720).
att(19,200).
att(76,975).
att(875,805).
att(149,869).
att(604,595).
att(11,222).
att(592,412).
att(63,959).
att(649,575).
att(143,1037).
att(624,549).
att(570,405).
att(13,117).
att(30,365).
att(77,967).
att(603,555).
att(15,121).
att(26,367).
att(643,558).
att(592,436).
att(145,993).
att(92,276).
att(184,416).
att(990,680).
att(902,478).
att(907,489).
att(184,406).
att(149,432).
att(145,369).
att(755,674).
att(989,662).
att(1,980).
att(649,16).
att(954,501).
att(205,1098).
att(30,806).
att(985,689).
att(651,25).
att(876,164).
att(904,503).
att(754,694).
att(881,133).
att(881,124).
att(987,642).
att(208,635).
att(240,1037).
att(40,370).
att(637,78).
att(146,369).
att(147,442).
att(209,627).
att(8,889).
att(989,684).
att(146,375).
att(99,292).
att(644,20).
att(643,58).
att(990,729).
att(237,943).
att(902,508).
att(103,265).
att(45,374).
att(148,467).
att(152,347).
att(990,734).
att(108,268).
att(637,230).
att(948,553).
att(908,410).
att(955,534).
att(948,557).
att(949,591).
att(8,913).
att(603,58).
att(907,529).
att(36,368).
att(147,470).
att(233,1003).
att(88,119).
att(146,481).
att(147,460).
att(910,401).
att(146,484).
att(954,536).
att(985,727).
att(103,258).
att(905,536).
att(985,736).
att(2,848).
att(43,390).
att(152,261).
att(907,535).
att(871,415).
att(603,23).
att(637,124).
att(870,415).
att(987,693).
att(988,662).
att(1,845).
att(49,388).
att(233,894).
att(116,1120).
att(634,237).
att(2,826).
att(910,422).
att(993,553).
att(904,543).
att(993,652).
att(990,791).
att(230,1119).
att(985,776).
att(990,805).
att(104,337).
att(180,635).
att(992,650).
att(233,1114).
att(74,139).
att(104,339).
att(644,100).
att(90,295).
att(870,434).
att(28,820).
att(987,816).
att(28,845).
att(603,99).
att(175,911).
att(143,524).
att(910,461).
att(107,395).
att(143,511).
att(902,544).
att(240,1119).
att(183,871).
att(183,911).
att(109,337).
att(873,455).
att(180,916).
att(26,850).
att(184,514).
att(106,304).
att(78,131).
att(100,394).
att(78,128).
att(181,880).
att(911,483).
att(150,518).
att(984,715).
att(604,49).
att(107,318).
att(23,797).
att(151,441).
att(183,953).
att(951,610).
att(994,693).
att(951,617).
att(230,1100).
att(992,693).
att(176,993).
att(611,4).
att(105,391).
att(870,482).
att(28,768).
att(106,451).
att(96,346).
att(946,623).
att(869,471).
att(25,852).
att(909,501).
att(84,353).
att(651,156).
att(3,1010).
att(22,697).
att(908,503).
att(142,524).
att(108,393).
att(109,397).
att(5,1035).
att(621,30).
att(646,134).
att(873,499).
att(240,1100).
att(102,391).
att(946,648).
att(84,259).
att(84,253).
att(100,343).
att(916,530).
att(1,963).
att(869,496).
att(649,160).
att(59,437).
att(40,228).
att(873,506).
att(605,141).
att(101,1012).
att(992,709).
att(9,707).
att(60,433).
att(993,731).
att(871,523).
att(32,222).
att(909,531).
att(136,941).
att(871,527).
att(151,418).
att(54,398).
att(103,426).
att(582,4).
att(136,965).
att(992,662).
att(104,375).
att(108,426).
att(152,417).
att(947,620).
att(55,400).
att(104,366).
att(873,526).
att(639,243).
att(138,962).
att(141,941).
att(649,233).
att(871,534).
att(627,84).
att(909,547).
att(613,50).
att(871,539).
att(950,712).
att(130,882).
att(634,410).
att(45,131).
att(130,890).
att(332,342).
att(992,791).
att(992,802).
att(329,307).
att(948,802).
att(947,720).
att(945,712).
att(213,841).
att(621,77).
att(101,965).
att(43,238).
att(326,339).
att(50,216).
att(870,542).
att(636,411).
att(876,428).
att(101,943).
att(107,524).
att(880,462).
att(58,313).
att(994,699).
att(907,552).
att(113,347).
att(875,466).
att(60,294).
att(130,917).
att(618,36).
att(634,422).
att(582,10).
att(621,42).
att(109,492).
att(621,92).
att(105,494).
att(582,59).
att(50,119).
att(106,460).
att(156,1074).
att(954,589).
att(945,741).
att(635,450).
att(57,384).
att(154,1078).
att(613,74).
att(112,379).
att(136,1114).
att(224,912).
att(127,1068).
att(2,766).
att(213,911).
att(7,856).
att(212,824).
att(213,908).
att(104,524).
att(138,1114).
att(237,896).
att(637,453).
att(215,936).
att(240,888).
att(240,894).
att(582,78).
att(127,1112).
att(43,394).
att(207,953).
att(611,168).
att(214,908).
att(330,373).
att(600,7).
att(38,266).
att(8,772).
att(332,304).
att(7,764).
att(227,819).
att(953,640).
att(47,346).
att(237,914).
att(636,478).
att(880,503).
att(204,888).
att(326,423).
att(615,133).
att(214,1007).
att(955,668).
att(213,992).
att(7,800).
att(637,496).
att(570,21).
att(598,12).
att(584,130).
att(953,742).
att(598,13).
att(8,787).
att(212,752).
att(43,284).
att(127,1037).
att(124,1045).
att(209,747).
att(213,989).
att(206,779).
att(594,29).
att(618,130).
att(881,531).
att(601,24).
att(207,746).
att(588,26).
att(111,408).
att(903,607).
att(329,448).
att(330,448).
att(590,9).
att(58,861).
att(335,1004).
att(178,159).
att(303,883).
att(10,1057).
att(170,317).
att(301,1001).
att(53,865).
att(15,973).
att(301,867).
att(302,927).
att(162,263).
att(162,256).
att(303,937).
att(10,970).
att(55,787).
att(57,861).
att(174,69).
att(65,452).
att(335,1038).
att(65,446).
att(170,263).
att(15,1001).
att(54,696).
att(183,196).
att(182,242).
att(178,115).
att(12,913).
att(334,1060).
att(301,960).
att(177,219).
att(181,321).
att(116,220).
att(179,283).
att(146,48).
att(144,81).
att(179,244).
att(52,895).
att(101,269).
att(175,192).
att(57,887).
att(134,200).
att(156,396).
att(59,887).
att(160,449).
att(298,1054).
att(52,931).
att(181,273).
att(174,201).
att(127,139).
att(145,62).
att(156,315).
att(473,1105).
att(147,157).
att(168,376).
att(143,153).
att(160,374).
att(116,139).
att(184,132).
att(145,82).
att(156,348).
att(54,865).
att(59,829).
att(59,826).
att(179,344).
att(177,341).
att(70,253).
att(23,1001).
att(76,259).
att(147,196).
att(80,322).
att(30,1038).
att(13,768).
att(70,324).
att(80,359).
att(145,165).
att(26,1006).
att(17,796).
att(150,137).
att(74,276).
att(23,918).
att(142,203).
att(184,270).
att(26,895).
att(74,189).
att(72,195).
att(145,173).
att(106,39).
att(74,188).
att(146,287).
att(147,270).
att(22,897).
att(148,254).
att(103,46).
att(65,122).
att(22,832).
att(29,883).
att(27,921).
att(27,918).
att(27,937).
att(98,380).
att(22,928).
att(84,376).
att(151,169).
att(14,931).
att(108,69).
att(146,344).
att(80,433).
att(160,200).
att(107,159).
att(151,71).
att(12,856).
att(170,225).
att(146,244).
att(144,260).
att(15,861).
att(65,348).
att(24,1039).
att(15,850).
att(152,226).
att(12,761).
att(105,153).
att(105,123).
att(106,236).
att(11,792).
att(65,266).
att(27,1043).
att(77,317).
att(76,340).
att(19,863).
att(86,829).
att(108,839).
att(230,390).
att(1,354).
att(24,97).
att(235,424).
att(21,75).
att(205,433).
att(103,863).
att(86,854).
att(104,758).
att(227,313).
att(142,1033).
att(4,289).
att(237,396).
att(84,845).
att(5,357).
att(2,196).
att(8,289).
att(4,203).
att(240,295).
att(7,279).
att(329,697).
att(30,91).
att(27,34).
att(204,396).
att(105,868).
att(30,89).
att(84,865).
att(40,939).
att(227,246).
att(108,931).
att(152,883).
att(3,229).
att(36,1035).
att(105,931).
att(106,895).
att(26,196).
att(152,1043).
att(328,705).
att(74,768).
att(22,201).
att(25,289).
att(327,800).
att(151,963).
att(98,942).
att(108,1006).
att(329,705).
att(100,1054).
att(24,169).
att(213,89).
att(209,87).
att(98,1006).
att(24,153).
att(98,1004).
att(330,835).
att(214,82).
att(94,868).
att(332,756).
att(243,433).
att(210,41).
att(22,169).
att(6,95).
att(47,842).
att(32,861).
att(209,153).
att(206,75).
att(9,66).
att(136,313).
att(331,822).
att(5,41).
att(332,832).
att(113,937).
att(56,1031).
att(328,856).
att(40,772).
att(45,854).
att(101,384).
att(133,353).
att(206,87).
att(209,69).
att(50,832).
att(207,83).
att(134,340).
att(335,797).
att(54,973).
att(113,960).
att(331,1006).
att(300,695).
att(331,981).
att(42,792).
att(47,761).
att(209,217).
att(298,697).
att(130,259).
att(36,766).
att(326,1004).
att(207,118).
att(326,981).
att(43,796).
att(211,155).
att(211,165).
att(54,1006).
att(214,135).
att(212,158).
att(328,913).
att(45,806).
att(130,286).
att(212,155).
att(59,944).
att(127,282).
att(130,277).
att(58,1031).
att(32,710).
att(182,37).
att(45,940).
att(303,766).
att(180,39).
att(333,845).
att(99,756).
att(99,766).
att(32,983).
att(20,137).
att(334,842).
att(6,173).
att(50,1043).
att(237,286).
att(336,760).
att(40,883).
att(212,219).
att(204,256).
att(32,893).
att(50,970).
att(298,792).
att(20,171).
att(99,796).
att(243,278).
att(330,1054).
att(182,64).
att(214,344).
att(136,452).
att(233,228).
att(32,934).
att(176,61).
att(20,71).
att(176,64).
att(32,900).
att(124,433).
att(3,82).
att(211,283).
att(176,33).
att(116,386).
att(300,820).
att(237,218).
att(1,68).
att(36,927).
att(32,822).
att(9,158).
att(1,73).
att(50,885).
att(50,883).
att(134,803).
att(214,1060).
att(335,324).
att(130,707).
att(164,997).
att(162,999).
att(303,272).
att(298,246).
att(134,710).
att(167,1010).
att(335,266).
att(53,153).
att(179,705).
att(154,868).
att(180,762).
att(53,132).
att(174,707).
att(208,980).
att(164,900).
att(180,822).
att(10,360).
att(60,169).
att(335,308).
att(53,87).
att(211,1038).
att(336,297).
att(10,247).
att(57,171).
att(298,356).
att(134,927).
att(124,822).
att(50,61).
att(52,283).
att(138,931).
att(59,360).
att(58,344).
att(183,1004).
att(180,983).
att(300,430).
att(32,93).
att(130,854).
att(183,913).
att(138,837).
att(56,287).
att(47,81).
att(51,291).
att(183,893).
att(333,439).
att(174,845).
att(176,928).
att(50,69).
att(50,79).
att(174,983).
att(164,1031).
att(162,1057).
att(149,789).
att(156,963).
att(101,848).
att(124,762).
att(149,797).
att(166,1033).
att(59,287).
att(183,1038).
att(154,1039).
att(47,48).
att(54,287).
att(176,944).
att(54,217).
att(134,758).
att(168,1054).
att(56,232).
att(60,203).
att(147,803).
att(130,792).
att(166,973).
att(172,1031).
att(101,856).
att(57,291).
att(116,800).
att(50,48).
att(142,766).
att(11,71).
att(175,1038).
att(24,341).
att(175,1033).
att(146,768).
att(148,832).
att(65,868).
att(144,850).
att(148,845).
att(67,839).
att(17,171).
att(13,62).
att(12,87).
att(175,940).
att(11,82).
att(178,1031).
att(76,934).
att(144,760).
att(179,1031).
att(24,274).
att(184,891).
att(67,848).
att(76,832).
att(76,845).
att(26,351).
att(21,260).
att(29,244).
att(77,820).
att(67,768).
att(74,861).
att(67,774).
att(80,842).
att(78,835).
att(147,900).
att(25,267).
att(152,803).
att(54,31).
att(168,842).
att(13,245).
att(10,287).
att(147,976).
att(160,842).
att(154,852).
att(160,837).
att(103,716).
att(14,190).
att(166,764).
att(164,761).
att(147,1001).
att(146,893).
att(77,1038).
att(152,851).
att(65,1010).
att(10,239).
att(63,940).
att(102,768).
att(65,944).
att(143,1038).
att(63,970).
att(72,1008).
att(104,703).
att(149,944).
att(15,123).
att(80,970).
att(143,944).
att(107,774).
att(148,1060).
att(148,1054).
att(94,279).
att(29,801).
att(142,367).
att(228,1055).
att(98,293).
att(233,1060).
att(24,728).
att(74,48).
att(90,190).
att(228,1046).
att(24,739).
att(216,1046).
att(86,274).
att(102,198).
att(222,1013).
att(148,430).
att(237,1051).
att(22,659).
att(225,974).
att(20,901).
att(139,1136).
att(105,114).
att(131,1145).
att(119,1109).
att(28,728).
att(98,192).
att(24,661).
att(28,737).
att(90,229).
att(27,725).
att(150,437).
att(240,1057).
att(25,717).
att(103,228).
att(125,1135).
att(25,656).
att(3,843).
att(128,1106).
att(227,983).
att(125,1102).
att(152,346).
att(4,833).
att(233,981).
att(233,980).
att(243,973).
att(106,343).
att(20,838).
att(100,186).
att(30,732).
att(241,961).
att(107,350).
att(22,606).
att(25,678).
att(128,1113).
att(237,981).
att(151,266).
att(22,630).
att(204,940).
att(128,1130).
att(27,688).
att(227,889).
att(105,195).
att(109,292).
att(110,1077).
att(114,1113).
att(30,656).
att(114,1123).
att(113,110).
att(65,165).
att(107,386).
att(24,855).
att(228,1124).
att(221,1065).
att(228,1126).
att(238,1106).
att(216,1117).
att(222,1106).
att(106,390).
att(13,669).
att(216,1123).
att(106,384).
att(19,661).
att(102,313).
att(15,616).
att(27,857).
att(29,843).
att(65,68).
att(228,1065).
att(152,297).
att(241,1126).
att(23,812).
att(119,1154).
att(218,1027).
att(113,198).
att(72,71).
att(28,765).
att(67,89).
att(329,198).
att(221,1017).
att(25,859).
att(86,325).
att(106,427).
att(112,195).
att(25,860).
att(94,267).
att(218,1055).
att(228,1019).
att(88,285).
att(152,378).
att(27,804).
att(268,566).
att(94,260).
att(21,810).
att(98,267).
att(67,39).
att(25,769).
att(80,66).
att(106,365).
att(80,73).
att(103,388).
att(3,667).
att(38,232).
att(205,761).
att(113,249).
att(224,806).
att(125,968).
att(466,917).
att(328,188).
att(128,977).
att(138,1035).
att(2,656).
att(332,292).
att(8,728).
att(240,768).
att(47,186).
att(131,974).
att(4,671).
att(49,173).
att(117,968).
att(207,695).
att(243,756).
att(326,286).
att(36,197).
att(327,200).
att(136,944).
att(6,667).
att(214,697).
att(111,284).
att(45,232).
att(138,939).
att(108,424).
att(233,707).
att(138,960).
att(213,797).
att(330,282).
att(204,760).
att(101,1054).
att(50,190).
att(8,663).
att(330,295).
att(211,761).
att(43,115).
att(124,887).
att(38,158).
att(331,322).
att(45,129).
att(127,887).
att(204,800).
att(9,667).
att(332,315).
att(7,677).
att(326,348).
att(101,963).
att(43,236).
att(243,707).
att(4,614).
att(32,159).
att(134,887).
att(112,359).
att(130,937).
att(332,262).
att(7,609).
att(138,885).
att(116,927).
att(207,787).
att(327,253).
att(92,163).
att(128,1071).
att(7,859).
att(121,1093).
att(215,927).
att(119,1091).
att(128,1067).
att(32,357).
att(208,822).
att(29,685).
att(301,216).
att(205,1010).
att(327,317).
att(92,69).
att(113,390).
att(336,125).
att(334,228).
att(9,862).
att(32,245).
att(29,630).
att(1,759).
att(327,308).
att(206,868).
att(40,275).
att(335,290).
att(5,793).
att(38,291).
att(224,852).
att(183,700).
att(214,1004).
att(230,863).
att(139,1086).
att(139,1084).
att(8,798).
att(176,710).
att(301,276).
att(5,769).
att(328,424).
att(209,997).
att(181,814).
att(36,267).
att(131,1022).
att(90,41).
att(117,956).
att(92,37).
att(330,427).
att(45,275).
att(302,241).
att(2,735).
att(327,363).
att(336,200).
att(237,854).
att(303,225).
att(6,701).
att(333,193).
att(333,292).
att(110,977).
att(213,999).
att(298,218).
att(42,196).
att(121,956).
att(240,852).
att(206,921).
att(326,376).
