arg(1..1590).
att(235,294).
att(1350,1492).
att(236,288).
att(261,1422).
att(190,740).
att(237,286).
att(261,1446).
att(253,1256).
att(191,764).
att(378,159).
att(120,1069).
att(192,740).
att(134,826).
att(1347,1433).
att(373,159).
att(41,1306).
att(380,227).
att(1398,279).
att(1350,1520).
att(188,711).
att(1316,1329).
att(374,183).
att(1414,290).
att(1402,283).
att(262,1284).
att(47,1241).
att(192,708).
att(1327,389).
att(1327,386).
att(1347,1493).
att(381,226).
att(50,1243).
att(71,874).
att(371,195).
att(417,720).
att(175,713).
att(194,791).
att(1399,305).
att(193,783).
att(381,268).
att(1320,1384).
att(1320,1454).
att(1352,1429).
att(38,1234).
att(188,783).
att(432,662).
att(413,718).
att(174,854).
att(101,1011).
att(412,709).
att(98,930).
att(38,1249).
att(1327,407).
att(381,204).
att(94,964).
att(256,1366).
att(1320,1381).
att(184,663).
att(39,1253).
att(1402,303).
att(1414,309).
att(261,1375).
att(1406,295).
att(1414,303).
att(1318,1481).
att(186,727).
att(373,230).
att(41,1338).
att(1402,364).
att(1314,1436).
att(41,1336).
att(377,248).
att(1315,1456).
att(32,1195).
att(185,723).
att(1316,1437).
att(1398,323).
att(376,233).
att(17,1271).
att(1321,1414).
att(354,186).
att(116,867).
att(1318,1460).
att(138,718).
att(171,826).
att(142,692).
att(361,190).
att(357,141).
att(134,712).
att(10,1238).
att(52,958).
att(159,743).
att(56,931).
att(1353,1549).
att(270,183).
att(1329,272).
att(1320,1550).
att(359,255).
att(358,195).
att(356,203).
att(1318,1508).
att(24,1332).
att(141,662).
att(19,1249).
att(60,935).
att(354,178).
att(53,889).
att(1352,1553).
att(143,661).
att(1068,1166).
att(42,1229).
att(331,89).
att(136,769).
att(361,248).
att(359,288).
att(1335,280).
att(42,1197).
att(12,1362).
att(1339,300).
att(142,745).
att(16,1334).
att(351,203).
att(1291,1458).
att(17,1338).
att(12,1276).
att(120,890).
att(1333,342).
att(139,724).
att(10,1362).
att(1329,345).
att(1329,343).
att(50,1229).
att(115,864).
att(335,157).
att(142,729).
att(1295,1432).
att(1326,302).
att(53,986).
att(1326,310).
att(1295,1436).
att(1331,324).
att(336,137).
att(357,286).
att(140,735).
att(1341,325).
att(1071,1169).
att(82,469).
att(225,764).
att(262,93).
att(1449,279).
att(353,1556).
att(1324,1097).
att(228,748).
att(433,761).
att(1070,1161).
att(80,502).
att(1296,993).
att(337,1429).
att(64,1330).
att(1321,1130).
att(60,1245).
att(61,1405).
att(437,822).
att(1304,983).
att(1383,405).
att(66,1312).
att(339,1377).
att(356,1556).
att(1293,1078).
att(66,1334).
att(158,1055).
att(360,1549).
att(437,745).
att(160,1054).
att(167,1038).
att(337,1456).
att(358,1549).
att(334,1373).
att(338,1450).
att(1377,394).
att(1265,989).
att(1300,1060).
att(224,741).
att(215,505).
att(1323,1117).
att(215,510).
att(260,190).
att(336,1495).
att(69,1342).
att(1449,307).
att(251,167).
att(1074,1164).
att(257,135).
att(1283,1090).
att(1451,306).
att(179,827).
att(215,465).
att(1300,995).
att(70,1361).
att(209,726).
att(64,1307).
att(435,732).
att(81,503).
att(218,418).
att(251,187).
att(159,1092).
att(257,178).
att(1452,369).
att(59,1343).
att(206,735).
att(58,1362).
att(199,454).
att(1454,382).
att(1449,347).
att(197,730).
att(51,1278).
att(1283,1158).
att(205,697).
att(1285,1129).
att(1257,1062).
att(51,1237).
att(219,429).
att(262,185).
att(1299,1035).
att(56,1310).
att(12,26).
att(259,136).
att(1451,349).
att(199,421).
att(199,422).
att(434,828).
att(1296,1088).
att(143,979).
att(161,1133).
att(200,434).
att(1263,1037).
att(157,1096).
att(422,662).
att(1299,1108).
att(1265,1079).
att(15,26).
att(430,692).
att(14,24).
att(228,786).
att(253,227).
att(12,5).
att(253,210).
att(60,1309).
att(57,1238).
att(424,653).
att(1436,276).
att(223,791).
att(220,466).
att(427,665).
att(1257,1089).
att(334,1514).
att(1299,1077).
att(51,1218).
att(62,1415).
att(1453,385).
att(171,1107).
att(1299,1070).
att(1456,392).
att(335,1536).
att(1452,385).
att(63,1415).
att(222,813).
att(311,1399).
att(340,1555).
att(1450,389).
att(60,1235).
att(60,1234).
att(337,1550).
att(336,1508).
att(9,271).
att(208,659).
att(415,723).
att(61,1199).
att(162,914).
att(37,1312).
att(201,468).
att(243,159).
att(164,909).
att(318,1432).
att(62,1199).
att(179,728).
att(168,912).
att(311,1429).
att(32,1342).
att(37,1356).
att(179,732).
att(221,502).
att(244,159).
att(145,908).
att(65,1191).
att(198,476).
att(88,980).
att(314,1451).
att(432,733).
att(199,464).
att(66,1189).
att(412,723).
att(217,506).
att(84,1065).
att(218,469).
att(98,1063).
att(33,1310).
att(174,866).
att(1377,309).
att(242,194).
att(242,192).
att(418,736).
att(180,701).
att(239,188).
att(319,1326).
att(31,1306).
att(256,296).
att(90,1011).
att(162,846).
att(258,297).
att(39,1305).
att(34,1236).
att(144,860).
att(218,487).
att(1297,1152).
att(101,996).
att(256,299).
att(312,1498).
att(224,711).
att(23,28).
att(180,783).
att(242,222).
att(1382,366).
att(242,195).
att(172,988).
att(64,1238).
att(169,1042).
att(1349,1379).
att(1380,330).
att(169,1011).
att(178,822).
att(435,667).
att(415,821).
att(28,26).
att(78,1078).
att(88,1074).
att(416,828).
att(1454,278).
att(373,91).
att(85,1089).
att(162,958).
att(439,654).
att(31,1411).
att(1377,390).
att(434,657).
att(418,787).
att(70,1240).
att(181,791).
att(235,197).
att(241,269).
att(1379,368).
att(1382,391).
att(169,964).
att(37,1386).
att(320,1452).
att(183,760).
att(412,748).
att(236,195).
att(313,1516).
att(83,1080).
att(180,781).
att(166,892).
att(184,749).
att(1348,1456).
att(83,1083).
att(31,1336).
att(33,25).
att(339,1213).
att(97,1307).
att(336,1206).
att(1345,1081).
att(101,1237).
att(211,295).
att(378,1325).
att(450,695).
att(461,825).
att(23,330).
att(24,321).
att(236,1520).
att(452,787).
att(458,786).
att(33,28).
att(104,429).
att(1495,342).
att(261,1052).
att(1351,1070).
att(98,1303).
att(106,444).
att(452,784).
att(257,1047).
att(455,827).
att(317,1294).
att(456,825).
att(331,1370).
att(1480,350).
att(377,1339).
att(340,1204).
att(457,806).
att(340,1370).
att(241,1518).
att(337,1206).
att(212,321).
att(267,809).
att(268,821).
att(333,1367).
att(447,665).
att(130,556).
att(458,820).
att(125,499).
att(1347,1055).
att(242,1461).
att(185,1070).
att(242,1528).
att(214,327).
att(309,299).
att(1348,1082).
att(314,1152).
att(101,1240).
att(442,662).
att(1096,1167).
att(457,760).
att(335,1425).
att(21,382).
att(250,803).
att(36,20).
att(104,445).
att(333,1427).
att(215,345).
att(320,1130).
att(1347,1104).
att(374,1381).
att(452,759).
att(98,1244).
att(1492,362).
att(452,742).
att(114,1409).
att(459,783).
att(101,1246).
att(459,793).
att(84,1221).
att(459,791).
att(114,1385).
att(87,389).
att(185,1087).
att(233,661).
att(80,387).
att(240,1553).
att(97,1220).
att(90,1233).
att(459,759).
att(454,724).
att(1480,383).
att(319,1101).
att(380,1382).
att(232,1523).
att(1492,346).
att(261,929).
att(25,370).
att(82,391).
att(454,769).
att(187,1081).
att(266,749).
att(113,1340).
att(1349,1109).
att(21,345).
att(221,277).
att(237,949).
att(418,1086).
att(188,1159).
att(97,1415).
att(28,407).
att(380,1493).
att(311,1420).
att(240,922).
att(1474,285).
att(215,385).
att(133,500).
att(1320,987).
att(17,307).
att(260,835).
att(1350,1146).
att(1493,396).
att(235,949).
att(23,394).
att(72,412).
att(95,1331).
att(102,503).
att(381,1458).
att(102,502).
att(1492,392).
att(16,276).
att(1314,995).
att(219,279).
att(174,1222).
att(184,1084).
att(211,390).
att(87,411).
att(106,498).
att(253,1004).
att(15,276).
att(247,725).
att(377,1433).
att(1458,290).
att(29,409).
att(162,1201).
att(192,1157).
att(176,979).
att(181,1036).
att(133,508).
att(1492,386).
att(79,409).
att(170,1231).
att(168,1201).
att(374,1455).
att(442,731).
att(1347,1095).
att(26,394).
att(94,1355).
att(170,1228).
att(200,275).
att(244,926).
att(218,293).
att(1497,391).
att(187,1152).
att(317,1446).
att(415,987).
att(1458,345).
att(33,42).
att(107,559).
att(1458,349).
att(256,1024).
att(341,1440).
att(341,1419).
att(72,427).
att(74,460).
att(359,1414).
att(345,181).
att(170,1197).
att(371,1473).
att(221,327).
att(144,1228).
att(238,765).
att(258,1023).
att(267,823).
att(319,1159).
att(445,701).
att(1245,1166).
att(216,325).
att(1252,1162).
att(378,1497).
att(110,423).
att(333,1183).
att(72,413).
att(329,1203).
att(194,1148).
att(248,697).
att(329,1213).
att(75,426).
att(251,884).
att(417,1062).
att(73,440).
att(1344,1128).
att(412,989).
att(1491,403).
att(139,1070).
att(358,1368).
att(354,1390).
att(460,711).
att(216,348).
att(269,663).
att(452,665).
att(421,806).
att(252,712).
att(9,328).
att(353,1394).
att(118,1248).
att(195,803).
att(206,759).
att(135,1033).
att(206,744).
att(137,1085).
att(205,762).
att(1106,1160).
att(1433,304).
att(1452,403).
att(358,1325).
att(1233,1165).
att(51,1387).
att(359,1380).
att(110,474).
att(142,1074).
att(1416,303).
att(202,744).
att(422,745).
att(203,726).
att(160,1129).
att(1324,985).
att(351,1438).
att(360,1433).
att(355,1426).
att(81,415).
att(157,1154).
att(358,1417).
att(134,1034).
att(81,419).
att(113,1231).
att(1352,1117).
att(54,1387).
att(121,1219).
att(205,726).
att(3,332).
att(359,1419).
att(112,468).
att(375,1171).
att(4,321).
att(2,332).
att(358,1456).
att(87,431).
att(157,1110).
att(134,1061).
att(373,1175).
att(9,352).
att(1225,1169).
att(51,1357).
att(1,326).
att(357,1268).
att(198,393).
att(139,1118).
att(1416,407).
att(98,1227).
att(117,1357).
att(254,763).
att(261,944).
att(331,1440).
att(219,411).
att(211,436).
att(87,458).
att(456,779).
att(331,1269).
att(354,1495).
att(263,939).
att(335,1445).
att(9,401).
att(9,395).
att(187,979).
att(1293,985).
att(461,722).
att(354,1210).
att(136,1099).
att(204,825).
att(359,1177).
att(1320,1127).
att(361,1460).
att(455,723).
att(142,1129).
att(458,741).
att(1322,1032).
att(72,509).
att(1436,362).
att(5,383).
att(357,1172).
att(1291,1072).
att(44,18).
att(353,1537).
att(115,1306).
att(45,13).
att(460,735).
att(26,302).
att(1090,1167).
att(22,287).
att(1091,1161).
att(351,1210).
att(21,289).
att(452,692).
att(1481,306).
att(335,1282).
att(338,1380).
att(356,1194).
att(1090,1161).
att(29,304).
att(339,1327).
att(119,1311).
att(268,705).
att(79,457).
att(354,1395).
att(3,399).
att(455,693).
att(339,1282).
att(213,460).
att(339,1294).
att(1291,1082).
att(1,396).
att(228,1115).
att(1520,397).
att(439,1112).
att(435,1133).
att(1293,739).
att(147,440).
att(358,1127).
att(1508,271).
att(208,1054).
att(1283,732).
att(1520,389).
att(52,18).
att(426,983).
att(226,1147).
att(1315,824).
att(1315,829).
att(45,365).
att(77,162).
att(77,164).
att(205,977).
att(167,1430).
att(104,277).
att(59,40).
att(463,732).
att(197,1066).
att(380,1428).
att(57,44).
att(237,1171).
att(38,307).
att(1498,307).
att(82,51).
att(161,1451).
att(752,554).
att(1155,1164).
att(195,993).
att(37,300).
att(243,1178).
att(340,1083).
att(78,1569).
att(259,1339).
att(288,827).
att(44,407).
att(35,276).
att(434,1099).
att(226,1131).
att(42,396).
att(256,1333).
att(210,1147).
att(351,1159).
att(747,547).
att(299,809).
att(463,661).
att(438,1105).
att(82,65).
att(1518,406).
att(104,300).
att(224,1072).
att(263,1339).
att(209,1098).
att(373,1256).
att(297,787).
att(43,398).
att(282,827).
att(477,826).
att(1523,398).
att(229,1109).
att(506,709).
att(219,27).
att(331,1077).
att(216,21).
att(215,117).
att(429,1099).
att(141,1456).
att(154,481).
att(335,1101).
att(1303,1169).
att(148,472).
att(87,168).
att(260,1455).
att(380,1175).
att(137,1437).
att(290,643).
att(148,480).
att(1304,716).
att(329,1086).
att(39,321).
att(505,657).
att(171,1551).
att(108,367).
att(136,1331).
att(376,1200).
att(471,793).
att(361,1266).
att(425,1106).
att(38,391).
att(312,991).
att(110,272).
att(51,63).
att(110,270).
att(257,1433).
att(38,388).
att(221,40).
att(119,4).
att(510,665).
att(219,48).
att(317,993).
att(214,145).
att(138,1325).
att(198,16).
att(318,983).
att(161,1506).
att(356,1294).
att(462,743).
att(132,395).
att(142,1414).
att(1506,383).
att(380,1210).
att(102,382).
att(422,1081).
att(462,761).
att(1516,342).
att(146,477).
att(1283,789).
att(158,1497).
att(1299,700).
att(471,748).
att(1300,695).
att(1508,372).
att(1267,718).
att(1293,793).
att(77,274).
att(215,170).
att(462,764).
att(111,283).
att(213,162).
att(57,62).
att(173,1533).
att(218,19).
att(374,1389).
att(421,1032).
att(19,384).
att(73,274).
att(156,457).
att(179,1094).
att(226,985).
att(1299,779).
att(313,1068).
att(318,1033).
att(170,1273).
att(259,1174).
att(318,1037).
att(419,1130).
att(17,389).
att(245,830).
att(172,1270).
att(235,1448).
att(432,1090).
att(335,1154).
att(479,737).
att(145,1363).
att(253,1170).
att(199,70).
att(331,1148).
att(652,1164).
att(221,66).
att(314,980).
att(263,1180).
att(447,784).
att(651,1167).
att(443,789).
att(123,437).
att(76,303).
att(234,827).
att(67,18).
att(124,439).
att(1476,328).
att(477,740).
att(1460,345).
att(437,995).
att(257,1180).
att(10,322).
att(144,1274).
att(445,828).
att(221,96).
att(312,1077).
att(1518,290).
att(294,712).
att(72,304).
att(263,1172).
att(230,784).
att(201,57).
att(478,708).
att(183,1100).
att(242,1412).
att(17,411).
att(127,446).
att(1534,275).
att(111,345).
att(318,1101).
att(76,322).
att(230,830).
att(162,1242).
att(111,344).
att(238,823).
att(263,1184).
att(242,1325).
att(446,748).
att(66,5).
att(183,1070).
att(241,1286).
att(282,662).
att(201,69).
att(93,1400).
att(480,667).
att(1296,804).
att(11,362).
att(145,1238).
att(286,662).
att(1460,390).
att(199,144).
att(1520,325).
att(379,1288).
att(297,748).
att(320,987).
att(1263,827).
att(72,346).
att(232,1382).
att(219,170).
att(1535,298).
att(42,283).
att(240,1434).
att(210,1109).
att(222,1076).
att(235,1457).
att(437,1108).
att(129,465).
att(1536,291).
att(56,3).
att(155,502).
att(155,468).
att(1476,405).
att(222,1034).
att(257,1567).
att(89,1533).
att(210,1085).
att(93,1536).
att(63,66).
att(88,1460).
att(240,1372).
att(284,743).
att(77,391).
att(73,383).
att(314,1103).
att(50,285).
att(294,821).
att(46,274).
att(381,1292).
att(226,1031).
att(396,231).
att(63,33).
att(227,1031).
att(313,1117).
att(1523,350).
att(437,1084).
att(50,350).
att(178,1156).
att(1522,345).
att(477,742).
att(211,277).
att(434,980).
att(74,402).
att(48,350).
att(237,1446).
att(108,417).
att(88,1433).
att(212,281).
att(66,32).
att(630,1165).
att(76,406).
att(286,726).
att(1348,1058).
att(176,1136).
att(100,1458).
att(106,437).
att(431,1147).
att(1113,1168).
att(311,1131).
att(92,54).
att(1315,531).
att(64,411).
att(230,1078).
att(64,410).
att(245,1034).
att(443,1034).
att(59,321).
att(94,54).
att(179,1329).
att(190,1520).
att(211,770).
att(560,662).
att(179,1341).
att(248,1080).
att(211,773).
att(560,657).
att(379,933).
att(381,1017).
att(1362,1168).
att(180,1331).
att(1360,1169).
att(81,152).
att(51,285).
att(194,1508).
att(1315,523).
att(373,961).
att(1349,707).
att(1354,529).
att(175,1335).
att(211,797).
att(418,1329).
att(1351,706).
att(62,396).
att(1556,408).
att(215,773).
att(498,804).
att(234,1086).
att(92,36).
att(458,1115).
att(247,1056).
att(98,69).
att(449,1033).
att(54,342).
att(1314,575).
att(448,1089).
att(71,55).
att(445,1018).
att(84,37).
att(265,1095).
att(1359,1167).
att(98,31).
att(254,1128).
att(459,1156).
att(455,1129).
att(442,985).
att(120,274).
att(198,810).
att(59,396).
att(1320,614).
att(119,270).
att(297,995).
att(60,384).
att(473,1062).
att(294,980).
att(145,42).
att(217,814).
att(186,1568).
att(282,989).
att(178,1452).
att(416,1478).
att(480,983).
att(359,895).
att(1318,613).
att(288,983).
att(60,366).
att(120,306).
att(1318,706).
att(121,303).
att(145,14).
att(164,28).
att(119,300).
att(166,28).
att(54,402).
att(177,1454).
att(215,151).
att(495,813).
att(192,1550).
att(212,147).
att(117,271).
att(418,1373).
att(56,395).
att(213,152).
att(1289,488).
att(501,802).
att(122,272).
att(1291,549).
att(214,154).
att(552,718).
att(175,1450).
att(187,1568).
att(234,1104).
att(206,1153).
att(72,795).
att(1295,601).
att(110,755).
att(66,283).
att(255,1083).
att(329,853).
att(113,69).
att(355,990).
att(67,278).
att(118,68).
att(427,1128).
att(72,810).
att(1502,393).
att(425,1151).
att(1289,600).
att(1556,271).
att(70,270).
att(255,1036).
att(266,989).
att(504,692).
att(339,917).
att(464,830).
att(139,1430).
att(460,1056).
att(142,1480).
att(336,860).
att(424,1097).
att(1549,325).
att(260,1228).
att(1551,309).
att(1567,298).
att(76,815).
att(423,1131).
att(255,1064).
att(1569,293).
att(427,1096).
att(104,128).
att(63,290).
att(158,1569).
att(1324,632).
att(103,126).
att(204,1103).
att(1552,281).
att(140,1457).
att(1277,1167).
att(70,305).
att(1517,401).
att(197,1146).
att(487,708).
att(457,1092).
att(80,815).
att(135,1569).
att(231,983).
att(340,957).
att(1267,496).
att(92,13).
att(267,1097).
att(194,1417).
att(1288,663).
att(187,1434).
att(1285,687).
att(114,116).
att(139,1555).
att(1300,489).
att(458,1107).
att(139,1567).
att(75,131).
att(111,103).
att(1299,482).
att(101,18).
att(68,324).
att(1292,711).
att(318,855).
att(340,1013).
att(507,822).
att(1556,396).
att(1294,693).
att(268,1074).
att(312,846).
att(266,1103).
att(1555,395).
att(1263,600).
att(135,1498).
att(338,994).
att(455,1108).
att(261,1305).
att(141,1514).
att(64,368).
att(141,1502).
att(456,1084).
att(250,1072).
att(116,51).
att(510,804).
att(336,957).
att(457,1089).
att(269,1088).
att(455,1072).
att(143,1515).
att(194,1410).
att(1290,709).
att(1291,710).
att(99,2).
att(331,956).
att(1299,530).
att(435,1569).
att(340,642).
att(333,689).
att(312,496).
att(427,1381).
att(99,346).
att(439,1550).
att(132,805).
att(468,1107).
att(141,100).
att(1293,230).
att(259,913).
att(141,86).
att(207,1384).
att(429,1453).
att(435,1555).
att(219,631).
att(1265,178).
att(253,961).
att(427,1398).
att(433,1506).
att(262,938).
att(224,1523).
att(421,1412).
att(263,997).
att(311,528).
att(204,1333).
att(425,1380).
att(218,625).
att(208,1408).
att(244,848).
att(421,1406).
att(329,666).
att(251,890).
att(341,529).
att(223,1461).
att(216,655).
att(437,1502).
att(429,1406).
att(422,1341).
att(251,893).
att(253,1013).
att(507,1083).
att(243,867).
att(92,406).
att(1265,195).
att(318,584).
att(168,279).
att(267,1328).
att(510,1073).
att(259,968).
att(260,1042).
att(461,1399).
att(241,861).
att(242,847).
att(1304,267).
att(170,295).
att(467,1159).
att(1265,229).
att(162,274).
att(132,128).
att(203,1458).
att(311,605).
att(461,1325).
att(243,910).
att(237,865).
att(471,1159).
att(197,1477).
att(137,159).
att(134,78).
att(1257,267).
att(134,86).
att(166,303).
att(137,161).
att(1304,292).
att(399,492).
att(428,1429).
att(144,327).
att(425,1492).
att(316,616).
att(282,1109).
att(128,819).
att(475,1078).
att(440,1373).
att(172,94).
att(211,609).
att(239,961).
att(172,90).
att(235,961).
att(216,568).
att(552,784).
att(1350,542).
att(120,328).
att(244,957).
att(198,1125).
att(116,304).
att(1348,482).
att(1351,492).
att(431,1535).
att(477,1109).
att(1337,1163).
att(241,956).
att(1313,1169).
att(552,803).
att(296,1034).
att(415,1458).
att(320,578).
att(442,1155).
att(313,717).
att(242,998).
att(243,986).
att(299,1033).
att(558,782).
att(376,875).
att(417,1502).
att(437,1404).
att(288,1087).
att(432,1477).
att(547,779).
att(1346,542).
att(242,934).
att(1351,532).
att(1344,526).
att(480,1032).
att(180,1497).
att(148,758).
att(211,522).
att(172,70).
att(122,346).
att(214,522).
att(441,1335).
att(128,149).
att(242,1063).
att(209,1537).
att(473,1155).
att(218,683).
att(125,756).
att(229,1473).
att(288,1158).
att(229,1477).
att(236,988).
att(463,987).
att(467,1066).
att(296,1148).
att(217,674).
att(224,1430).
att(1351,576).
att(379,871).
att(159,161).
att(299,1138).
att(470,1034).
att(470,1031).
att(480,1127).
att(477,1153).
att(126,768).
att(219,522).
att(1345,578).
att(164,174).
att(226,1436).
att(98,330).
att(420,1437).
att(1320,484).
att(123,799).
att(480,1131).
att(1352,548).
att(284,1146).
att(297,1095).
att(155,768).
att(470,1068).
att(1348,643).
att(222,1433).
att(373,889).
att(160,78).
att(118,406).
att(556,793).
att(1387,1166).
att(284,1099).
att(284,1096).
att(379,909).
att(1351,617).
att(114,397).
att(299,1105).
att(122,410).
att(219,538).
att(554,827).
att(1344,615).
att(1353,173).
att(230,1459).
att(451,1476).
att(558,1066).
att(416,180).
att(432,139).
att(444,1477).
att(547,1066).
att(416,182).
att(413,157).
att(319,268).
att(448,1493).
att(1346,223).
att(442,1436).
att(431,161).
att(233,1480).
att(487,1146).
att(416,189).
att(247,1437).
att(371,615).
att(559,987).
att(445,1450).
att(238,1430).
att(231,1436).
att(1320,135).
att(446,1456).
att(497,1099).
att(1314,140).
att(175,137).
att(249,1453).
att(444,1435).
att(442,1450).
att(247,1379).
att(1348,284).
att(438,95).
att(431,195).
att(479,1457).
att(1354,228).
att(475,1377).
att(481,1416).
att(356,524).
att(408,666).
att(228,86).
att(371,668).
att(358,482).
att(447,1516).
att(361,548).
att(1316,134).
att(1316,140).
att(1320,182).
att(249,1500).
att(444,1555).
att(1323,89).
att(358,597).
att(286,1414).
att(359,632).
att(294,1382).
att(413,229).
att(1353,208).
att(246,1472).
att(283,1371).
att(1322,86).
att(558,1032).
att(479,1333).
att(230,1506).
att(416,223).
att(473,1331).
att(177,181).
att(371,719).
att(431,185).
att(1318,206).
att(511,1128).
att(508,1148).
att(1289,141).
att(1316,234).
att(354,636).
att(264,1435).
att(498,987).
att(1314,250).
att(504,1104).
att(505,1138).
att(162,346).
att(1322,137).
att(190,86).
att(192,93).
att(338,523).
att(421,1549).
att(358,640).
att(455,1453).
att(145,407).
att(356,660).
att(504,1086).
att(1285,143).
att(250,1382).
att(454,1341).
att(503,1083).
att(503,1082).
att(360,673).
att(457,1408).
att(357,607).
att(338,549).
att(205,1552).
att(351,614).
att(269,1399).
att(1316,294).
att(238,1378).
att(265,1522).
att(254,1568).
att(456,1567).
att(491,1109).
att(338,577).
att(1291,202).
att(445,1325).
att(491,1082).
att(166,407).
att(1321,223).
att(446,1339).
att(338,597).
att(452,1518).
att(456,1503).
att(1285,179).
att(1293,269).
att(263,912).
att(259,862).
att(329,580).
att(285,1273).
att(498,1033).
att(485,980).
att(501,1018).
att(260,863).
att(458,1497).
att(331,598).
att(329,603).
att(502,1127).
att(1299,83).
att(467,1503).
att(1324,1517).
att(424,182).
att(465,1520).
att(502,1412).
att(262,542).
att(207,175).
att(340,178).
att(471,1502).
att(1263,1329).
att(421,179).
att(511,1404).
att(329,192).
att(1285,1552).
att(263,579).
att(311,86).
att(467,1518).
att(1304,1432).
att(261,584).
att(341,100).
att(422,157).
att(463,1436).
att(471,1461).
att(428,138).
att(425,188).
att(466,1458).
att(329,233).
att(508,1494).
att(241,483).
att(453,137).
att(312,171).
att(1299,1429).
att(457,167).
att(1296,1497).
att(268,173).
att(308,190).
att(312,181).
att(253,687).
att(423,206).
att(504,1374).
att(507,1450).
att(1265,1461).
att(318,177).
att(239,483).
att(1300,1535).
att(430,245).
att(510,1435).
att(422,264).
att(468,1550).
att(242,489).
att(505,1377).
att(465,1516).
att(510,1455).
att(460,100).
att(331,294).
att(235,484).
att(244,550).
att(244,576).
att(251,706).
att(237,526).
att(239,605).
att(229,176).
att(236,528).
att(312,209).
att(437,186).
att(547,1113).
att(229,192).
att(563,1158).
att(200,751).
att(433,186).
att(259,703).
att(472,1493).
att(216,756).
att(474,1431).
att(198,771).
att(182,282).
att(1350,163).
att(200,792).
att(318,249).
att(480,1497).
att(315,288).
att(554,1118).
att(209,186).
att(241,612).
att(474,1452).
att(320,160).
att(474,1456).
att(299,1437).
att(317,252).
att(1348,88).
att(211,73).
att(481,1494).
att(221,753).
att(240,634).
att(413,249).
att(288,1435).
att(203,93).
att(205,158).
att(430,139).
att(199,216).
att(205,100).
att(297,1555).
att(434,252).
att(320,205).
att(463,1399).
att(470,1449).
att(220,213).
att(376,598).
att(464,1400).
att(425,93).
att(475,1523).
att(1350,179).
att(379,528).
att(469,1402).
att(371,550).
att(375,551).
att(240,704).
att(1462,734).
att(356,40).
att(417,634).
att(258,383).
att(259,388).
att(1324,1195).
att(1209,738).
att(247,269).
att(1269,1128).
att(1464,701).
att(359,61).
att(284,159).
att(1421,1060).
att(1441,1147).
att(1469,724).
att(416,614).
att(563,1430).
att(1208,722).
att(480,167).
att(239,235).
att(240,283).
att(1315,1311).
att(552,1380).
att(1467,733).
att(547,1400).
att(263,405).
att(559,1454).
att(1320,1307).
att(1316,1237).
att(248,195).
att(1210,698).
att(1440,1107).
att(1205,793).
att(1444,1090).
att(1469,736).
att(316,131).
att(354,18).
att(1317,1274).
att(485,1553).
att(1465,698).
att(481,158).
att(1442,1130).
att(256,406).
att(247,210).
att(234,225).
att(1463,780).
att(230,204).
att(1297,655).
att(491,1555).
att(485,1500).
att(1283,1233).
att(419,599).
att(443,227).
att(236,309).
att(353,63).
att(412,602).
att(444,208).
att(416,583).
att(485,1516).
att(1208,745).
att(1443,1156).
att(556,1329).
att(329,211).
att(247,184).
att(1268,1156).
att(243,327).
att(355,66).
att(1465,730).
att(243,253).
att(412,523).
att(1314,1362).
att(417,710).
att(1419,1072).
att(340,27).
att(1586,659).
att(1295,1251).
att(297,184).
att(418,710).
att(1289,1241).
att(1464,807).
att(232,327).
att(381,232).
att(294,206).
att(296,209).
att(414,702).
att(301,178).
att(308,221).
att(563,1517).
att(438,553).
att(315,200).
att(240,367).
att(354,63).
att(1588,713).
att(338,27).
att(359,101).
att(1283,1222).
att(338,30).
att(420,483).
att(437,528).
att(1351,771).
att(1422,1078).
att(1183,759).
att(418,689).
att(1183,824).
att(237,370).
att(556,1495).
att(1322,1358).
att(333,43).
att(1390,991).
att(1421,1148).
att(1304,1197).
att(1525,985).
att(334,49).
att(1172,701).
att(1198,737).
att(1304,1201).
att(235,384).
att(1462,801).
att(288,158).
att(240,399).
att(311,106).
att(315,110).
att(282,138).
att(1257,609).
att(431,639).
att(1289,1310).
att(380,293).
att(437,494).
att(472,159).
att(559,1460).
att(417,671).
att(472,157).
att(1296,1125).
att(1427,1033).
att(1581,728).
att(377,295).
att(1428,1032).
att(230,83).
att(334,146).
att(1297,1218).
att(338,131).
att(381,304).
att(1196,762).
att(1263,1230).
att(1265,1140).
att(1530,1089).
att(1257,1193).
att(1257,1202).
att(334,66).
att(1422,1113).
att(1521,979).
att(339,37).
att(263,435).
att(456,228).
att(458,228).
att(252,208).
att(376,309).
att(334,753).
att(504,1533).
att(756,1168).
att(267,228).
att(260,435).
att(1263,1185).
att(1291,1358).
att(261,428).
att(1263,1202).
att(1289,1360).
att(1322,1342).
att(752,1160).
att(371,309).
att(318,7).
att(1322,678).
att(493,1328).
att(250,225).
att(252,226).
att(340,121).
att(1425,1109).
att(452,182).
att(1576,711).
att(1425,1108).
att(1285,545).
att(1586,811).
att(1174,657).
att(1257,1214).
att(458,184).
att(1257,1218).
att(1282,1414).
att(1588,786).
att(1181,712).
att(377,349).
att(1529,1070).
att(1418,1155).
att(509,1520).
att(375,324).
att(375,323).
att(329,817).
att(336,63).
att(359,216).
att(379,345).
att(374,324).
att(381,368).
att(355,220).
att(256,458).
att(269,185).
att(329,66).
att(377,363).
att(1295,537).
att(1524,1038).
att(1588,809).
att(445,185).
att(230,183).
att(493,1475).
att(1300,1301).
att(1427,1097).
att(1571,718).
att(417,562).
att(1198,823).
att(318,14).
att(381,383).
att(329,73).
att(1582,791).
att(340,164).
att(379,370).
att(333,221).
att(1261,1306).
att(500,1533).
att(308,24).
att(563,1326).
att(1297,1279).
att(308,21).
att(234,184).
att(1572,700).
att(1583,786).
att(308,28).
att(314,790).
att(335,213).
att(485,1474).
att(1171,791).
att(1530,1094).
att(317,27).
att(381,392).
att(444,136).
att(311,815).
att(339,90).
att(1521,1074).
att(1575,653).
att(246,135).
att(1265,564).
att(1194,823).
att(260,471).
att(337,145).
att(1530,1099).
att(335,72).
att(412,486).
att(1171,804).
att(249,140).
att(318,795).
att(1281,1432).
att(1364,995).
att(337,73).
att(1297,567).
att(459,288).
att(1512,1058).
att(1177,727).
att(1286,1429).
att(1297,570).
att(450,141).
att(499,1491).
att(247,171).
att(1283,649).
att(1392,1117).
att(248,167).
att(1579,765).
att(247,160).
att(450,140).
att(1388,1147).
att(318,819).
att(317,44).
att(1525,1146).
att(317,50).
att(1396,995).
att(454,207).
att(238,165).
att(1300,1270).
att(313,15).
att(1512,980).
att(318,43).
att(1526,1136).
att(152,1160).
att(374,397).
att(305,5).
att(1428,1111).
att(1297,1356).
att(1285,655).
att(1265,1124).
att(1577,730).
att(1293,649).
att(1570,700).
att(506,187).
att(341,1307).
att(1265,930).
att(374,219).
att(1281,1078).
att(1304,967).
att(253,116).
att(313,1245).
att(1519,813).
att(429,668).
att(1296,984).
att(1527,784).
att(1281,1085).
att(1265,965).
att(1389,748).
att(263,117).
att(1521,742).
att(259,115).
att(508,142).
att(1294,1100).
att(251,52).
att(502,143).
att(1530,801).
att(1304,1010).
att(1280,1092).
att(253,166).
att(379,212).
att(1266,979).
att(424,582).
att(1294,1149).
att(1397,722).
att(240,37).
att(1394,723).
att(421,628).
att(1255,993).
att(319,1195).
att(355,812).
att(379,77).
att(1298,993).
att(1265,1015).
att(1389,791).
att(1318,568).
att(1395,736).
att(1510,735).
att(244,42).
att(511,165).
att(462,268).
att(316,1277).
att(236,65).
att(358,111).
att(453,601).
att(493,86).
att(1283,594).
att(1505,763).
att(317,1337).
att(1291,566).
att(1258,1064).
att(1259,1060).
att(331,818).
att(461,633).
att(497,91).
att(502,254).
att(1394,745).
att(500,171).
att(241,53).
att(456,636).
att(1324,534).
att(316,1403).
att(1510,759).
att(337,794).
att(1401,780).
att(1281,1149).
att(318,1358).
att(1281,1131).
att(506,204).
att(239,32).
att(1285,591).
att(511,252).
att(507,204).
att(319,1224).
att(503,195).
att(319,1228).
att(337,805).
att(501,100).
att(1256,1058).
att(427,706).
att(805,1161).
att(1283,1143).
att(1320,655).
att(1264,1077).
att(1511,787).
att(1322,592).
att(1285,1125).
att(1266,1103).
att(353,155).
att(1344,1249).
att(1345,1248).
att(461,602).
att(1346,1225).
att(358,154).
att(1347,1226).
att(1401,803).
att(1291,1144).
att(1347,1227).
att(1324,1116).
att(507,180).
att(1350,1215).
att(287,276).
att(1395,803).
att(1262,1077).
att(1205,708).
att(1349,514).
att(373,792).
att(320,1277).
att(291,279).
att(441,689).
att(476,245).
att(1350,513).
att(462,139).
att(236,216).
att(1486,739).
att(1260,1132).
att(379,773).
att(1509,829).
att(475,267).
att(1499,821).
att(1366,784).
att(374,3).
att(478,233).
att(438,637).
att(1376,698).
att(1511,830).
att(286,238).
att(240,212).
att(1489,708).
att(439,632).
att(1347,1251).
att(240,220).
att(319,512).
att(1266,1092).
att(1485,716).
att(320,518).
att(1262,1096).
att(319,1301).
att(1256,1129).
att(1487,781).
att(1205,741).
att(239,108).
att(1256,1115).
att(1445,1066).
att(1269,1018).
att(299,204).
att(547,1556).
att(1485,726).
att(558,1567).
att(477,248).
att(1485,724).
att(1255,1112).
att(435,528).
att(1444,985).
att(243,133).
att(1256,1136).
att(558,1500).
att(1347,1303).
att(374,13).
att(381,39).
att(320,1361).
att(473,197).
att(376,34).
att(1344,1272).
att(477,266).
att(477,250).
att(374,63).
att(381,115).
att(468,206).
att(1320,1220).
att(1269,1077).
att(468,197).
att(1206,781).
att(462,196).
att(788,1162).
att(471,255).
att(1317,1251).
att(257,323).
att(253,309).
att(462,204).
att(1466,665).
att(1489,809).
att(371,59).
att(1351,610).
att(1268,1083).
att(1439,1037).
att(1375,745).
att(1319,1232).
att(1347,682).
att(1376,744).
att(1205,728).
att(429,603).
att(1254,1117).
att(1445,1037).
att(381,60).
att(1345,644).
att(1372,742).
att(1258,1152).
att(1351,1411).
att(298,271).
att(430,599).
att(1318,1219).
att(1442,1087).
att(375,70).
att(380,133).
att(1204,780).
att(1483,801).
att(263,365).
att(381,166).
att(1320,1241).
att(1470,698).
att(263,372).
att(303,277).
att(1206,801).
att(1479,793).
att(1465,712).
att(420,691).
att(471,225).
att(257,372).
att(1209,708).
att(1467,695).
att(1463,662).
att(380,84).
att(1346,1405).
att(426,483).
att(1352,1241).
att(1372,820).
att(1490,785).
att(1352,1311).
att(377,154).
att(468,186).
att(1442,1106).
att(425,562).
att(232,219).
att(1467,711).
att(477,596).
att(358,1230).
att(302,298).
att(306,287).
att(1446,667).
att(1350,240).
att(419,1017).
att(376,1411).
att(304,303).
att(1439,731).
att(1440,735).
att(1257,199).
att(357,1191).
att(360,1235).
att(1443,785).
att(477,546).
att(476,488).
att(431,891).
att(479,550).
att(1445,785).
att(479,549).
att(556,186).
att(561,178).
att(355,1240).
att(412,960).
att(533,210).
att(446,606).
att(1320,960).
att(378,1403).
att(312,336).
att(358,1223).
att(374,1413).
att(442,616).
att(1304,216).
att(445,688).
att(1422,661).
att(444,688).
att(1419,698).
att(1295,868).
att(468,490).
att(1349,311).
att(475,613).
att(1448,722).
att(1421,740).
att(437,958).
att(1346,337).
att(323,273).
att(1323,873).
att(554,249).
att(1344,354).
att(474,638).
att(413,1059).
att(358,1234).
att(481,690).
att(1420,718).
att(1322,865).
att(1351,336).
att(1442,823).
att(1293,909).
att(356,1313).
att(439,863).
att(415,990).
att(388,1021).
att(1420,729).
att(1418,727).
att(1350,359).
att(1322,962).
att(340,1191).
att(1324,908).
att(1295,859).
att(436,853).
att(319,374).
att(479,581).
att(1421,731).
att(437,863).
att(547,205).
att(1297,746).
att(357,1405).
att(450,528).
att(458,666).
att(1447,803).
att(1321,930).
att(1265,770).
att(260,26).
att(1297,849).
att(1304,758).
att(1529,657).
att(333,1245).
att(1448,789).
att(1530,711).
att(456,704).
att(1525,661).
att(326,327).
att(1285,960).
att(1296,772).
att(332,326).
att(353,1312).
att(1263,798).
att(1291,214).
att(450,542).
att(358,1411).
att(461,643).
att(1324,199).
att(504,238).
att(1263,817).
att(1293,1016).
att(1296,873).
att(293,476).
att(329,1237).
att(260,43).
att(1532,733).
att(460,687).
att(1257,854).
att(1422,832).
att(1521,653).
att(453,576).
att(509,282).
att(263,27).
att(335,1249).
att(493,158).
att(457,633).
att(1390,654).
att(509,297).
att(1295,1014).
att(260,14).
att(1390,711).
att(350,1053).
att(1324,74).
att(1526,708).
att(1418,806).
att(311,353).
att(258,41).
att(446,632).
att(1527,729).
att(348,275).
att(1287,1068).
att(352,270).
att(1280,980).
att(1388,737).
att(333,1361).
att(338,1332).
att(257,34).
att(317,1199).
att(1267,108).
att(257,47).
att(1418,828).
att(414,869).
att(1293,967).
att(338,1358).
att(563,158).
att(1388,694).
att(251,17).
att(1267,130).
att(1420,831).
att(448,579).
att(1525,742).
att(1286,1034).
att(262,54).
att(1261,956).
att(347,321).
att(1282,1082).
att(342,328).
att(1530,749).
att(1391,766).
att(1263,750).
att(346,325).
att(315,1229).
att(281,1124).
att(1299,147).
att(1425,759).
att(442,526).
att(443,532).
att(1281,1055).
att(1388,724).
att(257,1274).
att(427,1063).
att(251,1310).
att(503,578).
att(1265,582).
att(1314,77).
att(509,617).
att(240,1197).
att(452,860).
att(338,1041).
att(509,628).
att(351,360).
att(259,1237).
att(1296,637).
att(341,859).
att(232,1199).
att(244,1218).
att(502,526).
att(262,1313).
att(1296,658).
att(510,580).
att(458,855).
att(1318,110).
att(236,1229).
att(511,584).
att(1320,128).
att(244,1233).
att(354,242).
att(1265,634).
att(459,850).
att(369,274).
att(1294,764).
att(357,373).
att(311,917).
att(366,280).
att(308,858).
att(459,997).
att(498,603).
att(253,1409).
att(507,717).
att(1283,758).
att(243,1252).
att(372,279).
att(240,1241).
att(368,298).
att(239,1250).
att(1255,661).
att(491,605).
att(1290,802).
att(337,373).
att(1298,661).
att(232,1228).
att(317,965).
att(253,1342).
att(509,717).
att(239,1222).
att(235,1219).
att(458,959).
att(336,232).
att(340,373).
att(1293,151).
att(1324,124).
att(311,962).
att(1256,700).
att(1321,148).
att(370,322).
att(1258,713).
att(313,1010).
att(459,957).
att(243,1302).
att(1291,754).
att(334,244).
att(315,1059).
att(458,892).
att(458,890).
att(1321,149).
att(1295,757).
att(1254,661).
att(1256,714).
att(1314,212).
att(456,910).
att(367,342).
att(1260,696).
att(510,686).
att(1294,827).
att(501,486).
att(502,612).
att(511,686).
att(439,992).
att(1346,133).
att(319,892).
att(244,1334).
att(425,870).
att(1254,738).
att(1264,729).
att(1353,810).
att(1351,917).
att(420,1013).
att(1320,805).
att(1348,890).
att(1346,104).
att(240,1340).
att(1354,800).
att(1320,815).
att(394,1024).
att(1256,741).
att(426,854).
att(236,1278).
att(381,1187).
att(1351,859).
att(468,598).
att(382,280).
att(429,874).
att(433,1011).
att(1348,129).
att(232,1332).
att(1298,820).
att(1348,127).
att(375,1224).
att(376,1246).
att(468,525).
att(433,934).
att(241,1409).
att(463,494).
att(391,280).
att(474,690).
att(1348,154).
att(377,232).
att(467,550).
att(467,548).
att(232,1343).
att(237,1358).
att(319,146).
att(390,290).
att(240,1405).
att(390,295).
att(481,707).
att(378,240).
att(377,1220).
att(505,557).
att(1314,747).
att(1352,128).
att(1318,146).
att(1347,933).
att(421,965).
att(430,932).
att(371,1236).
att(1259,786).
att(359,371).
att(391,321).
att(1254,745).
att(320,1014).
att(1352,849).
att(1438,657).
att(1320,750).
att(359,237).
att(380,1359).
att(465,638).
att(469,606).
att(1315,794).
att(1344,215).
att(429,894).
att(1440,733).
att(381,1313).
att(1345,199).
att(385,382).
att(511,494).
att(1353,909).
att(430,888).
att(373,1307).
att(1320,866).
att(429,913).
att(379,1272).
att(1347,986).
att(469,638).
att(440,1059).
att(1320,794).
att(492,761).
att(559,658).
att(474,894).
att(436,1232).
att(953,1087).
att(1209,1528).
att(415,1340).
att(251,537).
att(1207,1517).
att(1257,1393).
att(308,921).
att(432,1312).
att(1584,1400).
att(1257,1427).
att(322,1531).
att(547,687).
att(258,512).
att(1582,1328).
att(1198,1402).
att(434,1199).
att(315,921).
att(1324,455).
att(263,516).
att(1420,136).
att(494,780).
att(554,612).
att(440,1229).
att(317,919).
att(1420,193).
att(1291,455).
att(1469,1518).
att(318,920).
att(474,857).
att(560,607).
att(414,1278).
att(445,1069).
att(951,1094).
att(1192,1374).
att(413,1274).
att(481,894).
att(1299,1418).
att(1304,1390).
att(257,535).
att(1297,417).
att(334,1007).
att(331,1028).
att(483,741).
att(1188,1457).
att(1426,173).
att(1588,1433).
att(473,912).
att(1581,1384).
att(1419,229).
att(259,588).
att(1295,446).
att(473,868).
att(1448,205).
att(334,1019).
att(331,1019).
att(341,954).
att(950,1107).
att(1584,1378).
att(398,324).
att(393,263).
att(416,1362).
att(951,1107).
att(1585,1496).
att(1521,167).
att(1324,495).
att(239,592).
att(1267,1196).
att(489,824).
att(1194,1491).
att(1297,1174).
att(1424,249).
att(1257,1172).
att(1390,139).
att(1299,420).
att(1265,432).
att(1422,301).
att(441,1359).
att(239,1114).
att(1427,173).
att(951,1131).
att(1267,1210).
att(363,477).
att(480,966).
att(1393,93).
att(1192,1455).
att(241,572).
att(1297,437).
att(400,365).
att(1420,255).
att(1446,286).
att(1530,139).
att(548,698).
att(481,1059).
att(1300,1172).
att(1422,246).
att(433,1305).
att(262,656).
att(239,1141).
att(1267,1370).
att(489,822).
att(1578,1339).
att(1177,1341).
att(1297,454).
att(1287,486).
att(479,997).
att(397,388).
att(1390,176).
att(1261,459).
att(555,708).
att(1290,530).
att(1179,1335).
att(1584,1536).
att(470,871).
att(1265,1375).
att(1419,301).
att(474,964).
att(336,838).
att(404,275).
att(259,520).
att(404,278).
att(1194,1472).
att(395,394).
att(1547,1154).
att(483,742).
att(490,791).
att(562,716).
att(1524,136).
att(317,879).
att(470,853).
att(1426,180).
att(420,1215).
att(1304,455).
att(470,847).
att(562,712).
att(1265,1401).
att(336,942).
att(403,304).
att(1179,1382).
att(499,673).
att(401,393).
att(338,924).
att(334,940).
att(404,285).
att(450,894).
att(1322,1428).
att(1294,604).
att(1314,1176).
att(356,837).
att(1513,91).
att(1323,1389).
att(1395,89).
att(1263,478).
att(1426,267).
att(1570,1406).
att(491,672).
att(1179,1384).
att(1300,442).
att(1571,1333).
att(1322,1420).
att(338,940).
att(456,1065).
att(1173,1327).
att(1192,1537).
att(1283,1298).
att(1285,1255).
att(500,614).
att(1178,1382).
att(1299,443).
att(1170,1329).
att(498,635).
att(1388,250).
att(1526,246).
att(1291,1254).
att(1292,632).
att(1292,638).
att(355,1021).
att(1286,577).
att(1394,159).
att(1296,502).
att(1261,509).
att(1174,1434).
att(1573,1431).
att(498,580).
att(402,362).
att(1401,171).
att(1574,1373).
att(445,847).
att(1513,88).
att(1315,1184).
att(451,872).
att(1287,584).
att(1575,1437).
att(453,1010).
att(1171,1552).
att(1304,508).
att(1529,254).
att(1572,1455).
att(442,849).
att(1354,1172).
att(1391,269).
att(1354,1192).
att(486,713).
att(1179,1461).
att(1261,1287).
att(1324,1198).
att(1573,1458).
att(1578,1472).
att(419,1310).
att(1176,1491).
att(1265,500).
att(1180,1460).
att(488,711).
att(414,1234).
att(474,852).
att(478,875).
att(1512,193).
att(1509,186).
att(1513,178).
att(1263,547).
att(1288,666).
att(1263,558).
att(258,1116).
att(1282,689).
att(258,1123).
att(258,1121).
att(484,699).
att(547,603).
att(406,389).
att(410,372).
att(1265,503).
att(547,542).
att(1296,1290).
att(1265,505).
att(1368,160).
att(1519,230).
att(478,851).
att(450,1014).
att(407,389).
att(442,918).
att(1170,1430).
att(1324,1184).
att(487,707).
att(490,692).
att(1401,206).
att(1554,1333).
att(498,717).
att(1578,1515).
att(1283,1392).
att(1283,1393).
att(1176,1537).
att(1564,1412).
att(1512,226).
att(496,667).
att(1574,1506).
att(494,662).
att(351,842).
att(1177,1555).
att(442,956).
att(1395,206).
att(339,907).
att(1499,192).
att(1501,189).
att(1322,1364).
att(1507,186).
att(1286,691).
att(1507,190).
att(333,925).
att(354,1007).
att(1267,552).
att(1394,222).
att(1513,223).
att(561,555).
att(1323,1365).
att(444,960).
att(1174,1537).
att(1174,1535).
att(1262,532).
att(1254,484).
att(1284,660).
att(378,1028).
att(1351,1173).
att(1396,1481).
att(1349,1170).
att(1560,1068).
att(1319,401).
att(510,994).
att(100,345).
att(525,787).
att(311,500).
att(1350,420).
att(524,783).
att(1170,1148).
att(1572,1111).
att(523,801).
att(379,1020).
att(1396,1436).
att(453,1217).
att(528,820).
att(341,500).
att(318,502).
att(1318,1258).
att(1406,1168).
att(1294,245).
att(1408,1166).
att(1267,172).
att(1318,1262).
att(1319,1258).
att(312,504).
att(1319,1262).
att(1562,1056).
att(1575,1136).
att(461,1234).
att(88,366).
att(95,383).
att(100,394).
att(427,1385).
att(381,1051).
att(503,894).
att(530,744).
att(1344,1205).
att(1554,1018).
att(504,891).
att(1571,1156).
att(459,1252).
att(1293,303).
att(1262,224).
att(1349,451).
att(1370,1410).
att(1291,323).
att(1396,1473).
att(505,889).
att(1170,1110).
att(320,1211).
att(1559,1061).
att(1571,1128).
att(91,368).
att(1505,1460).
att(1348,422).
att(506,891).
att(527,749).
att(510,965).
att(78,327).
att(603,759).
att(159,275).
att(448,1223).
att(358,906).
att(374,843).
att(1501,1514).
att(1499,1506).
att(493,892).
att(1315,1206).
att(1442,93).
att(1560,1107).
att(1204,1373).
att(1370,1450).
att(1370,1457).
att(1353,1211).
att(1345,477).
att(1289,368).
att(1558,1071).
att(95,395).
att(1258,180).
att(1479,1331).
att(1258,178).
att(1321,389).
att(86,383).
att(1347,458).
att(375,974).
att(1344,453).
att(1397,1503).
att(1323,383).
att(161,270).
att(1315,1401).
att(455,1334).
att(1344,448).
att(1375,1380).
att(1562,1106).
att(78,368).
att(452,1356).
att(163,328).
att(1289,386).
att(381,844).
att(599,735).
att(1350,509).
att(376,836).
att(320,499).
att(1348,485).
att(1564,1112).
att(1258,230).
att(1285,382).
att(161,327).
att(485,863).
att(455,1356).
att(378,836).
att(451,1202).
att(500,910).
att(509,1063).
att(1562,1132).
att(485,848).
att(1487,1434).
att(1346,1180).
att(1256,255).
att(505,986).
att(1317,1422).
att(1445,83).
att(1352,417).
att(1501,1567).
att(601,697).
att(1370,1430).
att(167,287).
att(1353,1428).
att(1354,1389).
att(503,966).
att(1487,1432).
att(1565,980).
att(1381,1166).
att(467,931).
att(1291,411).
att(549,743).
att(239,1048).
att(315,1190).
att(1335,1160).
att(557,811).
att(1331,1166).
att(312,1172).
att(1333,1160).
att(1206,1458).
att(465,965).
att(542,742).
att(1353,452).
att(242,1024).
att(511,853).
att(1297,321).
att(1565,1031).
att(439,1385).
att(1554,1148).
att(1566,1029).
att(1296,322).
att(1540,995).
att(440,1386).
att(1559,1111).
att(471,935).
att(429,1246).
att(427,1219).
att(1564,1156).
att(527,663).
att(1349,561).
att(1443,193).
att(1543,1038).
att(1345,491).
att(430,1252).
att(1486,1460).
att(1375,1567).
att(1263,332).
att(1297,346).
att(1376,1568).
att(1544,1072).
att(311,1394).
att(341,1207).
att(551,745).
att(1489,1553).
att(439,1361).
att(466,909).
att(262,843).
att(1346,547).
att(1444,177).
att(1268,209).
att(1479,1477).
att(467,913).
att(1465,1329).
att(316,1376).
att(1318,447).
att(1542,1073).
att(341,1370).
att(1257,349).
att(1438,181).
att(1443,226).
att(232,982).
att(1423,83).
att(1347,1390).
att(1463,1457).
att(1211,1432).
att(1347,1426).
att(1354,506).
att(529,724).
att(100,277).
att(235,834).
att(1352,499).
att(510,891).
att(1422,157).
att(1291,417).
att(1299,390).
att(1351,1368).
att(237,972).
att(549,830).
att(1213,1457).
att(1544,1104).
att(507,862).
att(526,692).
att(1445,202).
att(1544,1101).
att(1441,202).
att(1299,392).
att(1265,385).
att(1314,475).
att(542,826).
att(373,925).
att(236,836).
att(1350,1392).
att(1183,1384).
att(945,1066).
att(505,875).
att(1348,1424).
att(507,873).
att(1344,1444).
att(468,992).
att(1414,1162).
att(235,1003).
att(1317,558).
att(1418,135).
att(373,954).
att(236,969).
att(502,875).
att(319,1426).
att(462,984).
att(320,1446).
att(553,802).
att(1319,506).
att(88,270).
att(1548,1060).
att(1210,1432).
att(243,1025).
att(1184,1449).
att(1213,1494).
att(1348,1268).
att(1213,1481).
att(1544,1146).
att(429,1309).
att(505,848).
att(506,853).
att(1291,433).
att(1345,1442).
att(470,986).
att(510,873).
att(506,847).
att(951,1056).
att(237,1019).
att(477,1357).
att(434,48).
att(476,1277).
att(1354,164).
att(1548,695).
att(191,271).
att(468,1187).
att(490,1156).
att(341,513).
att(550,977).
att(955,692).
att(1304,836).
att(1418,1374).
att(1446,1435).
att(253,72).
att(338,416).
att(356,465).
att(945,708).
att(1317,144).
att(1300,1006).
att(314,568).
att(263,76).
att(136,349).
att(1296,1000).
att(492,1133).
att(311,593).
att(1471,1105).
att(560,1067).
att(1297,1025).
att(1440,1523).
att(260,109).
att(312,588).
att(1322,15).
att(1540,804).
att(1207,1108).
att(1299,1003).
att(359,466).
att(433,46).
att(471,1193).
att(492,1117).
att(945,653).
att(951,711).
att(258,102).
att(1422,1384).
att(1466,1106).
att(562,1068).
att(1443,1568).
att(579,784).
att(311,386).
att(1300,1051).
att(192,302).
att(6,1161).
att(336,432).
att(315,395).
att(314,389).
att(1297,1022).
att(1348,279).
att(1470,1111).
att(494,1093).
att(583,830).
att(1210,1132).
att(1590,1066).
att(414,94).
att(187,280).
att(639,693).
att(1283,45).
att(191,300).
att(1351,279).
att(135,398).
att(439,15).
att(334,630).
att(1465,1146).
att(433,15).
att(1182,1146).
att(1421,1478).
att(1208,1113).
att(1466,1127).
att(1581,983).
att(441,43).
att(951,733).
att(418,97).
att(1447,1436).
att(472,1214).
att(533,1013).
att(251,746).
att(494,1108).
att(141,411).
att(312,1142).
att(478,1234).
att(256,153).
att(436,3).
att(194,274).
att(563,997).
att(110,1161).
att(331,682).
att(639,708).
att(134,386).
att(339,649).
att(484,1108).
att(315,1114).
att(1183,1097).
att(192,352).
att(471,1237).
att(1531,1329).
att(20,1168).
att(555,1103).
att(616,718).
att(236,146).
att(358,558).
att(1532,1335).
att(618,716).
att(546,1101).
att(617,713).
att(1587,1088).
att(1186,1088).
att(606,699).
att(354,554).
att(614,665).
att(316,629).
att(613,662).
att(1283,66).
att(338,448).
att(633,789).
att(636,830).
att(1418,1474).
att(335,434).
att(188,306).
att(466,1245).
att(953,727).
att(1349,332).
att(235,746).
att(549,1084).
att(549,1088).
att(628,744).
att(1196,1085).
att(465,1222).
att(557,1078).
att(1350,1143).
att(1530,1335).
att(341,621).
att(331,436).
att(636,785).
att(338,459).
att(437,90).
att(1350,326).
att(1581,1056).
att(193,309).
att(1419,1491).
att(1349,343).
att(1389,1412).
att(318,522).
att(945,821).
att(1192,1075).
att(1393,1400).
att(314,545).
att(1582,1072).
att(1194,1105).
att(320,363).
att(192,386).
att(953,813).
att(191,382).
att(1529,1373).
att(333,480).
att(472,1312).
att(1171,1077).
att(329,444).
att(331,442).
att(1299,839).
att(190,344).
att(237,773).
att(1322,170).
att(1389,1406).
att(237,771).
att(1583,1070).
att(1265,1).
att(1427,1373).
att(1585,1076).
att(263,201).
att(462,1199).
att(636,780).
att(240,772).
att(1295,51).
att(1296,1).
att(191,368).
att(476,1343).
att(549,1058).
att(1351,366).
att(1299,837).
att(948,760).
att(1587,1071).
att(1584,1075).
att(1257,1008).
att(1322,101).
att(950,804).
att(1188,1076).
att(1546,789).
att(242,776).
att(185,321).
att(160,343).
att(1526,1430).
att(387,814).
att(318,416).
att(163,365).
att(492,980).
att(340,508).
att(446,1306).
att(336,469).
att(1590,1127).
att(320,400).
att(451,1272).
att(1524,1449).
att(1171,1095).
att(1388,1449).
att(339,566).
att(1576,1064).
att(495,988).
att(560,858).
att(335,588).
att(533,917).
att(1171,1092).
att(485,996).
att(1353,277).
att(1577,1068).
att(331,462).
att(417,13).
att(1349,401).
att(1585,1097).
att(338,585).
att(338,586).
att(359,609).
att(1200,1097).
att(1532,1449).
att(578,711).
att(336,470).
att(1532,1435).
att(1257,24).
att(1297,47).
att(1196,1132).
att(1353,281).
att(491,992).
att(1583,1103).
att(277,1304).
att(600,831).
att(1265,23).
att(1291,170).
att(413,1).
att(603,801).
att(416,23).
att(604,787).
att(337,1120).
att(1571,1066).
att(1582,1129).
att(334,533).
att(1389,1478).
att(1571,1064).
att(1267,38).
att(1190,1110).
att(1296,63).
att(1428,1475).
att(276,1283).
att(1186,1153).
att(605,783).
att(1319,280).
att(443,1249).
att(1577,1084).
att(308,436).
att(431,3).
att(1288,181).
att(431,2).
att(442,1246).
att(1181,1082).
att(1293,907).
att(1257,36).
att(318,420).
att(1180,1060).
att(1172,1138).
att(1581,1130).
att(454,1313).
att(1289,903).
att(158,369).
att(1194,1153).
att(497,965).
att(1354,327).
att(1525,1493).
att(486,1085).
att(1265,51).
att(1501,1331).
att(1286,182).
att(414,56).
att(1456,1168).
att(311,442).
att(1288,203).
att(481,1236).
att(1499,1328).
att(1511,1373).
att(490,1106).
att(1572,1078).
att(416,99).
att(1263,122).
att(1257,54).
att(1284,184).
att(1577,1072).
att(159,401).
att(1297,897).
att(1324,843).
att(490,1082).
att(134,278).
att(475,1233).
att(1286,194).
att(311,424).
att(559,956).
att(1317,350).
att(329,516).
att(1579,1071).
att(157,400).
att(338,684).
att(1354,369).
att(1170,1034).
att(472,1228).
att(1529,1523).
att(1573,1084).
att(558,893).
att(1511,1433).
att(1257,98).
att(1511,1417).
att(1573,1093).
att(416,62).
att(577,727).
att(1368,1378).
att(1304,922).
att(1316,348).
att(1574,1103).
att(1173,1099).
att(1294,230).
att(479,1227).
att(412,63).
att(1178,1130).
att(533,963).
att(259,794).
att(1179,1106).
att(448,1357).
att(481,1185).
att(486,993).
att(337,539).
att(1176,1073).
att(1267,113).
att(135,304).
att(488,987).
att(583,724).
att(1354,395).
att(444,1343).
att(558,861).
att(262,788).
att(581,764).
att(1504,1378).
att(442,1270).
att(341,463).
att(575,739).
att(1298,95).
att(1364,1402).
att(1511,1076).
att(242,457).
att(154,1169).
att(253,554).
att(1266,1328).
att(1317,1046).
att(317,58).
att(1460,1162).
att(1397,1088).
att(672,811).
att(1459,1167).
att(1294,1533).
att(222,280).
att(1294,1514).
att(437,306).
att(1173,760).
att(1262,1400).
att(371,656).
att(1509,1087).
att(455,116).
att(177,402).
att(1256,1329).
att(312,69).
att(180,392).
att(1346,838).
att(1572,763).
att(1505,1035).
att(1175,728).
att(454,31).
att(510,1409).
att(1519,1110).
att(359,349).
att(258,485).
att(1314,929).
att(361,345).
att(685,769).
att(691,781).
att(452,69).
att(1394,1088).
att(485,1231).
att(413,396).
att(501,1221).
att(1280,1491).
att(358,1142).
att(1580,695).
att(597,989).
att(1572,783).
att(1351,840).
att(685,736).
att(232,449).
att(375,518).
att(1181,827).
att(1347,2).
att(1559,661).
att(242,481).
att(318,94).
att(1347,7).
att(1396,1100).
att(1180,783).
att(603,1037).
att(1353,879).
att(523,1117).
att(526,1149).
att(1319,904).
att(356,366).
att(356,369).
att(455,70).
att(1256,1379).
att(236,448).
att(1364,1086).
att(441,345).
att(1563,659).
att(1180,822).
att(524,1097).
att(531,1111).
att(434,302).
att(1394,1109).
att(1475,1164).
att(236,442).
att(527,1127).
att(1352,897).
att(436,295).
att(378,516).
att(1504,1077).
att(351,372).
att(493,1279).
att(351,370).
att(358,517).
att(454,174).
att(442,11).
att(1364,1091).
att(1316,1008).
att(578,979).
att(1490,1062).
att(313,172).
att(376,433).
att(450,35).
att(1260,1492).
att(434,363).
att(1394,1113).
att(500,1362).
att(1509,1147).
att(357,516).
att(437,382).
att(358,392).
att(355,397).
att(355,398).
att(1563,697).
att(598,1101).
att(333,272).
att(581,993).
att(658,711).
att(237,472).
att(1573,827).
att(449,43).
att(443,22).
att(1266,1457).
att(1285,952).
att(353,537).
att(642,735).
att(1512,1130).
att(356,405).
att(209,367).
att(658,701).
att(1557,701).
att(1315,1009).
att(501,1275).
att(1353,978).
att(1354,976).
att(361,538).
att(1268,1341).
att(228,410).
att(337,300).
att(1256,1458).
att(1317,1000).
att(460,164).
att(500,1309).
att(1352,1008).
att(427,283).
att(205,293).
att(603,1099).
att(448,10).
att(377,457).
att(373,424).
att(351,405).
att(1370,1086).
att(334,305).
att(1256,1473).
att(436,390).
att(456,113).
att(195,280).
att(456,115).
att(1366,1117).
att(1490,1033).
att(209,404).
att(130,1169).
att(1352,1026).
att(205,273).
att(381,426).
att(1511,1157).
att(598,1084).
att(438,397).
att(500,1241).
att(1266,1461).
att(450,26).
att(357,590).
att(444,30).
att(599,1108).
att(688,793).
att(1366,1129).
att(1504,1129).
att(1354,27).
att(126,1169).
att(502,1185).
att(1441,1328).
att(1488,1077).
att(189,396).
att(1345,901).
att(1266,1551).
att(1369,1107).
att(175,280).
att(339,346).
att(471,1385).
att(319,1047).
att(373,442).
att(242,648).
att(430,53).
att(1319,3).
att(1347,897).
att(1349,98).
att(1557,806).
att(1268,1404).
att(1483,1085).
att(189,387).
att(419,273).
att(1298,1515).
att(1344,920).
att(1580,821).
att(611,737).
att(1350,60).
att(1352,2).
att(320,118).
att(318,842).
att(525,987).
att(1563,759).
att(189,385).
att(505,1189).
att(1206,1032).
att(1318,1).
att(531,1033).
att(1258,1518).
att(1347,60).
att(1266,1498).
att(1443,1400).
att(531,1031).
att(320,878).
att(331,342).
att(317,833).
att(1350,902).
att(1353,8).
att(546,1129).
att(618,727).
att(1345,57).
att(319,113).
att(242,545).
att(435,164).
att(21,1160).
att(336,365).
att(436,174).
att(1344,949).
att(1345,947).
att(379,468).
att(1484,1109).
att(420,168).
att(316,838).
att(417,322).
att(557,1148).
att(177,305).
att(432,285).
att(1314,17).
att(436,168).
att(550,1099).
att(377,507).
att(1486,1133).
att(430,33).
att(337,396).
att(377,470).
att(612,718).
att(1479,1075).
att(1375,1094).
att(1487,1091).
att(557,1092).
att(1205,1072).
att(468,1310).
att(1269,1454).
att(176,270).
att(531,989).
att(1348,166).
att(308,1002).
att(186,398).
att(320,924).
att(464,1236).
att(1484,1100).
att(1485,1106).
att(466,1276).
att(1351,947).
att(607,740).
att(469,1302).
att(1561,823).
att(551,1131).
att(431,272).
att(1212,1036).
att(1482,1127).
att(377,559).
att(320,982).
att(1351,1007).
att(1467,1018).
att(1463,1062).
att(1482,1115).
att(337,406).
att(527,1095).
att(424,92).
att(1565,765).
att(1490,1153).
att(1316,46).
att(423,84).
att(428,164).
att(457,10).
att(1207,1035).
att(373,574).
att(1442,1474).
att(1443,1475).
att(183,342).
att(377,501).
att(423,115).
att(333,409).
att(1486,1117).
att(375,593).
att(237,630).
att(526,1078).
att(606,823).
att(1470,1066).
att(687,669).
att(377,567).
att(671,693).
att(506,1239).
att(523,1103).
att(1465,977).
att(1184,991).
att(1345,1000).
att(319,972).
att(412,330).
att(1314,50).
att(532,1091).
att(1462,977).
att(1542,723).
att(357,432).
att(415,309).
att(375,1116).
att(431,383).
att(505,1250).
att(107,1165).
att(371,1122).
att(507,1249).
att(1546,659).
att(359,478).
att(458,9).
att(1269,1556).
att(1318,113).
att(183,390).
att(1542,803).
att(360,447).
att(1467,1074).
att(311,321).
att(1467,1080).
att(1213,1083).
att(373,559).
att(1344,879).
att(507,1220).
att(529,1088).
att(1479,1128).
att(1540,726).
att(355,456).
att(532,1072).
att(1540,763).
att(1566,813).
att(355,455).
att(1322,9).
att(1315,62).
att(1463,1029).
att(1485,1156).
att(1204,1159).
att(463,25).
att(758,1074).
att(674,290).
att(148,1081).
att(267,343).
att(819,1410).
att(710,791).
att(625,9).
att(212,760).
att(455,349).
att(814,1341).
att(970,1167).
att(551,1433).
att(631,2).
att(465,28).
att(146,1056).
att(571,558).
att(651,70).
att(153,1038).
att(677,328).
att(214,726).
att(679,321).
att(571,559).
att(479,97).
att(34,1169).
att(461,326).
att(816,1325).
att(753,1157).
att(80,744).
att(481,166).
att(147,1035).
att(468,23).
att(494,1498).
att(631,17).
att(457,387).
att(496,1500).
att(496,1508).
att(522,367).
att(215,786).
att(814,1377).
att(468,5).
att(79,830).
att(217,701).
att(461,386).
att(80,826).
att(573,469).
att(629,24).
att(651,116).
att(211,762).
att(633,1037).
att(675,352).
att(632,1034).
att(812,1331).
att(522,382).
att(623,119).
att(484,1520).
att(154,1103).
att(650,96).
att(147,1074).
att(521,385).
att(534,449).
att(461,372).
att(217,714).
att(535,444).
att(147,1070).
att(553,1537).
att(528,1339).
att(518,413).
att(545,441).
att(627,50).
att(758,1127).
att(200,699).
att(610,13).
att(446,281).
att(622,169).
att(679,388).
att(509,20).
att(510,6).
att(606,1074).
att(266,405).
att(444,293).
att(233,293).
att(69,1161).
att(538,499).
att(452,400).
att(151,1115).
att(545,413).
att(220,738).
att(247,279).
att(462,33).
att(201,708).
att(812,1374).
att(648,271).
att(678,392).
att(608,27).
att(428,426).
att(456,398).
att(265,385).
att(557,1476).
att(630,46).
att(264,383).
att(677,406).
att(455,393).
att(562,1537).
att(612,983).
att(217,749).
att(810,1472).
att(518,422).
att(978,1166).
att(218,765).
att(817,1475).
att(423,416).
att(614,985).
att(442,307).
att(238,346).
att(635,1147).
att(427,440).
att(198,781).
att(815,1537).
att(199,725).
att(233,321).
att(610,41).
att(717,823).
att(607,979).
att(466,48).
att(550,1456).
att(426,414).
att(550,1437).
att(543,430).
att(543,425).
att(201,740).
att(443,291).
att(537,508).
att(1551,1164).
att(1549,1168).
att(127,1032).
att(469,47).
att(710,828).
att(628,1094).
att(513,439).
att(636,1117).
att(552,1247).
att(815,1555).
att(715,663).
att(627,119).
att(641,786).
att(512,442).
att(216,802).
att(451,101).
att(447,115).
att(480,23).
att(483,1402).
att(684,363).
att(544,475).
att(584,1104).
att(660,780).
att(218,760).
att(518,452).
att(664,762).
att(200,782).
att(810,1534).
att(797,1325).
att(218,743).
att(556,1221).
att(668,760).
att(610,65).
att(609,53).
att(127,1073).
att(513,452).
att(788,1327).
att(229,409).
att(483,1329).
att(443,58).
att(482,1331).
att(217,804).
att(123,1094).
att(609,144).
att(444,64).
att(563,1226).
att(495,1338).
att(126,1095).
att(677,414).
att(129,1136).
att(423,342).
att(800,1478).
att(642,744).
att(123,1095).
att(444,58).
att(533,1225).
att(631,169).
att(497,1358).
att(520,418).
att(596,1113).
att(794,1379).
att(126,1102).
att(205,343).
att(814,1568).
att(127,1094).
att(519,424).
att(207,400).
att(556,1357).
att(649,280).
att(108,1060).
att(580,1110).
att(637,1032).
att(420,441).
att(652,290).
att(455,272).
att(842,1161).
att(788,1417).
att(204,368).
att(646,410).
att(124,1147).
att(250,275).
att(479,37).
att(650,309).
att(634,983).
att(520,420).
att(520,435).
att(125,1132).
att(558,1278).
att(489,1436).
att(556,1274).
att(719,740).
att(516,495).
att(622,293).
att(208,363).
att(473,38).
att(795,1491).
att(619,1037).
att(628,995).
att(651,310).
att(563,1357).
att(430,388).
att(706,725).
att(460,326).
att(488,1454).
att(790,1537).
att(650,324).
att(441,415).
att(478,45).
att(133,1077).
att(266,310).
att(438,419).
att(775,1373).
att(677,443).
att(656,347).
att(104,1081).
att(798,1503).
att(767,1331).
att(484,1436).
att(254,305).
att(715,713).
att(678,429).
att(797,1473).
att(579,1108).
att(204,394).
att(775,1327).
att(108,1086).
att(476,27).
att(452,278).
att(476,26).
att(489,1380).
att(441,414).
att(444,168).
att(552,1311).
att(443,101).
att(102,1037).
att(196,409).
att(208,393).
att(123,1158).
att(513,558).
att(772,1335).
att(643,826).
att(476,389).
att(448,425).
att(1122,502).
att(538,275).
att(601,1496).
att(471,278).
att(520,61).
att(495,34).
att(105,726).
att(444,430).
att(643,1038).
att(301,368).
att(566,399).
att(570,406).
att(102,733).
att(284,389).
att(1125,504).
att(284,384).
att(444,418).
att(522,44).
att(451,431).
att(690,1147).
att(1125,509).
att(679,18).
att(294,390).
att(666,993).
att(598,1456).
att(294,382).
att(472,350).
att(105,740).
att(497,44).
att(481,384).
att(566,411).
att(767,1018).
att(299,407).
att(788,1150).
att(502,84).
att(449,412).
att(671,1149).
att(466,309).
att(792,1159).
att(1022,1161).
att(604,1435).
att(471,298).
att(451,412).
att(643,993).
att(473,404).
att(506,99).
att(467,289).
att(468,283).
att(539,328).
att(1122,497).
att(603,1455).
att(508,90).
att(775,1084).
att(798,1158).
att(466,280).
att(501,14).
att(497,26).
att(691,1109).
att(111,718).
att(492,86).
att(77,659).
att(646,20).
att(660,1075).
att(537,327).
att(463,323).
att(681,14).
att(74,709).
att(104,811).
att(563,19).
att(592,470).
att(538,368).
att(597,1533).
att(107,760).
att(118,1163).
att(591,443).
att(604,1551).
att(522,119).
att(679,59).
att(487,52).
att(583,1374).
att(519,99).
att(605,1551).
att(447,449).
att(573,388).
att(575,1406).
att(597,1498).
att(442,423).
att(509,273).
att(675,145).
att(593,505).
att(757,977).
att(602,1518).
att(590,469).
att(580,1339).
att(563,7).
att(643,1073).
att(642,1075).
att(687,1110).
att(647,25).
att(574,403).
att(640,1085).
att(467,365).
att(591,463).
att(668,1029).
att(109,734).
att(442,425).
att(599,1534).
att(442,430).
att(497,63).
att(647,22).
att(535,399).
att(450,454).
att(451,461).
att(465,332).
att(528,1416).
att(238,390).
att(617,1131).
att(464,162).
att(688,980).
att(689,995).
att(776,1150).
att(109,762).
att(448,385).
att(606,1128).
att(72,731).
att(534,407).
att(673,1064).
att(517,295).
att(616,1096).
att(586,508).
att(571,441).
att(449,370).
att(459,419).
att(532,1417).
att(531,1436).
att(451,348).
att(615,1130).
att(72,732).
att(466,90).
att(230,407).
att(231,404).
att(555,1551).
att(607,1094).
att(288,277).
att(504,2).
att(750,1074).
att(80,718).
att(444,394).
att(516,342).
att(616,1071).
att(595,448).
att(756,1084).
att(515,342).
att(747,1036).
att(572,459).
att(768,1154).
att(773,1158).
att(568,459).
att(532,1381).
att(617,1075).
att(517,349).
att(570,450).
att(611,1079).
att(110,821).
att(211,718).
att(531,1553).
att(297,305).
att(567,476).
att(513,352).
att(688,1076).
att(111,830).
att(568,473).
att(680,164).
att(756,1094).
att(569,502).
att(753,1097).
att(294,325).
att(292,332).
att(212,693).
att(599,1384).
att(566,465).
att(475,295).
att(513,372).
att(82,712).
att(73,804).
att(111,785).
att(568,447).
att(297,280).
att(650,21).
att(671,1071).
att(686,1032).
att(530,1536).
att(480,295).
att(604,1414).
att(444,406).
att(685,1081).
att(508,51).
att(595,554).
att(515,394).
att(758,1031).
att(453,437).
att(673,1034).
att(543,411).
att(294,363).
att(544,403).
att(604,1329).
att(621,32).
att(603,1326).
att(621,38).
att(286,352).
att(595,558).
att(656,63).
att(297,330).
att(571,503).
att(87,728).
att(82,737).
att(502,43).
att(595,498).
att(506,31).
att(456,440).
att(509,69).
att(532,1475).
att(507,39).
att(532,1458).
att(617,1129).
att(655,34).
att(612,1115).
att(512,404).
att(566,99).
att(1114,324).
att(751,785).
att(1119,324).
att(466,450).
att(750,787).
att(541,27).
att(636,1515).
att(551,222).
att(620,1246).
att(617,1398).
att(172,1161).
att(562,196).
att(465,459).
att(466,481).
att(469,443).
att(548,210).
att(758,697).
att(145,1162).
att(719,1155).
att(623,1218).
att(623,1219).
att(468,459).
att(721,1159).
att(619,1508).
att(573,23).
att(754,801).
att(710,1153).
att(470,446).
att(489,292).
att(631,1193).
att(622,1301).
att(817,979).
att(488,294).
att(498,372).
att(149,694).
att(623,1305).
att(498,364).
att(1121,398).
att(593,275).
att(606,1333).
att(651,1306).
att(746,784).
att(463,431).
att(493,327).
att(704,1115).
att(548,159).
att(756,830).
att(484,288).
att(542,173).
att(628,1417).
att(534,15).
att(534,17).
att(815,985).
att(1116,396).
att(619,1473).
att(702,1155).
att(164,1165).
att(639,1497).
att(505,441).
att(610,1185).
att(500,392).
att(881,1164).
att(507,438).
att(538,60).
att(617,1491).
att(501,386).
att(611,1495).
att(573,52).
att(147,779).
att(573,66).
att(627,1199).
att(624,1187).
att(536,43).
att(819,1036).
att(817,1060).
att(154,726).
att(616,1429).
att(526,85).
att(154,763).
att(542,254).
att(626,1187).
att(548,230).
att(540,35).
att(463,478).
att(146,761).
att(155,718).
att(819,1109).
att(464,474).
att(616,1453).
att(1143,443).
att(817,1079).
att(817,1078).
att(606,1430).
att(552,280).
att(1134,448).
att(627,1215).
att(1144,444).
att(616,1373).
att(463,442).
att(623,1386).
att(625,1245).
att(154,803).
att(491,396).
att(613,1398).
att(127,667).
att(501,397).
att(544,2).
att(1135,457).
att(588,370).
att(636,1333).
att(559,55).
att(477,455).
att(1126,419).
att(561,58).
att(155,733).
att(468,407).
att(509,298).
att(556,70).
att(624,1302).
att(583,1520).
att(1137,478).
att(1139,472).
att(608,1236).
att(819,1130).
att(1139,463).
att(638,1333).
att(1140,502).
att(512,17).
att(608,1309).
att(1140,507).
att(706,1083).
att(706,1082).
att(563,57).
att(815,1148).
att(639,1333).
att(815,1133).
att(128,741).
att(476,421).
att(471,409).
att(480,461).
att(561,53).
att(492,187).
att(810,1105).
att(148,786).
att(468,397).
att(125,659).
att(540,98).
att(1142,481).
att(156,701).
att(666,1128).
att(586,383).
att(479,428).
att(608,1243).
att(558,31).
att(721,1061).
att(585,389).
att(496,186).
att(469,391).
att(640,1129).
att(815,1150).
att(577,1430).
att(96,1166).
att(126,726).
att(643,1117).
att(479,441).
att(581,1461).
att(580,1432).
att(492,173).
att(664,1095).
att(570,310).
att(1144,495).
att(1135,509).
att(668,1093).
att(543,37).
att(579,1437).
att(579,1452).
att(794,995).
att(480,412).
att(564,291).
att(1135,503).
att(124,760).
att(546,78).
att(486,269).
att(790,1086).
att(572,321).
att(799,1070).
att(1044,1164).
att(515,113).
att(572,330).
att(511,372).
att(638,1429).
att(547,168).
att(542,85).
att(505,362).
att(562,138).
att(578,1568).
att(717,1100).
att(517,67).
att(790,1035).
att(124,764).
att(626,1337).
att(1135,560).
att(569,352).
att(1126,455).
att(717,1105).
att(502,328).
att(638,1449).
att(721,1107).
att(123,781).
att(566,343).
att(635,1373).
att(510,408).
att(521,18).
att(533,84).
att(569,363).
att(580,1508).
att(1126,466).
att(799,1094).
att(509,407).
att(592,414).
att(561,99).
att(511,397).
att(490,267).
att(1116,472).
att(106,700).
att(513,96).
att(522,12).
att(569,383).
att(799,1109).
att(790,1071).
att(475,455).
att(560,117).
att(638,1399).
att(574,271).
att(634,1335).
att(521,23).
att(103,653).
att(547,55).
att(570,398).
att(601,252).
att(1116,65).
att(788,769).
att(499,508).
att(598,204).
att(498,502).
att(800,762).
att(668,1449).
att(1120,55).
att(674,1232).
att(1124,121).
att(561,432).
att(1114,68).
att(580,78).
att(947,1164).
att(600,207).
att(544,1340).
att(670,1374).
att(1121,62).
att(500,464).
att(487,460).
att(671,1553).
att(491,450).
att(796,783).
att(679,1248).
att(690,1514).
att(676,1247).
att(800,832).
att(685,1515).
att(767,669).
att(642,1379).
att(498,450).
att(678,1218).
att(598,186).
att(497,453).
att(605,222).
att(1116,166).
att(533,444).
att(768,692).
att(594,44).
att(790,823).
att(679,1308).
att(590,47).
att(585,16).
att(775,726).
att(588,45).
att(585,13).
att(580,180).
att(772,700).
att(666,1458).
att(547,438).
att(1125,162).
att(488,496).
att(1144,281).
att(560,456).
att(585,25).
att(771,699).
att(598,246).
att(593,61).
att(577,140).
att(1140,287).
att(522,1336).
att(683,1231).
att(773,763).
att(775,760).
att(658,1481).
att(593,36).
att(642,1478).
att(776,728).
att(579,158).
att(922,1169).
att(561,347).
att(572,4).
att(923,1162).
att(773,762).
att(526,209).
att(590,51).
att(776,804).
att(681,1236).
att(566,4).
att(618,1556).
att(558,307).
att(588,59).
att(586,65).
att(648,1226).
att(526,182).
att(506,451).
att(507,442).
att(754,661).
att(531,203).
att(487,405).
att(510,477).
att(531,202).
att(506,443).
att(770,763).
att(497,411).
att(497,410).
att(1140,368).
att(746,714).
att(751,698).
att(586,99).
att(561,382).
att(615,1536).
att(523,185).
att(572,19).
att(594,172).
att(690,1335).
att(590,170).
att(646,1305).
att(774,827).
att(673,1410).
att(510,447).
att(1134,367).
att(560,367).
att(505,429).
att(525,134).
att(594,94).
att(568,8).
att(506,430).
att(645,1247).
att(671,1333).
att(525,136).
att(644,1252).
att(558,396).
att(688,1473).
att(572,31).
att(652,1195).
att(499,455).
att(561,403).
att(683,1362).
att(498,452).
att(650,1187).
att(1122,270).
att(672,1537).
att(1126,295).
att(1144,410).
att(757,769).
att(497,422).
att(529,282).
att(598,161).
att(565,43).
att(523,301).
att(683,1403).
att(1137,407).
att(647,1337).
att(500,437).
att(538,5).
att(502,508).
att(684,1409).
att(1126,343).
att(897,1163).
att(671,1417).
att(525,208).
att(1126,344).
att(757,782).
att(1125,346).
att(680,1385).
att(1122,330).
att(645,1340).
att(691,1453).
att(633,301).
att(129,89).
att(678,1137).
att(613,134).
att(521,592).
att(522,591).
att(128,173).
att(637,294).
att(805,530).
att(677,1140).
att(634,248).
att(812,532).
att(155,85).
att(152,266).
att(212,1555).
att(155,188).
att(610,835).
att(816,691).
att(128,190).
att(198,1480).
att(152,294).
att(805,584).
att(625,974).
att(616,78).
att(630,838).
att(630,839).
att(123,161).
att(808,638).
att(129,181).
att(617,252).
att(689,85).
att(672,167).
att(146,296).
att(795,555).
att(123,193).
att(616,226).
att(128,252).
att(200,1508).
att(805,702).
att(677,570).
att(675,569).
att(614,184).
att(198,1552).
att(607,202).
att(520,564).
att(674,1121).
att(528,557).
att(675,592).
att(607,223).
att(607,210).
att(107,157).
att(620,833).
att(790,637).
att(156,299).
att(637,142).
att(131,187).
att(102,158).
att(635,173).
att(795,611).
att(127,284).
att(794,619).
att(795,617).
att(610,925).
att(559,510).
att(129,269).
att(621,837).
att(651,838).
att(559,468).
att(608,946).
att(666,1552).
att(581,269).
att(623,1004).
att(561,467).
att(580,206).
att(583,269).
att(768,483).
att(651,978).
att(629,902).
att(790,611).
att(642,1569).
att(556,445).
att(775,551).
att(622,1027).
att(652,972).
att(132,186).
att(768,528).
att(513,540).
att(706,1551).
att(770,532).
att(628,225).
att(632,195).
att(608,1020).
att(704,1500).
att(516,572).
att(133,209).
att(513,571).
att(630,972).
att(631,970).
att(542,551).
att(717,1474).
att(515,590).
att(632,189).
att(710,1493).
att(704,1528).
att(542,484).
att(543,565).
att(768,602).
att(112,85).
att(632,139).
att(704,1459).
att(633,138).
att(517,1119).
att(632,192).
att(643,225).
att(776,210).
att(666,228).
att(651,923).
att(770,176).
att(584,603).
att(74,1406).
att(104,1518).
att(577,604).
att(658,190).
att(112,1326).
att(681,845).
att(110,1399).
att(623,946).
att(648,1025).
att(660,136).
att(773,254).
att(109,1435).
att(583,553).
att(656,927).
att(74,1454).
att(648,999).
att(690,297).
att(642,188).
att(655,949).
att(777,267).
att(72,1398).
att(644,1053).
att(643,194).
att(111,1493).
att(656,972).
att(658,284).
att(534,1116).
att(752,83).
att(717,157).
att(641,301).
att(650,1030).
att(655,1003).
att(74,1435).
att(747,190).
att(706,83).
att(82,1335).
att(757,179).
att(79,1325).
att(707,160).
att(536,1142).
att(717,85).
att(72,1475).
att(541,1125).
att(576,529).
att(767,292).
att(641,266).
att(655,879).
att(750,188).
att(601,550).
att(647,942).
att(212,1382).
att(648,946).
att(602,546).
att(522,1005).
att(81,1414).
att(81,1402).
att(519,969).
att(684,941).
att(585,590).
att(752,175).
att(212,1327).
att(77,1503).
att(110,1568).
att(211,1333).
att(680,942).
att(757,296).
att(678,1050).
att(81,1456).
att(587,1121).
att(677,1043).
att(677,1052).
att(750,252).
att(751,264).
att(671,294).
att(153,185).
att(746,286).
att(87,1520).
att(817,494).
att(684,1019).
att(752,296).
att(684,1025).
att(690,245).
att(146,136).
att(746,234).
att(571,1123).
att(647,877).
att(213,1497).
att(568,1143).
att(689,196).
att(200,1331).
att(81,1516).
att(679,844).
att(676,834).
att(215,1502).
att(691,205).
att(212,1517).
att(146,189).
att(213,1522).
att(146,192).
att(217,1414).
att(648,924).
att(648,921).
att(683,902).
att(691,222).
att(624,436).
att(617,637).
att(620,504).
att(154,1461).
att(151,1475).
att(215,1118).
att(147,1491).
att(146,1453).
att(812,91).
att(214,1094).
att(79,1117).
att(610,422).
att(618,526).
att(616,602).
att(606,578).
att(613,526).
att(217,1073).
att(616,598).
att(199,1085).
att(217,1072).
att(607,582).
att(815,226).
att(615,529).
att(218,1036).
att(610,624).
att(611,557).
att(610,438).
att(128,1326).
att(621,558).
att(816,176).
att(147,1476).
att(614,557).
att(220,1096).
att(685,546).
att(150,1549).
att(630,462).
att(125,1335).
att(155,1381).
att(129,1412).
att(685,482).
att(671,524).
att(220,1113).
att(217,1115).
att(629,491).
att(127,1491).
att(123,1417).
att(123,1433).
att(611,628).
att(790,91).
att(629,511).
att(219,1130).
att(819,292).
att(812,250).
att(124,1449).
att(128,1523).
att(715,204).
att(608,535).
att(702,252).
att(634,600).
att(610,495).
att(797,194).
att(633,597).
att(798,186).
att(627,512).
att(639,576).
att(715,250).
att(639,577).
att(627,545).
att(124,1497).
att(636,601).
att(799,194).
att(719,210).
att(129,1480).
att(629,561).
att(200,1115).
att(794,135).
att(704,208).
att(630,544).
att(123,1496).
att(797,225).
att(609,589).
att(133,1378).
att(796,228).
att(300,1167).
att(710,139).
att(610,554).
att(626,591).
att(707,210).
att(721,190).
att(123,1523).
att(622,649).
att(635,496).
att(610,649).
att(304,1168).
att(133,1430).
att(609,622).
att(609,623).
att(131,1431).
att(613,489).
att(103,1453).
att(777,78).
att(624,652).
att(124,1550).
att(777,93).
att(608,684).
att(106,1452).
att(606,557).
att(702,301).
att(627,684).
att(717,230).
att(131,1535).
att(104,1497).
att(770,137).
att(767,134).
att(772,188).
att(772,143).
att(774,165).
att(133,1459).
att(631,646).
att(1164,1077).
att(767,161).
att(795,286).
att(767,1381).
att(655,369).
att(658,612).
att(522,467).
att(522,470).
att(715,488).
att(655,535).
att(108,1092).
att(794,1568).
att(788,1500).
att(796,1567).
att(649,383).
att(108,1100).
att(770,1402).
att(770,1414).
att(650,393).
att(666,636).
att(683,433).
att(323,1167).
att(625,272).
att(521,498).
att(324,1163).
att(622,382).
att(623,391).
att(131,1155).
att(106,1128).
att(621,399).
att(106,1131).
att(522,508).
att(133,1148).
att(681,414).
att(773,1416).
att(131,1128).
att(775,1497).
att(682,431).
att(771,1431).
att(105,1146).
att(102,1098).
att(767,1457).
att(111,980).
att(328,1165).
att(647,430).
att(678,563).
att(620,406).
att(703,639).
att(776,1536).
att(74,1086).
att(706,639).
att(620,674).
att(76,1066).
att(679,497).
att(681,423).
att(679,501).
att(631,1116).
att(74,1031).
att(626,325).
att(106,1159).
att(623,515).
att(703,604).
att(681,469).
att(631,366).
att(626,347).
att(644,444).
att(706,603).
att(715,542).
att(629,390).
att(72,1085).
att(656,677).
att(682,445).
att(682,446).
att(680,504).
att(621,413).
att(641,486).
att(641,496).
att(647,465).
att(681,588).
att(757,1452).
att(644,1142).
att(672,612).
att(72,1105).
att(609,394).
att(347,1165).
att(87,1087).
att(747,1493).
att(622,441).
att(647,497).
att(349,1164).
att(650,424).
att(152,1335).
att(646,558).
att(672,635).
att(674,514).
att(676,677).
att(648,505).
att(682,1143).
att(621,433).
att(77,1113).
att(112,1154).
att(678,522).
att(87,1102).
att(214,1082).
att(151,1400).
att(757,1517).
att(642,577).
att(651,1145).
att(621,445).
att(668,604).
att(753,1498).
att(152,1381).
att(211,1037).
att(211,1036).
att(73,1150).
att(214,1037).
att(647,512).
att(753,1523).
att(655,446).
att(656,446).
att(146,1379).
att(655,509).
att(629,431).
att(623,476).
att(681,518).
att(818,93).
att(647,535).
att(643,527).
att(80,1132).
att(689,688).
att(623,444).
att(687,611).
att(640,548).
att(642,557).
att(77,1025).
att(129,895).
att(812,1338).
att(127,963).
att(368,1163).
att(79,941).
att(753,567).
att(129,909).
att(797,1202).
att(125,865).
att(74,1050).
att(767,620).
att(767,630).
att(701,654).
att(131,848).
att(200,668).
att(73,879).
att(111,1021).
att(76,1049).
att(199,710).
att(768,655).
att(132,855).
att(754,585).
att(129,960).
att(771,645).
att(751,1126).
att(794,1220).
att(112,1049).
att(709,766).
att(796,1276).
att(155,1063).
att(129,992).
att(797,1306).
att(104,851).
att(72,841).
att(755,621).
att(153,1121).
att(788,1308).
att(213,899).
att(755,650).
att(794,1238).
att(747,679).
att(82,878).
att(768,1201).
att(107,914).
att(796,1313).
att(697,695).
att(750,520).
att(132,893).
att(799,1358).
att(108,860).
att(794,1274).
att(747,573).
att(795,1363).
att(133,1025).
att(104,1044).
att(777,1246).
att(774,1250).
att(775,1239).
att(792,1409).
att(774,1126).
att(790,1332).
att(796,1387).
att(104,907).
att(774,1233).
att(773,1122).
att(132,1051).
att(103,891).
att(133,1053).
att(76,850).
att(702,691).
att(107,1012).
att(77,852).
att(772,1141).
att(771,1301).
att(102,1011).
att(790,682).
att(706,685).
att(773,1144).
att(111,853).
att(768,1253).
att(102,921).
att(104,956).
att(108,932).
att(133,878).
att(75,854).
att(111,848).
att(767,521).
att(77,904).
att(774,545).
att(776,1272).
att(774,1272).
att(104,986).
att(106,838).
att(73,926).
att(767,1301).
att(106,1069).
att(111,964).
att(774,574).
att(74,960).
att(72,887).
att(74,962).
att(776,516).
att(109,920).
att(794,610).
att(752,1201).
att(767,588).
att(77,913).
att(719,702).
att(721,706).
att(750,1233).
att(109,947).
att(130,885).
att(757,860).
att(819,608).
att(812,677).
att(726,712).
att(730,693).
att(217,1369).
att(775,1065).
att(805,521).
att(75,584).
att(73,618).
att(75,673).
att(812,515).
att(850,716).
att(808,521).
att(129,900).
att(77,671).
att(805,517).
att(751,887).
att(221,1375).
att(126,952).
att(814,537).
att(217,1389).
att(147,1006).
att(753,913).
att(155,929).
att(810,543).
att(800,677).
att(852,809).
att(102,940).
att(853,786).
att(215,550).
att(795,512).
att(846,813).
att(79,524).
att(763,708).
att(854,786).
att(215,562).
att(405,1160).
att(871,662).
att(128,843).
att(778,665).
att(847,821).
att(108,922).
att(751,934).
att(126,999).
att(850,760).
att(757,964).
att(796,545).
att(105,941).
att(850,809).
att(219,1177).
att(201,1198).
att(752,1011).
att(849,742).
att(199,1179).
att(213,575).
att(211,596).
att(755,1057).
att(853,811).
att(129,1027).
att(797,571).
att(213,583).
att(219,1194).
att(798,591).
att(212,526).
att(76,704).
att(753,1010).
att(148,848).
att(148,846).
att(805,621).
att(220,483).
att(80,690).
att(221,482).
att(817,1145).
att(154,858).
att(87,1367).
att(147,856).
att(819,1135).
att(148,856).
att(214,1390).
att(747,974).
att(211,579).
att(150,923).
att(200,496).
att(757,975).
att(738,667).
att(201,484).
att(812,1233).
att(750,970).
att(733,720).
att(81,1426).
att(747,1009).
att(817,1225).
att(812,1199).
att(72,1181).
att(218,489).
att(734,669).
att(82,1421).
att(215,1439).
att(221,582).
att(758,967).
att(815,539).
att(818,1235).
att(722,657).
att(855,659).
att(816,516).
att(150,1014).
att(808,1241).
att(812,571).
att(150,1019).
att(818,572).
att(808,589).
att(215,703).
att(758,1008).
att(805,1303).
att(219,639).
att(817,1278).
att(149,1045).
att(154,1023).
att(155,908).
att(805,1234).
att(814,1145).
att(817,1307).
att(815,1126).
att(148,885).
att(815,1273).
att(808,1301).
att(863,749).
att(155,604).
att(212,1124).
att(126,546).
att(863,760).
att(486,293).
att(201,226).
att(795,852).
att(73,623).
att(150,715).
att(150,717).
att(811,657).
att(109,622).
att(805,892).
att(489,270).
att(201,181).
att(154,706).
att(762,728).
att(73,682).
att(124,542).
att(759,766).
att(147,664).
att(112,681).
att(155,637).
att(80,1141).
att(110,647).
att(201,204).
att(73,512).
att(742,726).
att(198,252).
att(815,1067).
att(217,233).
att(112,682).
att(748,782).
att(862,741).
att(146,704).
att(130,601).
att(871,825).
att(862,737).
att(745,732).
att(126,605).
att(155,575).
att(154,755).
att(212,517).
att(219,288).
att(917,724).
att(822,695).
att(82,675).
att(795,894).
att(484,363).
att(148,788).
att(156,618).
att(490,372).
att(910,712).
att(792,874).
att(820,708).
att(126,638).
att(911,709).
att(483,324).
att(912,741).
att(795,916).
att(128,704).
att(107,549).
att(108,550).
att(863,786).
att(492,404).
att(917,697).
att(917,701).
att(912,653).
att(155,643).
att(797,890).
att(130,691).
att(916,720).
att(73,625).
att(75,1135).
att(869,764).
att(105,677).
att(875,730).
att(779,696).
att(1163,226).
att(131,522).
att(133,611).
att(95,1163).
att(782,692).
att(782,697).
att(768,858).
att(867,654).
att(775,856).
att(852,784).
att(873,695).
att(765,698).
att(103,574).
att(778,714).
att(858,712).
att(753,800).
att(74,535).
att(132,666).
att(73,568).
att(108,640).
att(860,711).
att(105,641).
att(76,573).
att(749,732).
att(750,818).
att(859,667).
att(133,640).
att(102,612).
att(131,641).
att(131,642).
att(112,540).
att(774,997).
att(775,967).
att(109,565).
att(72,1141).
att(776,936).
att(102,670).
att(103,655).
att(103,656).
att(778,779).
att(108,623).
att(219,838).
att(802,804).
att(889,811).
att(963,696).
att(773,616).
att(199,837).
att(777,690).
att(774,685).
att(896,823).
att(830,699).
att(73,139).
att(219,834).
att(965,694).
att(771,672).
att(103,248).
att(219,981).
att(851,1074).
att(108,248).
att(825,669).
att(130,518).
att(767,664).
att(894,807).
att(787,804).
att(216,970).
att(772,702).
att(772,703).
att(756,531).
att(128,535).
att(790,797).
att(846,1087).
att(218,1006).
att(850,1072).
att(958,667).
att(829,657).
att(216,1027).
att(789,748).
att(220,969).
att(200,1023).
att(751,546).
att(219,1027).
att(106,568).
att(824,779).
att(826,769).
att(750,580).
att(528,405).
att(524,395).
att(957,779).
att(81,78).
att(133,538).
att(956,782).
att(956,779).
att(127,627).
att(605,276).
att(108,585).
att(133,565).
att(831,743).
att(751,596).
att(108,590).
att(87,93).
att(75,206).
att(82,136).
att(601,322).
att(853,1127).
att(81,142).
att(830,737).
att(215,158).
att(603,345).
att(753,611).
att(123,655).
att(212,143).
att(965,724).
att(107,1121).
att(596,306).
att(750,615).
att(965,731).
att(853,1148).
att(214,91).
att(830,694).
att(198,838).
att(128,650).
att(596,290).
att(417,1165).
att(213,163).
att(829,735).
att(417,1167).
att(746,671).
att(890,657).
att(214,192).
att(215,187).
att(914,807).
att(220,902).
att(807,806).
att(892,654).
att(146,541).
att(80,228).
att(148,550).
att(213,1002).
att(549,280).
att(821,781).
att(72,297).
att(555,293).
att(913,809).
att(746,611).
att(912,778).
att(152,569).
att(220,93).
att(820,741).
att(753,651).
att(756,721).
att(813,731).
att(152,592).
att(213,1052).
att(807,723).
att(215,227).
att(150,531).
att(542,307).
att(758,571).
att(87,1025).
att(911,736).
att(822,741).
att(149,1120).
att(135,1168).
att(87,204).
att(813,769).
att(542,303).
att(198,1046).
att(784,729).
att(814,866).
att(854,1036).
att(896,779).
att(151,607).
att(148,631).
att(153,608).
att(850,1018).
att(200,885).
att(149,598).
att(146,603).
att(221,173).
att(791,728).
att(148,623).
att(129,1121).
att(220,1051).
att(149,682).
att(153,655).
att(542,347).
att(849,1062).
att(129,492).
att(148,672).
att(154,684).
att(129,490).
att(784,698).
att(785,699).
att(791,732).
att(808,888).
att(153,645).
att(909,823).
att(124,496).
att(201,905).
att(557,402).
att(550,396).
att(783,716).
att(821,813).
att(758,673).
att(217,904).
att(221,192).
att(555,404).
att(154,673).
att(221,879).
att(199,140).
att(860,1136).
att(311,783).
att(750,344).
att(312,785).
att(1013,733).
att(636,271).
att(770,1394).
att(770,1395).
att(582,398).
att(315,823).
att(315,828).
att(932,826).
att(860,1097).
att(242,1073).
att(794,458).
att(581,382).
att(1347,657).
att(239,1074).
att(1016,740).
att(584,366).
att(243,1101).
att(107,43).
att(197,1166).
att(936,823).
att(108,46).
att(775,1396).
att(104,15).
att(792,469).
att(863,1098).
att(104,13).
att(800,493).
att(771,1395).
att(154,273).
att(768,1391).
att(1012,712).
att(773,1388).
att(799,504).
att(758,295).
att(241,1133).
att(380,987).
att(126,94).
att(752,393).
att(1017,716).
att(1348,735).
att(639,273).
att(777,1388).
att(1017,711).
att(123,144).
att(103,69).
att(788,533).
att(235,1152).
att(753,411).
att(632,328).
att(746,1441).
att(147,289).
att(1351,778).
att(775,444).
att(915,1106).
att(794,563).
att(371,1062).
att(380,1038).
att(428,1167).
att(746,1258).
att(381,1034).
att(775,455).
att(512,1163).
att(1011,813).
att(512,1169).
att(756,1447).
att(772,426).
att(206,1161).
att(426,1166).
att(426,1167).
att(112,21).
att(1319,654).
att(753,1266).
att(754,1443).
att(774,442).
att(133,92).
att(378,1072).
att(634,362).
att(771,1192).
att(104,116).
att(110,16).
att(75,25).
att(915,1081).
att(73,5).
att(1318,709).
att(1353,713).
att(776,1179).
att(373,1085).
att(768,461).
att(856,1118).
att(755,1255).
att(775,1192).
att(777,450).
att(108,57).
att(1318,653).
att(908,1034).
att(767,460).
att(871,1096).
att(770,475).
att(1320,701).
att(865,1064).
att(938,738).
att(796,1371).
att(1314,697).
att(1352,723).
att(756,431).
att(605,367).
att(964,828).
att(112,14).
att(935,699).
att(937,699).
att(373,1103).
att(600,352).
att(960,801).
att(599,344).
att(768,474).
att(123,271).
att(128,287).
att(812,1170).
att(827,789).
att(959,804).
att(153,402).
att(361,1032).
att(380,1152).
att(598,389).
att(746,432).
att(755,454).
att(1354,749).
att(829,784).
att(934,665).
att(1317,780).
att(72,38).
att(872,1091).
att(800,1422).
att(756,437).
att(831,821).
att(777,485).
att(373,1133).
att(361,1060).
att(125,287).
att(958,811).
att(381,1151).
att(746,412).
att(351,985).
att(867,1087).
att(605,388).
att(830,813).
att(1318,803).
att(1315,748).
att(775,1447).
att(112,120).
att(678,1168).
att(798,1178).
att(937,813).
att(864,1075).
att(753,449).
att(130,326).
att(1289,659).
att(934,760).
att(87,30).
att(356,1088).
att(799,1180).
att(598,401).
att(797,1198).
att(768,561).
att(768,559).
att(126,325).
att(209,1166).
att(373,1157).
att(357,1035).
att(750,423).
att(754,451).
att(938,760).
att(747,423).
att(770,559).
att(931,745).
att(1317,749).
att(1315,778).
att(81,18).
att(356,1096).
att(874,1157).
att(156,388).
att(577,347).
att(358,1090).
att(1166,1371).
att(1291,700).
att(81,19).
att(123,370).
att(931,735).
att(576,304).
att(1319,803).
att(581,345).
att(87,14).
att(123,385).
att(799,1210).
att(1317,783).
att(812,1421).
att(848,1472).
att(1063,759).
att(673,309).
att(80,1214).
att(964,1078).
att(672,300).
att(957,1060).
att(82,1228).
att(818,1422).
att(79,1226).
att(798,325).
att(654,136).
att(800,349).
att(685,273).
att(213,1228).
att(805,1439).
att(817,1420).
att(755,55).
att(956,1031).
att(355,766).
att(817,1422).
att(351,807).
att(892,1111).
att(334,714).
att(962,1031).
att(690,347).
att(1057,736).
att(815,1439).
att(798,347).
att(815,1445).
att(150,6).
att(957,980).
att(790,344).
att(819,1420).
att(358,786).
att(797,348).
att(796,366).
att(956,1058).
att(337,692).
att(1042,781).
att(817,1442).
att(755,170).
att(355,813).
att(853,1496).
att(73,1386).
att(850,1429).
att(353,743).
att(1067,733).
att(852,1416).
att(212,1214).
att(1065,741).
att(337,713).
att(691,306).
att(964,1054).
att(148,3).
att(819,1441).
att(338,713).
att(849,1492).
att(211,1220).
att(963,1127).
att(798,384).
att(817,1200).
att(812,1212).
att(753,166).
att(217,1193).
att(260,1055).
att(965,1111).
att(816,1180).
att(958,1128).
att(211,1302).
att(81,1271).
att(867,1433).
att(959,1096).
att(357,802).
att(815,1183).
att(686,348).
att(792,388).
att(1069,826).
att(816,1186).
att(768,271).
att(819,412).
att(81,1342).
att(294,1160).
att(262,1032).
att(1067,802).
att(814,1366).
att(960,1109).
att(253,1064).
att(79,1336).
att(664,291).
att(666,280).
att(481,1160).
att(154,58).
att(642,291).
att(260,1084).
att(799,1292).
att(965,1094).
att(259,1035).
att(866,1378).
att(805,416).
att(253,979).
att(805,417).
att(154,34).
att(960,1079).
att(154,36).
att(79,1355).
att(775,332).
att(963,1108).
att(774,309).
att(777,326).
att(199,1195).
att(768,305).
att(148,33).
att(337,769).
att(334,726).
att(691,389).
att(956,1076).
att(148,121).
att(810,451).
att(634,397).
att(890,1032).
att(130,5).
att(967,749).
att(318,662).
att(214,1385).
att(253,1081).
att(216,1238).
att(968,743).
att(128,25).
att(773,330).
att(199,1251).
att(619,403).
att(316,711).
att(251,1084).
att(260,1102).
att(616,275).
att(887,977).
att(917,1154).
att(154,59).
att(773,343).
att(815,453).
att(318,665).
att(815,444).
att(816,442).
att(220,1247).
att(909,1110).
att(996,731).
att(260,1130).
att(149,96).
att(308,716).
att(268,1165).
att(150,94).
att(335,801).
att(314,700).
att(917,1127).
att(768,366).
att(968,727).
att(155,46).
att(614,280).
att(810,464).
att(616,304).
att(767,369).
att(755,276).
att(149,118).
att(126,7).
att(911,1103).
att(1010,830).
att(776,401).
att(776,400).
att(1011,823).
att(635,399).
att(628,392).
att(628,397).
att(810,475).
att(617,291).
att(1059,709).
att(241,1035).
att(261,1158).
att(800,421).
att(200,1279).
att(810,499).
att(792,417).
att(852,1455).
att(754,293).
att(963,991).
att(618,352).
att(318,766).
att(855,1436).
att(155,62).
att(755,298).
att(849,1436).
att(965,987).
att(311,723).
att(221,1356).
att(746,277).
att(242,985).
att(149,172).
att(853,1453).
att(889,1079).
att(539,1169).
att(235,985).
att(614,303).
att(453,1167).
att(752,291).
att(613,388).
att(689,279).
att(805,556).
att(218,1413).
att(133,9).
att(130,52).
att(312,749).
att(1063,654).
att(534,1162).
att(757,332).
att(852,1414).
att(315,807).
att(606,400).
att(751,323).
att(198,1386).
att(1042,720).
att(129,62).
att(251,1128).
att(800,453).
att(129,70).
att(797,429).
att(753,323).
att(1039,661).
att(854,1399).
att(1040,659).
att(315,759).
att(890,1071).
att(618,368).
att(913,1450).
att(133,1187).
att(777,839).
att(156,1359).
att(1012,1107).
att(792,18).
att(798,49).
att(706,344).
att(908,1453).
att(235,740).
att(908,1454).
att(770,999).
att(860,1503).
att(751,944).
att(710,298).
att(126,1306).
att(771,982).
att(795,44).
att(747,954).
att(814,174).
att(464,1160).
att(109,1424).
att(155,1411).
att(1010,1085).
att(244,761).
att(104,1196).
att(244,749).
att(857,1503).
att(73,1442).
att(798,60).
att(237,765).
att(107,1170).
att(132,1232).
att(800,62).
att(129,1343).
att(105,1199).
att(1135,1165).
att(73,1260).
att(111,1443).
att(1139,1162).
att(112,1438).
att(112,1439).
att(107,1188).
att(107,1185).
att(990,1082).
att(77,1188).
att(750,1023).
att(966,1079).
att(109,1177).
att(244,783).
att(746,1053).
att(237,806).
att(375,667).
att(706,403).
att(788,115).
att(896,1402).
att(112,1186).
att(754,1020).
att(703,410).
att(750,1048).
att(110,1186).
att(237,778).
att(755,1025).
att(747,1049).
att(243,804).
att(896,1325).
att(912,1523).
att(796,118).
att(377,738).
att(984,987).
att(914,1497).
att(992,1068).
att(75,1208).
att(994,1060).
att(373,709).
att(790,92).
att(381,694).
att(910,1451).
att(818,275).
att(795,174).
att(996,979).
att(506,1165).
att(1162,888).
att(788,99).
att(76,1202).
att(935,1107).
att(794,1003).
att(800,978).
att(777,62).
att(374,741).
att(472,1161).
att(860,1398).
att(105,1342).
att(812,279).
att(474,1164).
att(772,62).
att(108,1423).
att(376,765).
att(792,1002).
att(288,1162).
att(869,1537).
att(373,733).
att(123,1171).
att(777,36).
att(933,1081).
att(796,999).
att(856,1339).
att(294,1165).
att(776,35).
att(800,972).
att(815,322).
att(156,1179).
att(776,116).
att(107,1407).
att(814,300).
att(380,821).
att(775,114).
att(132,1439).
att(110,1235).
att(131,1440).
att(810,332).
att(799,1026).
att(864,1325).
att(872,1500).
att(959,1113).
att(377,742).
att(814,322).
att(133,1405).
att(814,330).
att(936,1033).
att(932,1055).
att(965,1151).
att(817,352).
att(376,762).
att(808,343).
att(775,119).
att(872,1536).
att(815,368).
att(772,174).
att(815,366).
att(111,1305).
att(641,406).
att(670,392).
att(932,1113).
att(371,791).
att(102,1203).
att(110,1298).
att(805,345).
att(359,739).
att(379,829).
att(107,1209).
att(112,1260).
att(816,390).
att(777,1020).
att(808,372).
att(774,882).
att(792,838).
att(753,3).
att(859,1432).
att(819,394).
att(660,369).
att(777,169).
att(72,1244).
att(770,118).
att(1012,980).
att(770,115).
att(106,1211).
att(108,1365).
att(859,1454).
att(104,1426).
att(794,975).
att(805,382).
att(102,1425).
att(80,1228).
att(80,1231).
att(72,1279).
att(750,36).
att(861,1495).
att(75,1362).
att(355,723).
att(353,697).
att(756,43).
att(800,841).
att(112,1273).
att(937,1093).
att(373,828).
att(770,166).
att(770,162).
att(788,974).
att(938,1092).
att(866,1550).
att(755,38).
att(642,409).
att(776,929).
att(75,1276).
att(857,1455).
att(818,1000).
att(111,1016).
att(150,1190).
att(871,134).
att(1069,1118).
att(799,954).
att(965,1472).
att(747,1222).
att(1065,1132).
att(73,963).
att(80,855).
att(816,1026).
att(87,853).
att(872,160).
att(751,1279).
att(1040,1136).
att(75,1040).
att(150,1206).
att(814,877).
att(152,1183).
att(1042,1131).
att(79,916).
att(147,1211).
att(758,1199).
att(957,1412).
att(963,1450).
att(758,1183).
att(110,1059).
att(110,1067).
att(805,904).
att(1042,1099).
att(846,203).
att(888,1555).
att(1069,1109).
att(746,1343).
att(795,907).
att(938,1452).
att(156,1183).
att(794,928).
att(874,203).
att(874,206).
att(757,1362).
att(956,1500).
att(866,226).
att(153,1199).
att(798,921).
att(127,1388).
att(146,1221).
att(918,1399).
att(964,1502).
att(815,20).
att(818,6).
att(808,972).
att(870,183).
att(124,1390).
att(790,921).
att(961,1537).
att(80,1013).
att(812,971).
att(866,177).
att(963,1534).
att(818,971).
att(214,887).
att(868,185).
att(808,1002).
att(753,1336).
att(805,1002).
att(753,1385).
att(1059,1156).
att(149,1170).
att(213,962).
att(810,17).
att(150,1236).
att(82,967).
att(216,873).
att(852,159).
att(152,1269).
att(754,1181).
att(198,874).
att(260,736).
att(751,1186).
att(1042,1056).
att(984,1105).
att(986,1101).
att(1039,977).
att(216,855).
att(755,1184).
att(79,1011).
att(755,1182).
att(151,1308).
att(754,1196).
att(153,1280).
att(199,851).
att(996,1091).
att(816,11).
att(256,708).
att(213,1011).
att(130,1189).
att(130,1187).
att(887,1398).
att(261,769).
att(257,723).
att(814,37).
att(849,93).
att(155,1230).
att(916,1553).
att(819,39).
att(911,1536).
att(915,1500).
att(150,1307).
att(909,1503).
att(152,1363).
att(851,210).
att(219,957).
att(815,900).
att(153,1415).
att(256,748).
att(251,763).
att(149,1338).
att(497,1166).
att(1069,1071).
att(491,1160).
att(200,915).
att(848,191).
att(848,185).
att(846,184).
att(124,1228).
att(218,893).
att(150,1420).
att(259,769).
att(790,29).
att(1063,1031).
att(125,1246).
att(236,720).
att(261,829).
att(750,1175).
att(846,193).
att(198,1012).
att(146,1268).
att(847,187).
att(241,696).
att(799,26).
att(150,1256).
att(756,1178).
att(125,1214).
att(992,1117).
att(126,1216).
att(149,1413).
att(889,1429).
att(818,118).
att(146,1264).
att(854,190).
att(891,1458).
att(808,117).
att(153,1269).
att(808,122).
att(890,1460).
att(887,1495).
att(199,936).
att(1015,1498).
att(593,705).
att(917,197).
att(967,1383).
att(1126,826).
att(591,701).
att(1010,1517).
att(1119,806).
att(904,22).
att(998,1567).
att(588,665).
att(927,116).
att(916,227).
att(1016,1534).
att(902,2).
att(914,182).
att(594,716).
att(590,667).
att(1026,1234).
att(1000,1251).
att(1000,1249).
att(914,179).
att(1001,1251).
att(1123,804).
att(968,1410).
att(915,180).
att(593,735).
att(1016,1477).
att(954,276).
att(917,178).
att(897,14).
att(1120,827).
att(1025,1278).
att(1000,1305).
att(1001,1302).
att(591,734).
att(1014,1461).
att(912,191).
att(1017,1491).
att(891,137).
att(887,160).
att(1007,1228).
att(853,489).
att(967,1458).
att(589,729).
att(897,50).
att(888,93).
att(990,1430).
att(1009,1231).
att(949,323).
att(900,48).
att(947,300).
att(1025,1330).
att(594,764).
att(1005,1233).
att(1000,1343).
att(1007,1189).
att(1006,1193).
att(949,343).
att(890,89).
att(727,1188).
att(904,121).
att(914,266).
att(896,171).
att(594,786).
att(988,1374).
att(882,4).
att(585,761).
att(901,63).
att(1012,1517).
att(1012,1516).
att(593,749).
att(1005,1251).
att(968,1457).
att(592,821).
att(862,184).
att(595,735).
att(692,880).
att(564,705).
att(880,15).
att(587,832).
att(857,183).
att(592,825).
att(591,827).
att(592,827).
att(883,28).
att(941,365).
att(883,26).
att(593,829).
att(1004,1305).
att(565,711).
att(944,400).
att(942,395).
att(949,405).
att(870,230).
att(937,1495).
att(978,1231).
att(866,249).
att(940,392).
att(875,296).
att(981,1227).
att(870,266).
att(936,1416).
att(1269,1161).
att(940,403).
att(940,402).
att(880,40).
att(969,1279).
att(877,59).
att(882,53).
att(570,809).
att(1444,1162).
att(568,744).
att(856,252).
att(907,51).
att(883,65).
att(856,208).
att(922,344).
att(574,696).
att(976,1238).
att(934,1508).
att(571,793).
att(973,1240).
att(927,362).
att(569,826).
att(998,1455).
att(1014,1412).
att(570,787).
att(566,804).
att(837,1219).
att(931,1533).
att(971,1403).
att(1015,1402).
att(571,803).
att(974,1240).
att(572,784).
att(534,659).
att(876,120).
att(1017,1408).
att(885,25).
att(959,267).
att(1049,1228).
att(883,1336).
att(1046,1216).
att(835,890).
att(981,961).
att(962,265).
att(963,254).
att(886,1233).
att(836,910).
att(1057,1549).
att(1065,1500).
att(1141,716).
att(1137,665).
att(846,703).
att(1047,1235).
att(974,997).
att(959,183).
att(1141,665).
att(1039,1503).
att(870,546).
att(849,704).
att(1043,1221).
att(1063,1503).
att(842,860).
att(936,225).
att(1049,1308).
att(1137,699).
att(940,15).
att(1134,705).
att(870,673).
att(714,964).
att(941,3).
att(1045,1246).
att(947,29).
att(1046,1301).
att(884,1277).
att(1145,734).
att(839,875).
att(944,15).
att(834,853).
att(952,16).
att(918,210).
att(873,673).
att(842,888).
att(1021,1191).
att(870,612).
att(838,913).
att(1049,1362).
att(939,37).
att(872,641).
att(938,187).
att(1052,1233).
att(869,628).
att(930,83).
att(837,1039).
att(1140,727).
att(934,157).
att(842,1028).
att(849,596).
att(895,254).
att(962,88).
att(1059,1404).
att(843,1012).
att(1041,1450).
att(1142,811).
att(839,937).
att(942,122).
att(890,255).
att(891,181).
att(853,526).
att(921,22).
att(1142,824).
att(840,906).
att(839,994).
att(1120,701).
att(944,99).
att(844,1014).
att(909,301).
att(888,141).
att(994,1475).
att(1141,791).
att(853,550).
att(1039,1327).
att(838,930).
att(889,137).
att(1126,692).
att(1145,826).
att(949,172).
att(855,550).
att(1051,1309).
att(939,115).
att(842,883).
att(848,617).
att(850,691).
att(1025,1187).
att(1067,1460).
att(871,490).
att(840,844).
att(1063,1493).
att(1139,828).
att(848,638).
att(841,988).
att(892,299).
att(852,606).
att(892,296).
att(959,139).
att(961,137).
att(1030,1187).
att(1067,1492).
att(852,611).
att(920,13).
att(838,1005).
att(854,612).
att(1053,1413).
att(963,142).
att(1040,1493).
att(1030,1245).
att(920,64).
att(1114,781).
att(1059,1384).
att(850,577).
att(888,202).
att(927,69).
att(834,1023).
att(890,238).
att(1123,778).
att(964,163).
att(963,159).
att(958,171).
att(1119,729).
att(1002,869).
att(921,1271).
att(926,1357).
att(1001,862).
att(922,1272).
att(1026,867).
att(1030,860).
att(1019,1012).
att(1020,1013).
att(920,1343).
att(1015,245).
att(923,1362).
att(1012,266).
att(921,1334).
att(912,607).
att(919,1356).
att(913,581).
att(1003,861).
att(967,173).
att(929,1230).
att(1030,891).
att(920,1403).
att(992,254).
att(966,249).
att(888,598).
att(1041,160).
att(920,1336).
att(922,1387).
att(851,849).
att(893,605).
att(921,1411).
att(929,1246).
att(984,196).
att(887,549).
att(1005,860).
att(901,1310).
att(970,874).
att(901,1244).
att(892,551).
att(1025,1011).
att(917,706).
att(988,186).
att(894,526).
att(994,177).
att(1000,1016).
att(1010,159).
att(882,1193).
att(862,607).
att(1017,160).
att(863,618).
att(930,233).
att(863,613).
att(902,1340).
att(931,299).
att(858,606).
att(1006,865).
att(1004,856).
att(930,252).
att(865,607).
att(899,1270).
att(899,1275).
att(1008,935).
att(863,578).
att(1007,964).
att(876,1221).
att(933,204).
att(906,1248).
att(1008,962).
att(897,1363).
att(866,707).
att(930,210).
att(863,596).
att(881,1222).
att(971,931).
att(883,1242).
att(1005,984).
att(712,1254).
att(910,548).
att(659,1180).
att(864,717).
att(857,717).
att(877,1249).
att(1015,181).
att(862,668).
att(1047,1199).
att(917,482).
att(973,871).
att(863,691).
att(934,282).
att(997,178).
att(997,175).
att(880,1278).
att(877,1308).
att(932,527).
att(884,853).
att(876,934).
att(938,600).
att(881,918).
att(837,494).
att(1007,666).
att(957,664).
att(886,862).
att(936,551).
att(978,639).
att(961,685).
att(937,542).
att(886,866).
att(906,967).
att(959,612).
att(878,1057).
att(843,486).
att(942,1230).
att(931,690).
att(1044,912).
att(876,1063).
att(877,1059).
att(1048,856).
att(840,553).
att(976,660).
att(982,704).
att(859,867).
att(834,548).
att(1047,937).
att(975,686).
att(836,673).
att(1045,910).
att(834,489).
att(1048,1013).
att(1052,872).
att(1044,998).
att(891,642).
att(952,1305).
att(895,717).
att(833,596).
att(942,1303).
att(1052,867).
att(1022,873).
att(887,664).
att(1023,846).
att(946,1249).
att(947,1248).
att(1067,193).
att(939,1251).
att(990,297).
att(925,1187).
att(988,248).
att(994,284).
att(921,1185).
att(988,252).
att(1052,865).
att(840,577).
att(986,266).
att(940,1311).
att(1023,874).
att(892,637).
att(1022,860).
att(1065,246).
att(959,619).
att(921,1225).
att(870,868).
att(963,635).
att(963,632).
att(842,641).
att(947,1342).
att(961,583).
att(1051,960).
att(1019,917).
att(928,1236).
att(928,1242).
att(1041,265).
att(1067,204).
att(1020,965).
att(924,1214).
att(1165,440).
att(959,524).
att(892,715).
att(873,854).
att(1022,930).
att(888,707).
att(971,1194).
att(992,619).
att(592,1458).
att(968,628).
att(974,400).
att(891,856).
att(678,1131).
att(966,615).
att(981,1444).
att(892,856).
att(886,944).
att(519,1155).
att(974,403).
att(978,1443).
att(586,1450).
att(675,1093).
att(835,1294).
att(1028,507).
att(992,575).
att(1003,466).
att(590,1417).
att(1561,1163).
att(520,1128).
att(1001,511).
att(585,1455).
att(1564,1162).
att(1564,1165).
att(837,403).
att(589,1520).
att(994,602).
att(894,866).
att(976,1281).
att(1557,1167).
att(970,459).
att(1560,1161).
att(595,1329).
att(969,433).
att(1028,560).
att(594,1476).
att(1008,1184).
att(1017,717).
att(988,549).
att(988,557).
att(564,1404).
att(588,1552).
att(1069,550).
att(567,1406).
att(1046,907).
att(586,1506).
att(572,1383).
att(648,1078).
att(974,1370).
att(969,478).
att(1040,602).
att(1005,470).
att(681,1096).
att(984,706).
att(977,665).
att(682,1072).
att(588,1500).
att(593,1498).
att(885,900).
att(594,1551).
att(981,1372).
att(591,1552).
att(565,1412).
att(644,1085).
att(844,391).
att(973,432).
att(652,993).
att(572,1432).
att(889,916).
att(968,642).
att(1047,929).
att(836,1428).
att(994,691).
att(620,993).
att(1049,919).
att(621,983).
att(975,412).
att(833,389).
att(585,1553).
att(647,1109).
att(571,1450).
att(667,201).
att(682,1092).
att(994,607).
att(683,1092).
att(834,392).
att(996,611).
att(1040,483).
att(1006,552).
att(566,1458).
att(595,1523).
att(1001,1198).
att(915,866).
att(1009,1269).
att(916,860).
att(651,1029).
att(982,425).
att(917,847).
att(684,1155).
att(835,417).
att(683,1155).
att(934,706).
att(1005,554).
att(1007,1284).
att(680,1154).
att(975,439).
att(916,870).
att(932,666).
att(536,1327).
att(936,710).
att(978,477).
att(1011,555).
att(997,600).
att(997,599).
att(836,444).
att(534,1414).
att(650,1103).
att(932,690).
att(540,1341).
att(595,1514).
att(971,552).
att(568,1536).
att(982,447).
att(655,1131).
att(564,1568).
att(1015,670).
att(844,416).
att(975,463).
att(883,905).
att(972,1446).
att(976,473).
att(1013,606).
att(1005,1390).
att(877,944).
att(835,473).
att(994,490).
att(974,471).
att(996,484).
att(878,954).
att(650,1090).
att(565,1551).
att(1002,1178).
att(969,1438).
att(1004,1421).
att(535,1481).
att(970,1438).
att(1015,613).
att(1008,1427).
att(836,487).
att(1013,619).
att(608,1062).
att(908,914).
att(974,563).
att(1011,584).
att(981,498).
att(621,1136).
att(842,433).
att(536,1450).
att(629,1060).
att(1000,1178).
att(844,440).
att(1060,769).
att(655,831).
att(1030,1281).
att(651,783).
att(1060,765).
att(934,890).
att(1027,1284).
att(937,958).
att(1043,473).
att(1002,350).
att(934,893).
att(975,117).
att(1056,780).
att(534,1072).
att(885,474).
att(534,1076).
att(1064,724).
att(1053,438).
att(1050,1397).
att(1060,736).
att(541,1117).
att(1047,495).
att(1006,273).
att(1047,498).
att(1055,708).
att(535,1096).
att(1058,700).
att(842,41).
att(938,866).
att(1045,1176).
att(972,271).
att(1051,414).
att(1051,1428).
att(610,718).
att(1143,1452).
att(837,101).
att(935,857).
att(972,275).
att(920,952).
att(918,914).
att(1056,741).
att(620,828).
att(630,759).
att(1000,408).
att(1026,1388).
att(629,762).
att(1036,739).
att(1016,857).
att(518,1081).
att(1037,736).
att(624,748).
att(998,917).
att(900,954).
att(840,61).
att(1053,421).
att(840,36).
att(1021,436).
att(1190,1160).
att(1011,855).
att(839,63).
att(904,939).
att(1006,321).
att(1038,695).
att(1053,424).
att(1054,802).
att(1053,1174).
att(840,121).
att(626,820).
att(842,92).
att(1068,787).
att(1021,1198).
att(930,918).
att(1030,1424).
att(1019,450).
att(1137,1498).
att(1114,1398).
att(1028,1444).
att(1034,662).
att(931,956).
att(1062,821).
att(1051,1192).
att(839,114).
att(1009,382).
att(1006,362).
att(1009,387).
att(624,809).
att(844,115).
att(1028,419).
att(1063,615).
att(1004,389).
att(959,915).
att(980,740).
att(1069,617).
att(1126,1480).
att(1020,464).
att(512,1097).
att(979,722).
att(625,827).
att(957,873).
att(1134,1551).
att(841,84).
att(981,278).
att(1046,1391).
att(544,1092).
att(987,736).
att(1065,635).
att(960,865).
att(1067,619).
att(957,867).
att(1122,1382).
att(626,787).
att(627,786).
att(631,830).
att(1006,392).
att(610,786).
att(987,737).
att(515,1092).
att(886,1366).
att(982,291).
att(979,713).
att(1043,1442).
att(544,1156).
att(1024,559).
att(964,863).
att(1000,429).
att(1120,1477).
att(518,1155).
att(674,1066).
att(1180,1162).
att(974,310).
att(1000,441).
att(982,321).
att(964,874).
att(963,869).
att(995,697).
att(1019,509).
att(1173,1169).
att(675,1080).
att(974,327).
att(926,939).
att(1054,653).
att(1045,1186).
att(974,330).
att(987,785).
att(1000,457).
att(522,1100).
att(1026,475).
att(1570,1163).
att(676,1075).
att(936,869).
att(1170,1169).
att(1120,1528).
att(957,958).
att(1049,1186).
att(1125,1536).
att(679,1038).
att(1053,1438).
att(980,763).
att(521,1098).
att(1022,1280).
att(1022,1282).
att(960,963).
att(678,1100).
att(591,1431).
att(976,372).
att(885,1186).
att(1044,1213).
att(975,372).
att(677,1102).
att(675,1072).
att(1046,1376).
att(1125,1549).
att(976,388).
att(676,1109).
att(676,1106).
att(1189,657).
att(1197,705).
att(900,421).
att(1073,661).
att(1397,1163).
att(593,1089).
att(988,932).
att(766,1002).
att(974,885).
att(521,748).
att(902,456).
att(1089,793).
att(1030,118).
att(720,327).
att(1079,709).
att(968,930).
att(1121,1150).
att(1121,1156).
att(966,1017).
att(705,324).
att(994,931).
att(1077,654).
att(1044,323).
att(1119,1127).
att(921,560).
att(1120,1158).
att(972,9).
att(1045,330).
att(716,386).
att(975,901).
att(645,711).
att(975,899).
att(1025,170).
att(591,1091).
att(899,474).
att(793,1229).
att(974,920).
att(984,914).
att(969,1006).
att(1088,765).
att(645,653).
att(679,807).
att(970,7).
att(970,8).
att(899,445).
att(1043,362).
att(677,820).
att(684,729).
att(1039,962).
att(839,923).
att(1077,769).
att(647,694).
att(586,1093).
att(969,12).
att(648,694).
att(1185,779).
att(711,392).
att(975,973).
att(1008,32).
att(1073,763).
att(843,897).
att(899,470).
att(1049,392).
att(1002,101).
att(1022,275).
att(1004,16).
att(1070,780).
att(1075,738).
att(1072,764).
att(1021,278).
att(1067,915).
att(592,1148).
att(1047,407).
att(999,92).
att(978,1006).
att(897,491).
att(973,1003).
att(684,759).
att(1046,411).
att(644,722).
att(586,1128).
att(1022,289).
att(1074,692).
att(1078,738).
att(1004,63).
att(1199,734).
att(972,40).
att(975,1003).
att(680,759).
att(1052,305).
att(590,1155).
att(904,487).
att(571,1061).
att(588,1127).
att(566,1064).
att(837,886).
att(986,1015).
att(1009,68).
att(1189,705).
att(711,408).
att(900,505).
att(1024,303).
att(1483,1169).
att(1089,826).
att(569,1037).
att(590,1110).
att(1020,298).
att(564,980).
att(1206,1160).
att(645,722).
att(1082,823).
att(882,451).
att(907,473).
att(651,663).
att(1012,958).
att(1029,745).
att(1004,71).
att(669,309).
att(1082,667).
att(972,897).
att(1081,720).
att(970,119).
att(621,665).
att(1018,801).
att(646,743).
att(1006,54).
att(1014,963).
att(1035,760).
att(657,291).
att(1037,742).
att(663,307).
att(1024,352).
att(653,277).
att(907,502).
att(622,712).
att(883,464).
att(969,954).
att(571,1096).
att(835,19).
att(623,699).
att(1016,887).
att(669,352).
att(972,145).
att(881,504).
att(662,327).
att(1006,168).
att(969,939).
att(566,1108).
att(1051,398).
att(665,346).
att(655,692).
att(622,665).
att(623,654).
att(1012,865).
att(623,667).
att(1017,916).
att(572,1090).
att(1009,921).
att(570,1098).
att(681,826).
att(565,1102).
att(650,769).
att(877,499).
att(969,1027).
att(1004,1009).
att(567,1147).
att(622,733).
att(1000,277).
att(1024,397).
att(835,32).
att(975,944).
att(568,1115).
att(999,271).
att(1019,399).
att(1083,696).
att(652,723).
att(565,1133).
att(1207,1168).
att(982,119).
att(656,803).
att(978,122).
att(711,281).
att(1043,423).
att(994,869).
att(1008,1001).
att(974,117).
att(623,749).
att(1002,309).
att(976,63).
att(716,295).
att(566,1153).
att(622,731).
att(622,730).
att(1087,711).
att(973,63).
att(720,277).
att(967,866).
att(669,396).
att(1044,425).
att(1082,714).
att(1018,832).
att(564,832).
att(1105,825).
att(1046,46).
att(737,362).
att(738,386).
att(1214,732).
att(1090,769).
att(1144,979).
att(565,823).
att(1036,983).
att(927,403).
att(1145,1062).
att(1038,993).
att(1223,741).
att(738,363).
att(735,347).
att(534,693).
att(535,694).
att(539,738).
att(1000,941).
att(1048,10).
att(838,1180).
att(833,1189).
att(839,1170).
att(843,1215).
att(901,287).
att(1137,1068).
att(1092,694).
att(1102,832).
att(1227,830).
att(738,409).
att(834,1228).
att(1046,59).
att(854,295).
att(855,283).
att(1106,824).
att(1228,823).
att(731,270).
att(1093,693).
att(1220,732).
att(846,271).
att(1044,66).
att(842,1225).
att(1232,791).
att(1048,38).
att(1144,1038).
att(1232,785).
att(1134,1055).
att(929,346).
att(1100,830).
att(1231,827).
att(1216,714).
att(723,344).
att(1028,1026).
att(898,326).
att(1135,1078).
att(722,344).
att(1050,30).
att(947,445).
att(1001,1022).
att(999,1024).
att(1220,829).
att(1214,806).
att(1052,28).
att(1245,714).
att(903,367).
att(1003,886).
att(1003,884).
att(886,118).
att(761,58).
att(1098,760).
att(1145,1073).
att(949,446).
att(1130,659).
att(743,118).
att(884,97).
att(534,745).
att(730,295).
att(927,418).
att(1125,989).
att(853,389).
att(848,347).
att(726,352).
att(1030,1021).
att(1002,876).
att(1027,885).
att(1022,48).
att(1044,166).
att(927,412).
att(544,696).
att(952,469).
att(885,162).
att(1221,780).
att(852,346).
att(539,827).
att(1096,728).
att(539,831).
att(886,169).
att(1142,1107).
att(954,470).
att(833,1234).
att(1051,46).
att(1019,26).
att(1022,10).
att(1137,1103).
att(833,1240).
att(515,701).
att(882,270).
att(1139,1105).
att(1045,71).
att(1047,168).
att(1031,1035).
att(1077,832).
att(1116,1061).
att(1075,791).
att(840,1361).
att(1122,1055).
att(1233,733).
att(1051,926).
att(1123,1054).
att(905,408).
att(1229,700).
att(900,401).
att(1102,738).
att(1137,1111).
att(843,1386).
att(1140,1159).
att(1057,990).
att(834,1362).
att(1050,920).
att(1224,697).
att(1022,70).
att(1073,826).
att(1143,1155).
att(1134,1128).
att(1063,1010).
att(845,1357).
att(1229,711).
att(1231,696).
att(1053,941).
att(941,505).
att(942,497).
att(1119,995).
att(845,1421).
att(696,310).
att(1022,37).
att(1042,996).
att(920,419).
att(700,396).
att(838,1298).
att(927,450).
att(700,397).
att(1101,714).
att(518,762).
att(907,346).
att(981,1170).
att(1224,663).
att(907,352).
att(520,711).
att(834,1407).
att(1020,52).
att(834,1415).
att(1073,807).
att(927,442).
att(1122,1029).
att(699,383).
att(519,669).
att(925,444).
att(840,1290).
att(921,460).
att(1120,1094).
att(675,714).
att(1231,820).
att(1228,761).
att(521,692).
att(1021,884).
att(1126,1098).
att(734,304).
att(1002,24).
att(740,291).
att(1228,809).
att(678,654).
att(1226,731).
att(1107,765).
att(1229,765).
att(1228,778).
att(740,283).
att(522,713).
att(1028,30).
att(545,823).
att(1021,84).
att(1225,769).
att(741,278).
att(844,1207).
att(845,1212).
att(1002,8).
att(1114,1133).
att(594,1054).
att(927,498).
att(1022,903).
att(676,726).
att(519,769).
att(1231,748).
att(674,738).
att(885,293).
att(921,498).
att(1054,1064).
att(1228,736).
att(927,511).
att(1021,928).
att(1233,723).
att(1022,921).
att(739,323).
att(1000,14).
att(1401,1163).
att(1125,1117).
att(840,1427).
att(844,1401).
att(1123,1130).
att(1024,920).
att(486,1162).
att(1027,46).
att(1119,1092).
att(1019,169).
att(740,309).
att(543,1396).
att(567,546).
att(1154,667).
att(568,555).
att(648,227).
att(1241,762).
att(779,409).
att(861,303).
att(1113,762).
att(518,1388).
att(603,1160).
att(587,715).
att(863,283).
att(1124,922).
att(537,1179).
att(874,406).
att(1189,1061).
att(779,393).
att(590,660).
att(1071,1083).
att(1117,742).
att(1235,766).
att(866,384).
att(1185,1029).
att(744,275).
att(1123,946).
att(1111,722).
att(859,326).
att(860,327).
att(860,324).
att(682,266).
att(512,1266).
att(1111,730).
att(1139,1050).
att(513,1445).
att(680,238).
att(1117,781).
att(1124,939).
att(1202,1034).
att(595,579).
att(1147,830).
att(1247,824).
att(1127,699).
att(516,1255).
att(538,1178).
att(569,580).
att(1149,830).
att(680,254).
att(1129,701).
att(644,224).
att(1072,1066).
att(543,1438).
att(679,1262).
att(1197,1131).
att(744,385).
att(1230,991).
att(1202,1110).
att(1151,734).
att(512,1198).
att(759,365).
att(1108,983).
att(1156,726).
att(566,614).
att(519,1256).
att(1126,1052).
att(1236,785).
att(1114,878).
att(1129,786).
att(1201,1146).
att(861,366).
att(1121,1024).
att(856,330).
att(858,347).
att(1199,1095).
att(620,171).
att(748,364).
att(651,179).
att(1110,785).
att(1239,786).
att(595,704).
att(1129,807).
att(539,526).
att(650,225).
att(862,405).
att(1308,714).
att(1157,699).
att(806,274).
att(1125,886).
att(1235,793).
att(1118,823).
att(1074,1087).
att(1202,1102).
att(567,611).
att(1306,654).
att(813,278).
att(1309,720).
att(1242,793).
att(572,642).
att(569,670).
att(1155,718).
att(539,562).
att(1142,834).
att(651,185).
att(655,267).
att(730,394).
att(730,400).
att(1130,766).
att(1131,780).
att(568,1180).
att(870,271).
att(779,274).
att(847,391).
att(649,254).
att(1142,944).
att(724,398).
att(875,277).
att(650,250).
att(875,272).
att(564,641).
att(769,278).
att(723,394).
att(847,366).
att(1244,733).
att(568,704).
att(1253,769).
att(1082,1068).
att(731,362).
att(1138,764).
att(846,370).
att(610,83).
att(763,322).
att(873,325).
att(1142,863).
att(624,158).
att(769,330).
att(574,616).
att(652,282).
att(1215,823).
att(872,321).
att(1088,987).
att(528,1167).
att(1248,697).
att(540,1256).
att(536,1294).
att(765,304).
att(568,1206).
att(1146,711).
att(1251,701).
att(623,266).
att(847,395).
att(728,408).
att(851,402).
att(650,245).
att(724,408).
att(1080,980).
att(630,173).
att(847,392).
att(537,1371).
att(574,660).
att(515,489).
att(1137,913).
att(538,1213).
att(1072,991).
att(1137,876).
att(541,1203).
att(543,1284).
att(1143,881).
att(1237,667).
att(537,635).
att(534,1375).
att(622,292).
att(1133,793).
att(782,304).
att(1149,804).
att(871,306).
att(1134,908).
att(609,138).
att(742,274).
att(1248,749).
att(1251,806).
att(539,1370).
att(1242,712).
att(1133,809).
att(1085,1086).
att(1138,784).
att(544,602).
att(1112,661).
att(764,387).
att(1135,962).
att(1246,781).
att(1084,1037).
att(1134,947).
att(1141,919).
att(873,391).
att(1143,960).
att(1138,809).
att(536,642).
att(573,1364).
att(869,363).
att(608,181).
att(590,1196).
att(1220,1136).
att(610,1480).
att(1279,826).
att(887,332).
att(515,192).
att(893,328).
att(1144,614).
att(1097,1071).
att(1357,663).
att(569,1260).
att(540,247).
att(894,343).
att(518,165).
att(574,301).
att(783,324).
att(624,1491).
att(564,1288).
att(1098,1079).
att(567,1287).
att(789,327).
att(893,310).
att(1270,820).
att(589,1375).
att(569,1292).
att(1096,1086).
att(892,391).
att(1096,1087).
att(1097,1085).
att(1135,641).
att(1090,1073).
att(1145,719).
att(543,206).
att(1220,1106).
att(1121,562).
att(1096,1031).
att(1096,1036).
att(518,186).
att(1219,1036).
att(624,1537).
att(1124,528).
att(1225,1155).
att(1215,1038).
att(1138,1085).
att(802,393).
att(1123,598).
att(957,270).
att(1130,1083).
att(545,230).
att(1148,1029).
att(676,83).
att(831,300).
att(1363,743).
att(824,279).
att(1114,605).
att(823,276).
att(1138,1034).
att(1361,763).
att(609,1508).
att(963,289).
att(626,1500).
att(1362,780).
att(1123,523).
att(1246,1018).
att(827,348).
att(1361,728).
att(1361,724).
att(824,326).
att(1358,741).
att(960,321).
att(1222,1113).
att(1126,618).
att(519,187).
att(956,309).
att(595,1365).
att(1223,1127).
att(1217,1113).
att(1124,671).
att(1253,1033).
att(1114,632).
att(1245,1066).
att(828,332).
att(1220,1150).
att(1357,699).
att(824,307).
att(1217,1097).
att(1251,985).
att(1251,983).
att(801,410).
att(1219,1096).
att(587,1170).
att(617,1167).
att(965,306).
att(888,411).
att(567,1440).
att(916,343).
att(803,328).
att(1153,804).
att(909,303).
att(1308,821).
att(1270,662).
att(1119,689).
att(908,300).
att(1191,1151).
att(1100,1072).
att(1191,1155).
att(859,404).
att(519,188).
att(859,408).
att(858,404).
att(519,182).
att(807,283).
att(1227,1070).
att(915,287).
att(1228,1076).
att(806,283).
att(520,181).
att(1109,1085).
att(1114,613).
att(1122,1203).
att(856,400).
att(678,210).
att(908,349).
att(1102,1083).
att(587,596).
att(912,367).
att(1228,1068).
att(1306,723).
att(1226,977).
att(522,209).
att(820,328).
att(1154,779).
att(1232,1018).
att(1230,1060).
att(1193,1156).
att(1305,766).
att(684,141).
att(787,287).
att(890,274).
att(1090,1029).
att(591,1395).
att(1097,1064).
att(594,639).
att(908,391).
att(1275,731).
att(911,372).
att(674,266).
att(586,601).
att(589,1448).
att(1277,728).
att(895,271).
att(1159,828).
att(1218,979).
att(1225,1130).
att(590,581).
att(811,385).
att(585,600).
att(1228,1110).
att(1094,979).
att(1232,1130).
att(595,551).
att(911,404).
att(647,138).
att(1306,826).
att(572,488).
att(683,188).
att(786,295).
att(801,281).
att(1123,1177).
att(589,607).
att(569,488).
att(1114,1171).
att(680,182).
att(1301,830).
att(1153,827).
att(1271,693).
att(1276,724).
att(593,1448).
att(791,298).
att(822,399).
att(675,230).
att(1228,1107).
att(678,231).
att(1155,823).
att(1275,705).
att(806,397).
att(915,400).
att(917,404).
att(896,281).
att(1272,692).
att(1015,272).
att(1111,1110).
att(1306,1068).
att(593,264).
att(935,392).
att(1238,1154).
att(609,1177).
att(684,1430).
att(1127,1118).
att(937,384).
att(1411,738).
att(684,1454).
att(937,386).
att(678,1516).
att(1237,1096).
att(516,1027).
att(645,1383).
att(545,1000).
att(1301,991).
att(624,1182).
att(643,1166).
att(1239,1096).
att(1239,1091).
att(512,882).
att(1201,1429).
att(589,245).
att(642,1166).
att(625,1208).
att(1010,295).
att(609,1208).
att(680,1476).
att(1199,1457).
att(570,187).
att(1016,291).
att(567,78).
att(586,265).
att(543,1047).
att(595,141).
att(567,86).
att(514,929).
att(1199,1382).
att(933,396).
att(1407,663).
att(630,1183).
att(1330,784).
att(592,297).
att(1309,1096).
att(1189,1517).
att(1385,829).
att(1012,323).
att(587,1135).
att(1189,1515).
att(1306,1103).
att(588,1142).
att(1015,347).
att(1010,321).
att(1152,1108).
att(1308,1108).
att(678,876).
att(1013,303).
att(1158,1100).
att(1413,820).
att(515,838).
att(674,926).
att(589,288).
att(1151,1071).
att(569,178).
att(645,1473).
att(513,834).
att(1229,1400).
att(564,136).
att(681,1520).
att(1150,1088).
att(1236,1159).
att(545,845).
att(514,969).
att(1306,1080).
att(1386,803).
att(1309,1075).
att(567,227).
att(571,195).
att(1154,1078).
att(1309,1079).
att(647,1508).
att(1308,1084).
att(675,928).
att(678,920).
att(513,836).
att(1202,1503).
att(544,844).
att(684,1568).
att(1236,1128).
att(571,225).
att(1015,370).
att(1411,764).
att(1012,348).
att(514,1026).
att(1191,1492).
att(515,1007).
att(1407,731).
att(650,1379).
att(544,973).
att(545,835).
att(1250,1133).
att(1332,692).
att(564,255).
att(649,1198).
att(1251,1133).
att(609,1290).
att(1112,993).
att(572,284).
att(626,1260).
att(649,1478).
att(1146,1130).
att(1243,1054).
att(1249,1111).
att(649,1213).
att(825,332).
att(651,1184).
att(831,363).
att(828,348).
att(622,1370).
att(933,271).
att(1135,490).
att(829,403).
att(656,1534).
att(1358,821).
att(1130,1105).
att(956,390).
att(621,1372).
att(630,1328).
att(655,1208).
att(541,879).
att(1135,488).
att(1357,787).
att(829,398).
att(573,194).
att(652,1401).
att(572,838).
att(825,384).
att(534,921).
att(959,389).
att(652,1496).
att(534,926).
att(1247,1082).
att(958,384).
att(1343,783).
att(1355,742).
att(962,395).
att(1342,659).
att(537,835).
att(932,298).
att(651,1508).
att(540,226).
att(936,322).
att(1145,604).
att(1185,1414).
att(1143,605).
att(1126,1139).
att(1337,786).
att(1140,599).
att(539,207).
att(535,183).
att(650,1508).
att(673,1166).
att(631,1404).
att(1193,1327).
att(933,287).
att(622,1475).
att(652,1535).
att(1139,483).
att(918,302).
att(535,836).
att(956,400).
att(1342,744).
att(534,177).
att(610,1268).
att(541,1007).
att(936,368).
att(1110,1033).
att(1239,1029).
att(536,207).
att(1128,1056).
att(1202,1329).
att(1201,1327).
att(515,173).
att(934,327).
att(537,252).
att(627,1424).
att(610,1260).
att(1332,738).
att(538,1002).
att(610,1406).
att(1142,604).
att(1251,1127).
att(1145,637).
att(1242,1033).
att(538,254).
att(1117,1034).
att(1313,782).
att(1246,1118).
att(685,1169).
att(1141,577).
att(1241,1061).
att(1059,295).
att(1222,1498).
att(837,547).
att(843,447).
att(837,561).
att(1042,302).
att(1145,196).
att(541,1498).
att(684,1192).
att(512,1333).
att(537,1523).
att(996,407).
att(1217,1498).
att(844,448).
att(948,1165).
att(1357,1037).
att(589,844).
att(1356,1029).
att(565,900).
att(1215,1493).
att(1142,185).
att(1145,179).
att(1137,138).
att(622,1112).
att(541,1477).
att(1042,285).
att(1134,190).
att(1355,1033).
att(1141,180).
att(648,1367).
att(984,392).
att(647,1401).
att(1220,1498).
att(1273,1113).
att(645,1393).
att(645,1390).
att(626,1101).
att(1278,1159).
att(626,1102).
att(1059,330).
att(512,1382).
att(516,1455).
att(1065,326).
att(630,1102).
att(681,1388).
att(646,1421).
att(833,451).
att(1124,93).
att(1275,1148).
att(1116,167).
att(538,922).
att(1063,390).
att(627,1149).
att(838,504).
att(1338,1068).
att(1065,384).
att(1126,192).
att(1360,1157).
att(595,843).
att(625,1111).
att(1250,1429).
att(625,1138).
att(1125,159).
att(841,462).
att(841,467).
att(1362,1130).
att(595,837).
att(655,1428).
att(1355,1094).
att(571,970).
att(1244,1453).
att(608,1090).
att(1312,1054).
att(1358,1104).
att(1214,1553).
att(1247,1379).
att(1057,397).
att(644,1171).
att(610,1154).
att(682,1176).
att(833,559).
att(677,1329).
att(1069,401).
att(1343,1133).
att(1250,1374).
att(681,1177).
att(518,1461).
att(515,1476).
att(1220,1328).
att(516,1556).
att(1231,1522).
att(1231,1520).
att(1232,1533).
att(1230,1460).
att(517,1498).
att(520,1370).
att(1010,399).
att(515,1567).
att(1231,1508).
att(1228,1522).
att(1158,1151).
att(1272,1080).
att(1124,834).
att(674,1423).
att(1308,1110).
att(1151,1113).
att(1012,382).
att(1311,1153).
att(1305,1158).
att(721,1166).
att(676,1423).
att(1123,970).
att(676,1424).
att(589,83).
att(522,1435).
att(519,1430).
att(721,1161).
att(1124,978).
att(1228,1494).
att(715,1167).
att(1116,1008).
att(1270,993).
att(678,1374).
att(1114,197).
att(677,1437).
att(706,1164).
att(1155,1130).
att(1124,247).
att(1233,1417).
att(1119,205).
att(1121,1008).
att(593,949).
att(522,1424).
att(521,1473).
att(1220,1432).
att(1122,288).
att(986,346).
att(682,1418).
att(588,1006).
att(593,971).
att(519,1518).
att(593,969).
att(1343,1056).
att(1270,1095).
att(1120,282).
att(1116,246).
att(594,140).
att(1277,1095).
att(1122,286).
att(1123,286).
att(984,325).
att(674,1417).
att(710,1169).
att(648,1288).
att(648,1328).
att(675,1520).
att(1063,273).
att(592,1021).
att(684,1256).
att(676,1196).
att(679,1503).
att(1228,1549).
att(586,176).
att(589,1047).
att(586,188).
att(684,1286).
att(684,1282).
att(682,1287).
att(1227,1514).
att(652,856).
att(646,1042).
att(1309,1416).
att(1306,1437).
att(1413,1096).
att(1311,1435).
att(1230,83).
att(1386,1147).
att(565,1272).
att(655,917).
att(644,1017).
att(1189,227).
att(1201,269).
att(1197,204).
att(1385,1093).
att(1310,1452).
att(1403,1103).
att(1189,175).
att(1302,1339).
att(1309,1380).
att(649,889).
att(572,1330).
att(1238,1555).
att(1185,226).
att(1234,1498).
att(564,1278).
att(1403,1033).
att(652,915).
att(1307,1339).
att(1236,1476).
att(569,1336).
att(569,1334).
att(573,1239).
att(1405,1158).
att(819,716).
att(656,998).
att(1231,224).
att(1224,181).
att(535,1245).
att(1144,23).
att(573,1241).
att(540,1218).
att(656,933).
att(1405,1113).
att(536,1227).
att(1233,179).
att(538,1250).
att(1233,177).
att(1415,1152).
att(651,984).
att(1144,43).
att(1142,15).
att(610,852).
att(1229,140).
att(817,733).
att(1308,1496).
att(1232,185).
att(609,868).
att(1189,267).
att(1137,8).
att(629,872).
att(1197,245).
att(1229,173).
att(812,716).
att(1134,28).
att(1185,234).
att(1135,24).
att(816,779).
att(1135,36).
att(810,728).
att(518,1199).
att(818,779).
att(621,1040).
att(1241,1406).
att(1245,1508).
att(814,736).
att(621,1069).
att(610,889).
att(629,932).
att(537,1336).
att(609,959).
att(1125,20).
att(810,778).
att(1357,1113).
att(610,910).
att(1145,52).
att(1251,1472).
att(1247,1493).
att(624,958).
att(817,748).
att(818,760).
att(1253,1518).
att(534,1330).
att(539,1405).
att(815,745).
att(1243,1329).
att(1125,13).
att(1125,17).
att(1409,1037).
att(517,1243).
att(1144,172).
att(1241,1458).
att(1119,1).
att(1405,1060).
att(610,997).
att(1342,1152).
att(1199,187).
att(1202,175).
att(1116,23).
att(788,716).
att(1126,24).
att(808,811).
att(1241,1478).
att(1413,1062).
att(797,657).
att(819,828).
att(1143,90).
att(1199,135).
att(1120,30).
att(1407,979).
att(1235,1481).
att(516,1239).
att(1135,113).
att(1238,1459).
att(796,731).
att(1125,34).
att(790,732).
att(1195,159).
att(1119,16).
att(515,1359).
att(1120,39).
att(1336,1096).
att(521,1195).
att(798,696).
att(1119,28).
att(797,732).
att(514,1310).
att(805,827).
att(805,831).
att(1387,985).
att(814,823).
att(1241,1449).
att(522,849).
att(522,854).
att(1251,187).
att(1123,1252).
att(610,717).
att(1312,1326).
att(1121,1239).
att(1125,1252).
att(544,918).
att(1362,1494).
att(1216,288).
att(1244,167).
att(1253,187).
att(1249,159).
att(1122,1306).
att(1250,159).
att(1361,1429).
att(1223,245).
att(677,857).
att(520,917).
att(1275,1551).
att(518,1013).
att(520,861).
att(1223,255).
att(512,1017).
att(1120,1309).
att(1122,1355).
att(1125,1330).
att(1338,1449).
att(679,915).
att(1122,1356).
att(1126,1330).
att(1312,1430).
att(592,1214).
att(1244,206).
att(674,915).
att(1340,1450).
att(593,1225).
att(1245,266).
att(1116,1277).
att(674,860).
att(1116,1409).
att(1338,1402).
att(520,1010).
att(1126,1407).
att(1363,1523).
att(1313,1410).
att(648,849).
att(1221,136).
att(676,988).
att(644,846).
att(1223,136).
att(1270,1436).
att(683,853).
att(679,932).
att(1218,89).
att(590,1242).
att(1220,143).
att(644,865).
att(683,908).
att(1225,223).
att(1228,206).
att(1221,85).
att(1307,1552).
att(1227,252).
att(644,857).
att(647,870).
att(586,1305).
att(1231,195).
att(521,1041).
att(589,1310).
att(1276,1374).
att(1279,1381).
att(587,1276).
att(1274,1508).
att(1358,1414).
att(1358,1410).
att(1219,225).
att(564,1226).
att(564,1229).
att(1253,91).
att(1253,89).
att(1253,100).
att(1356,1329).
att(1223,209).
att(648,915).
att(1360,1399).
att(646,888).
att(572,1237).
att(1271,1461).
att(646,1010).
att(1223,193).
att(1276,1522).
att(1214,135).
att(655,854).
att(1302,183).
att(656,562).
att(648,614).
att(1309,208).
att(1385,1550).
att(650,549).
att(1387,1550).
att(1230,530).
att(570,960).
att(681,670).
att(1306,184).
att(1201,707).
att(1302,188).
att(1405,1475).
att(1145,1370).
att(1227,549).
att(1309,224).
att(1311,227).
att(680,690).
att(645,617).
att(1193,717).
att(1145,1396).
att(1228,494).
att(682,717).
att(622,551).
att(1227,484).
att(1140,1393).
att(1307,185).
att(1137,1419).
att(1142,1446).
att(1236,246).
att(644,689).
att(652,553).
att(1386,1458).
att(567,894).
att(1237,231).
att(1407,1433).
att(655,530).
att(565,962).
att(1233,486).
att(655,532).
att(574,857).
att(1124,1389).
att(1271,173).
att(1276,193).
att(574,863).
att(1233,686).
att(1301,286).
att(650,628).
att(1227,687).
att(566,984).
att(1303,252).
att(567,934).
att(623,530).
att(572,1017).
att(1124,1441).
att(1226,605).
att(1137,1211).
att(629,494).
att(1114,1262).
att(1125,1438).
att(655,691).
att(1145,1190).
att(1226,532).
att(1411,1549).
att(1409,1568).
att(1307,202).
att(652,638).
att(1140,1183).
att(623,583).
att(1228,581).
att(565,1057).
att(1144,1246).
att(541,918).
att(1336,1477).
att(625,529).
att(1330,1493).
att(1247,301).
att(1143,1220).
att(625,555).
att(1244,284).
att(534,896).
att(1337,1523).
att(609,492).
att(1337,1528).
att(1202,546).
att(650,641).
att(517,849).
att(1145,1306).
att(1242,188).
att(1134,1236).
att(1234,140).
att(1234,138).
att(1202,489).
att(1141,1308).
att(1144,1235).
att(545,847).
att(610,542).
att(629,598).
att(608,529).
att(1236,88).
att(539,1010).
att(1140,1242).
att(1342,1436).
att(544,912).
att(627,635).
att(629,614).
att(1303,83).
att(1242,288).
att(1385,1481).
att(514,874).
att(1137,1276).
att(1202,617).
att(1121,1197).
att(1193,612).
att(609,636).
att(1234,247).
att(1142,1301).
att(536,1011).
att(608,575).
att(630,635).
att(1405,1410).
att(1403,1408).
att(1403,1406).
att(1309,93).
att(629,670).
att(1309,100).
att(1236,228).
att(1135,1287).
att(1413,1378).
att(1407,1408).
att(608,690).
att(1185,602).
att(626,612).
att(1197,523).
att(1334,1535).
att(518,917).
att(1143,1332).
att(515,896).
att(1243,195).
att(1387,1379).
att(1330,1515).
att(630,685).
att(1141,1042).
att(1360,248).
att(1330,91).
att(545,635).
att(518,580).
att(1247,578).
att(1337,158).
att(610,208).
att(1139,984).
att(1245,639).
att(1141,994).
att(1145,988).
att(1362,254).
att(629,264).
att(1145,1065).
att(625,255).
att(609,286).
att(1122,911).
att(517,615).
att(514,611).
att(543,643).
att(609,233).
att(625,292).
att(1222,707).
att(1119,871).
att(1120,908).
att(1217,715).
att(516,611).
att(544,721).
att(1334,178).
att(1340,224).
att(674,557).
att(1244,673).
att(1336,191).
att(1340,183).
att(1342,176).
att(1239,490).
att(1116,1010).
att(1240,482).
att(1240,496).
att(521,576).
att(675,601).
att(1114,1016).
att(1243,562).
att(1361,296).
att(678,523).
att(1251,612).
att(519,584).
att(1356,292).
att(1245,611).
att(1312,190).
att(677,603).
att(1356,282).
att(586,864).
att(590,859).
att(679,635).
att(587,911).
att(590,912).
att(591,890).
att(676,606).
att(675,635).
att(521,614).
att(1221,603).
att(1228,710).
att(589,875).
att(1121,1039).
att(1279,207).
att(676,628).
att(585,873).
att(592,917).
att(1271,187).
att(521,691).
att(678,613).
att(1221,546).
att(1275,193).
att(684,553).
att(1214,492).
att(647,528).
att(1251,553).
att(683,600).
att(1357,188).
att(1223,658).
att(585,932).
att(1343,229).
att(675,710).
att(1274,284).
att(680,523).
att(1218,611).
att(1168,1160).
att(1358,136).
att(644,549).
att(1214,612).
att(1343,135).
att(1278,288).
att(1278,292).
att(1358,160).
att(1223,618).
att(644,580).
att(1359,167).
att(1274,255).
att(1355,95).
att(1273,238).
att(682,576).
att(585,1016).
att(1581,581).
att(945,266).
att(1542,1287).
att(1303,614).
att(1194,615).
att(1530,915).
att(1232,956).
att(1563,1184).
att(1588,615).
att(1479,906).
att(1275,486).
att(1422,1065).
att(1582,576).
att(1200,575).
att(1422,968).
att(1489,877).
att(1521,849).
att(945,206).
att(1306,616).
att(1447,992).
att(1589,578).
att(1310,673).
att(1562,1206).
att(1426,867).
att(1583,597).
att(1546,247).
att(1490,1044).
att(1554,1365).
att(950,266).
att(1563,1372).
att(1226,872).
att(1392,914).
att(1287,1197).
att(1228,858).
att(1587,688).
att(1307,635).
att(1386,286).
att(1187,1057).
att(1409,294).
att(1427,889).
att(1200,614).
att(1189,1015).
att(1393,856).
att(1305,579).
att(1200,615).
att(1226,846).
att(1186,635).
att(1393,861).
att(1302,598).
att(1562,1390).
att(1415,268).
att(1390,908).
att(1504,976).
att(1490,900).
att(1580,1368).
att(955,284).
att(1483,925).
att(1181,484).
att(1284,1197).
att(1224,875).
att(1389,965).
att(1215,851).
att(1228,986).
att(1466,923).
att(1392,965).
att(1542,1393).
att(1190,640).
att(1531,931).
att(1428,936).
att(1527,918).
att(1572,524).
att(1175,550).
att(1540,1424).
att(1272,597).
att(1177,548).
att(1302,717).
att(1392,894).
att(1586,687).
att(1538,1445).
att(1527,887).
att(1486,970).
att(1173,484).
att(1587,658).
att(1570,483).
att(1543,1426).
att(1573,549).
att(1388,895).
att(1219,847).
att(1225,997).
att(1545,1423).
att(1571,484).
att(1501,850).
att(1306,715).
att(1574,598).
att(1559,1196).
att(1507,846).
att(1368,854).
att(1274,531).
att(1278,596).
att(1543,1446).
att(1275,532).
att(1504,866).
att(1277,598).
att(1487,1005).
att(1570,604).
att(1571,597).
att(1512,847).
att(1180,605).
att(1542,1262).
att(1574,532).
att(1294,1241).
att(1277,526).
att(1554,1210).
att(1266,1189).
att(1179,606).
att(1234,628).
att(1575,628).
att(1409,136).
att(1511,1048).
att(1505,881).
att(1387,189).
att(1180,1204).
att(1170,632).
att(1262,1231).
att(1504,914).
att(1570,639).
att(1180,1370).
att(1290,1337).
att(1199,911).
att(1509,919).
att(1332,268).
att(1532,833).
att(1513,929).
att(1177,635).
att(1237,582).
att(1181,1367).
att(1292,1276).
att(1173,580).
att(1178,615).
att(1512,901).
att(1403,171).
att(1577,611).
att(1290,1362).
att(1174,619).
att(1387,141).
att(1521,974).
att(1531,976).
att(1185,848).
att(1281,1338).
att(1397,959).
att(1176,641).
att(1509,957).
att(1519,972).
att(1579,704).
att(1571,1448).
att(1266,1225).
att(1258,1193).
att(1577,1420).
att(1561,488).
att(1571,1438).
att(1179,1446).
att(1201,868).
att(1571,1445).
att(1579,1420).
att(1396,889).
att(1176,1173).
att(1385,250).
att(1513,971).
att(1195,1011).
att(1513,969).
att(1258,1252).
att(1559,532).
att(1228,847).
att(1303,529).
att(1236,721).
att(1504,1003).
att(1202,984).
att(1513,992).
att(1201,988).
att(1570,1177).
att(1224,852).
att(1366,1012).
att(1262,1308).
att(1227,872).
att(1499,934).
att(1185,1011).
att(1264,1237).
att(1405,183).
att(1405,175).
att(1199,937).
att(1368,959).
att(1174,710).
att(1191,956).
att(1413,229).
att(1557,529).
att(1264,1248).
att(1232,848).
att(1575,1184).
att(1563,638).
att(1407,192).
att(1237,671).
att(1170,1203).
att(1564,616).
att(1175,1184).
att(1259,1277).
att(1560,619).
att(1501,885).
att(1234,668).
att(1387,226).
att(1243,721).
att(1405,137).
att(1236,606).
att(1580,619).
att(1191,914).
att(1201,964).
att(1206,855).
att(1499,900).
att(1504,883).
att(1580,1281).
att(1509,990).
att(1561,619).
att(1395,1040).
att(1205,557).
att(1558,210).
att(1238,853).
att(1206,548).
att(1338,602).
att(1247,934).
att(1367,664).
att(1525,927).
att(1489,529).
att(1312,584).
att(1355,703).
att(1370,597).
att(1368,707).
att(1482,532).
att(1242,871).
att(1589,1395).
att(1332,562).
att(1357,670).
att(1562,210).
att(1580,227).
att(1253,1015).
att(1526,921).
att(1369,531).
att(1248,959).
att(1370,532).
att(1527,942).
att(1483,548).
att(1205,598).
att(1262,1039).
att(1488,580).
att(1356,685).
att(1369,576).
att(1369,575).
att(1441,854).
att(1260,1069).
att(1249,937).
att(1462,1181).
att(1255,966).
att(1371,601).
att(1256,1015).
att(1256,997).
att(1563,207).
att(1489,596).
att(1465,1208).
att(1203,525).
att(1359,613).
att(1251,889).
att(1489,584).
att(1255,1010).
att(1355,615).
att(1579,1443).
att(1566,186).
att(1590,1174).
att(1211,486).
att(1372,613).
att(1583,1184).
att(1524,1044).
att(1186,1196).
att(1441,858).
att(1488,617).
att(1525,1028).
att(1387,562).
att(1413,483).
att(1543,193).
att(1195,1201).
att(1254,984).
att(1376,612).
att(1590,1200).
att(1525,1045).
att(1248,1041).
att(1334,637).
att(1247,1057).
att(1484,584).
att(1581,1203).
att(1176,1280).
att(1334,635).
att(1519,886).
att(1259,1039).
att(1463,553).
att(1181,1292).
att(1577,1284).
att(1540,192).
att(1237,870).
att(1545,226).
att(1578,1286).
att(1443,930).
att(1582,1203).
att(1531,1044).
att(1177,1282).
att(1234,861).
att(1527,877).
att(1194,1370).
att(1330,602).
att(1205,607).
att(1242,858).
att(1203,689).
att(1337,619).
att(1443,961).
att(1241,869).
att(1242,859).
att(1471,1426).
att(1466,1419).
att(1469,577).
att(1212,1425).
att(1538,203).
att(1462,1256).
att(1446,849).
att(1372,704).
att(1464,551).
att(1545,197).
att(1485,721).
att(1272,668).
att(1485,717).
att(1543,205).
att(1447,913).
att(1469,1266).
att(1184,584).
att(1441,1057).
att(1446,894).
att(1468,1258).
att(1483,1192).
att(1270,611).
att(1468,1264).
att(1542,282).
att(1447,862).
att(1469,1284).
att(1214,867).
att(1485,1203).
att(1566,249).
att(1420,850).
att(1209,1282).
att(1420,873).
att(1209,1288).
att(1545,238).
att(1211,1259).
att(1205,1369).
att(1439,984).
att(1209,687).
att(1183,671).
att(1210,1213).
att(1419,894).
att(1355,576).
att(1588,1260).
att(1213,642).
att(1584,1290).
att(1357,635).
att(1540,296).
att(1462,1209).
att(1589,1259).
att(1446,935).
att(1464,672).
att(1194,1254).
att(951,178).
att(1467,1196).
att(1132,908).
att(1249,857).
att(1221,1063).
att(1448,890).
att(1358,584).
att(950,185).
att(1541,297).
att(1253,913).
att(1448,1010).
att(1182,1427).
att(953,210).
att(1208,1366).
att(1426,848).
att(1530,870).
att(950,202).
att(955,195).
att(1182,715).
att(1363,577).
att(1253,865).
att(1272,710).
att(1218,932).
att(1420,893).
att(1465,668).
att(1363,596).
att(1210,1390).
att(1470,1395).
att(1207,1388).
att(1190,143).
att(1307,1069).
att(1538,925).
att(1273,864).
att(1424,617).
att(1558,841).
att(1483,521).
att(1525,494).
att(1581,143).
att(1222,1191).
att(1488,545).
att(1559,1007).
att(1331,832).
att(1327,791).
att(1470,286).
att(1207,299).
att(1335,826).
att(1302,990).
att(1465,246).
att(1545,927).
att(945,1536).
att(1585,229).
att(1192,176).
att(1482,567).
att(1388,483).
att(1410,700).
att(1288,849).
att(1558,969).
att(1587,228).
att(1290,847).
att(1308,1017).
att(1580,837).
att(1479,568).
att(1407,641).
att(1200,180).
att(1305,934).
att(1409,719).
att(1589,182).
att(953,1459).
att(1339,784).
att(1303,965).
att(1410,718).
att(1504,608).
att(1532,528).
att(1446,717).
att(1487,538).
att(1331,793).
att(1479,593).
att(1530,527).
att(1325,822).
att(1326,809).
att(1406,811).
att(1484,626).
att(1383,705).
att(1590,265).
att(1425,578).
att(1482,608).
att(1589,250).
att(1532,632).
att(1538,1026).
att(1590,246).
att(1383,712).
att(661,1166).
att(1174,91).
att(1196,247).
att(1548,942).
att(1363,850).
att(657,1167).
att(1544,1027).
att(943,1552).
att(1584,255).
att(1412,809).
att(657,1160).
att(1469,593).
att(1545,1052).
att(1582,222).
att(1519,531).
att(1527,526).
att(1541,886).
att(1589,202).
att(1200,206).
att(953,1514).
att(1423,704).
att(1539,1043).
att(1274,957).
att(1171,222).
att(1290,874).
att(1181,100).
att(1398,760).
att(1188,294).
att(1519,637).
att(1180,137).
att(1292,914).
att(1462,1137).
att(1428,614).
att(1292,916).
att(1274,896).
att(1466,1124).
att(1539,1049).
att(1467,591).
att(1171,248).
att(1181,188).
att(1282,917).
att(1529,615).
att(1464,1135).
att(1573,139).
att(1584,288).
att(1176,78).
att(1404,726).
att(1578,167).
att(1527,579).
att(1538,929).
att(1487,622).
att(1282,858).
att(1576,138).
att(1470,1123).
att(1388,575).
att(1280,875).
att(1471,1116).
att(1222,1226).
att(1179,175).
att(1302,854).
att(1579,976).
att(1311,866).
att(1501,490).
att(1562,919).
att(1311,871).
att(1521,691).
att(1368,494).
att(1578,175).
att(1286,890).
att(1394,555).
att(1177,210).
att(1307,867).
att(1510,520).
att(1364,483).
att(1181,224).
att(1390,664).
att(1308,866).
att(1560,939).
att(1243,1057).
att(1391,666).
att(1172,286).
att(1571,140).
att(1190,301).
att(1509,568).
att(1172,292).
att(1575,1000).
att(1180,188).
att(1177,188).
att(1527,614).
att(1327,662).
att(1575,139).
att(1331,712).
att(1366,482).
att(1288,962).
att(1308,847).
att(1391,685).
att(1391,686).
att(1284,1016).
att(1331,669).
att(1524,702).
att(1519,715).
att(1176,222).
att(1236,956).
att(1368,529).
att(1309,853).
att(1239,930).
att(1392,707).
att(1237,957).
att(1562,91).
att(1292,934).
att(1337,670).
att(1525,702).
att(1281,962).
att(1368,550).
att(1385,527).
att(1394,526).
att(1312,702).
att(1286,958).
att(1532,629).
att(1513,529).
att(1342,664).
att(1575,229).
att(1241,962).
att(1519,655).
att(1526,627).
att(1512,593).
att(1525,719).
att(1305,956).
att(1489,594).
att(1407,686).
att(1410,653).
att(1560,161).
att(1341,807).
att(1479,1116).
att(1560,173).
att(1561,137).
att(1554,885).
att(1489,585).
att(1511,638).
att(1333,764).
att(1505,578).
att(1505,584).
att(1507,680).
att(1335,764).
att(1397,583).
att(1407,616).
att(1560,91).
att(1487,591).
att(1505,620).
att(1224,1230).
att(1576,234).
att(1254,913).
att(1366,671).
att(1333,731).
att(1266,896).
att(1394,658).
att(1563,879).
att(1512,522).
att(1563,137).
att(1368,628).
att(1563,142).
att(1327,697).
att(1367,636).
att(1578,284).
att(1385,606).
att(1325,733).
att(1511,680).
att(1310,916).
att(1370,492).
att(1511,686).
att(1364,205).
att(948,1192).
att(985,411).
att(1240,1221).
att(1338,956).
att(1519,572).
att(1573,949).
att(1509,265).
att(1394,238).
att(1557,1456).
att(1562,1430).
att(1237,1226).
att(9,662).
att(1586,1027).
att(989,394).
att(1511,269).
att(1455,765).
att(1234,1197).
att(1511,250).
att(948,1210).
att(1546,1174).
att(1571,1498).
att(1512,202).
att(1455,780).
att(1397,197).
att(1561,1453).
att(1394,264).
att(1068,275).
att(1457,766).
att(1312,964).
att(979,389).
att(1240,1233).
att(1237,1185).
att(1366,282).
att(1479,157).
att(1364,247).
att(1532,594).
att(1342,856).
att(950,1183).
att(1554,1417).
att(1588,1050).
att(1238,1189).
att(1442,484).
att(1484,142).
att(1585,1022).
att(1241,1187).
att(1204,138).
att(1061,310).
att(1371,163).
att(1532,1120).
att(1504,246).
att(1360,1069).
att(1490,142).
att(1583,903).
att(1559,1450).
att(1563,1433).
att(1465,844).
att(1525,1145).
att(699,1162).
att(1370,135).
att(951,1212).
att(979,409).
att(1362,1067).
att(1356,1069).
att(989,410).
att(1547,1207).
att(1332,994).
att(1430,699).
att(3,700).
att(1445,542).
att(1509,1140).
att(1066,389).
att(1510,1120).
att(1206,185).
att(1269,527).
att(1529,682).
att(1264,641).
att(1334,992).
att(983,415).
att(1054,347).
att(1442,529).
att(1449,824).
att(1260,721).
att(1432,699).
att(20,699).
att(1369,209).
att(1562,1514).
att(1482,191).
att(1254,612).
att(1364,286).
att(1445,483).
att(1524,514).
att(1385,865).
att(1450,828).
att(1457,824).
att(1203,187).
att(1443,550).
att(1375,176).
att(1417,739).
att(1375,179).
att(1387,852).
att(1254,719).
att(1205,227).
att(1524,540).
att(1489,204).
att(1525,519).
att(1437,831).
att(1337,967).
att(1330,1015).
att(1056,392).
att(1531,677).
att(1554,1533).
att(6,659).
att(1444,523).
att(1529,537).
att(1554,1522).
att(1483,210).
att(1573,925).
att(1268,618).
att(1356,908).
att(1444,628).
att(1464,85).
att(1490,288).
att(1250,1228).
att(1205,252).
att(1445,632).
att(1205,254).
att(1380,730).
att(1380,728).
att(1183,163).
att(1438,638).
att(1466,142).
att(1543,1494).
att(1566,1196).
att(1377,735).
att(1371,266).
att(1444,577).
att(1371,254).
att(1554,1549).
att(1542,1207).
att(1559,1552).
att(1382,730).
att(1465,91).
att(1438,578).
att(1183,85).
att(1548,1259).
att(953,1294).
att(1548,1255).
att(1270,1059).
att(1470,1022).
att(991,330).
att(1272,988).
att(1374,709).
att(1361,864).
att(720,1161).
att(1421,489).
att(1484,301).
att(1207,189).
att(1445,691).
att(1270,967).
att(1381,724).
att(1253,1195).
att(1270,984).
att(1270,994).
att(1488,838).
att(1381,694).
att(1274,1010).
att(1277,986).
att(1412,829).
att(1406,786).
att(1566,1461).
att(1546,1341).
att(1206,297).
att(1276,1042).
att(1447,483).
att(1468,901).
att(1279,988).
att(1337,875).
att(1587,898).
att(1383,831).
att(993,367).
att(979,330).
att(945,1388).
att(1444,702).
att(1363,990).
att(1362,988).
att(1336,852).
att(1547,1373).
att(1454,712).
att(1584,923).
att(1469,973).
att(1468,184).
att(1446,525).
att(955,1331).
att(985,326).
att(1582,941).
att(1471,229).
att(1382,831).
att(1449,662).
att(1548,1367).
att(1465,175).
att(1470,841).
att(1466,230).
att(1419,581).
att(1212,230).
att(1587,88).
att(1380,748).
att(945,1423).
att(1588,134).
att(945,1421).
att(1248,1223).
att(1362,931).
att(1469,247).
att(1198,160).
att(1450,665).
att(951,1436).
att(1466,231).
att(1546,1422).
att(1547,1454).
att(1465,1050).
att(1184,228).
att(1465,203).
att(950,1455).
att(1546,1416).
att(1356,963).
att(1540,1171).
att(1343,918).
att(1255,411).
att(1582,1336).
att(940,1037).
att(1088,344).
att(1083,322).
att(1442,307).
att(886,762).
att(1277,1306).
att(1086,352).
att(13,692).
att(1510,6).
att(1391,53).
att(1049,748).
att(18,696).
att(26,826).
att(1525,51).
att(1179,1221).
att(1461,699).
att(1292,458).
att(1444,309).
att(1292,426).
att(1190,1363).
att(26,821).
att(940,1064).
att(1192,1361).
att(1493,760).
att(1089,310).
att(1440,302).
att(1029,410).
att(729,1164).
att(942,1033).
att(949,1088).
att(1188,1332).
att(949,1081).
att(1398,1075).
att(1477,654).
att(1585,1334).
att(1043,728).
att(1043,809).
att(26,762).
att(1397,30).
att(1255,1264).
att(1442,346).
att(17,654).
att(1178,1237).
att(1271,1230).
att(886,785).
att(1048,791).
att(1049,783).
att(1288,471).
att(1577,1303).
att(1088,372).
att(1390,97).
att(13,659).
att(1020,657).
att(1172,1387).
att(1399,1054).
att(1279,1225).
att(1190,1387).
att(1438,346).
att(1044,748).
att(1582,1385).
att(1276,1219).
att(1496,764).
att(1288,445).
att(1445,372).
att(1254,1287).
att(1425,97).
att(1388,55).
att(1525,116).
att(26,742).
att(1275,1229).
att(1326,1157).
att(1577,1243).
att(1172,1409).
att(1442,382).
att(1443,390).
att(1281,470).
att(769,1160).
att(1201,305).
att(1187,277).
att(1286,466).
att(1365,12).
att(1442,391).
att(1406,1159).
att(1443,1260).
att(1579,1360).
att(1444,382).
att(1081,408).
att(1082,396).
att(926,1055).
att(1400,1155).
att(1377,1087).
att(949,1115).
att(1511,37).
att(1438,390).
att(1053,697).
att(1521,92).
att(1292,470).
att(1578,1310).
att(1287,476).
att(1575,1234).
att(952,1094).
att(1360,1227).
att(1048,829).
att(1398,1110).
att(1572,1303).
att(1288,509).
att(1423,274).
att(1391,168).
att(1576,1276).
att(1554,1201).
att(1570,1343).
att(782,1167).
att(1404,1147).
att(1176,1355).
att(1175,1362).
att(17,724).
att(927,1038).
att(1472,694).
att(944,1151).
att(19,722).
att(952,1153).
att(1023,724).
att(1023,722).
att(1365,67).
att(925,1089).
att(1073,304).
att(946,1156).
att(1460,729).
att(1195,323).
att(1174,1332).
att(1079,300).
att(1461,731).
att(1071,323).
att(919,1068).
att(1022,781).
att(1181,1411).
att(1399,1138).
att(1475,693).
att(1284,499).
att(868,1167).
att(1368,42).
att(1505,40).
att(1368,49).
att(1397,40).
att(1382,983).
att(1400,1105).
att(1440,404).
att(1173,1363).
att(1383,979).
att(1282,487).
att(1193,306).
att(873,1161).
att(1272,1278).
att(1181,1342).
att(1202,303).
att(1384,989).
att(1492,828).
att(873,1164).
att(1401,67).
att(1405,962).
att(1020,743).
att(1023,744).
att(1025,653).
att(1173,1405).
att(1255,453).
att(1263,341).
att(1021,821).
att(1300,313).
att(1300,317).
att(1447,350).
att(1264,442).
att(1483,6).
att(1558,1250).
att(4,764).
att(1305,1218).
att(1419,328).
att(1,748).
att(8,744).
att(924,1080).
att(1339,1079).
att(1562,1246).
att(1429,759).
att(1570,1342).
att(1572,1387).
att(1573,1407).
att(1269,413).
att(1376,44).
att(7,765).
att(999,716).
att(1287,1290).
att(1297,358).
att(1396,145).
att(1002,718).
att(1421,372).
att(1411,890).
att(1302,1199).
att(1507,94).
att(1507,169).
att(1034,325).
att(1403,894).
att(1419,364).
att(1371,10).
att(1387,964).
att(1269,415).
att(1298,467).
att(1364,119).
att(1033,323).
att(1261,240).
att(1418,366).
att(1330,1059).
att(1330,1057).
att(1433,729).
att(1203,20).
att(1306,1193).
att(1334,1063).
att(1000,713).
att(1260,468).
att(1339,1031).
att(1416,779).
att(1436,723).
att(1300,373).
att(1341,1029).
att(1418,385).
att(1364,116).
att(1490,63).
att(1272,1195).
att(1420,385).
att(1446,404).
att(919,1130).
att(1525,278).
att(1032,388).
att(1399,980).
att(1497,730).
att(1531,283).
att(1480,782).
att(1527,278).
att(1328,1149).
att(928,1154).
att(1565,1226).
att(1544,1189).
att(1557,1360).
att(1558,1359).
att(1376,64).
att(1558,1357).
att(1030,730).
att(1525,281).
att(920,1099).
att(3,826).
att(922,1131).
att(30,723).
att(1020,830).
att(1035,388).
att(1276,1185).
att(1560,1302).
att(1431,825).
att(1442,418).
att(1370,34).
att(1438,419).
att(1438,417).
att(1260,495).
att(924,1146).
att(1543,1197).
att(30,729).
att(1392,287).
att(1375,35).
att(1402,1066).
att(1392,290).
att(725,1161).
att(26,695).
att(1211,8).
att(1445,453).
att(1441,423).
att(1,830).
att(1297,1319).
att(1445,456).
att(1333,1098).
att(1529,305).
att(920,1156).
att(29,738).
att(1538,1214).
att(2,829).
att(1429,831).
att(30,738).
att(1430,823).
att(239,1166).
att(1268,442).
att(1526,332).
att(22,692).
att(1088,291).
att(1411,998).
att(1487,60).
att(899,1035).
att(1479,38).
att(1494,720).
att(1440,441).
att(1264,552).
att(1333,1108).
att(29,693).
att(1086,289).
att(8,793).
att(1438,435).
att(1527,322).
att(1081,287).
att(1443,454).
att(1489,59).
att(901,1036).
att(1299,1349).
att(1494,692).
att(1300,1350).
att(1557,1337).
att(1440,436).
att(1487,1362).
att(1107,390).
att(1375,1362).
att(1430,983).
att(1321,340).
att(1452,1138).
att(2,989).
att(1483,1276).
att(7,1055).
att(1220,276).
att(1484,1302).
att(1206,1310).
att(1229,386).
att(1232,393).
att(1385,1230).
att(1369,1343).
att(1442,36).
att(1453,1148).
att(1375,1356).
att(1498,740).
att(1256,170).
att(1566,858).
att(1102,382).
att(1102,383).
att(1535,829).
att(920,783).
att(1515,695).
att(1291,377).
att(905,694).
att(1264,144).
att(1441,29).
att(39,735).
att(1369,1277).
att(1334,1308).
att(1538,874).
att(1292,293).
att(1254,84).
att(1371,1334).
att(1498,701).
att(1230,404).
att(1516,716).
att(1291,244).
att(917,1161).
att(1226,392).
att(1228,404).
att(1324,374).
att(9,980).
att(1437,1147).
att(1449,1106).
att(1221,295).
att(1290,327).
att(1371,1357).
att(1090,295).
att(904,725).
att(1105,384).
att(1440,47).
att(1229,400).
att(1105,391).
att(1469,1201).
att(1294,330).
att(1104,385).
att(1292,327).
att(38,712).
att(1103,394).
att(1103,392).
att(1233,400).
att(1370,1312).
att(898,723).
att(898,724).
att(1284,324).
att(1222,345).
att(882,659).
att(1287,324).
att(1567,653).
att(34,822).
att(1508,828).
att(1095,300).
att(1214,307).
att(822,1160).
att(1503,789).
att(1438,116).
att(1293,1319).
att(65,701).
att(1209,1248).
att(36,825).
att(821,1161).
att(1212,1238).
att(35,748).
att(1268,117).
att(1439,58).
att(1468,1214).
att(903,813).
att(1287,342).
att(929,804).
att(1545,956).
att(1207,1218).
att(1215,289).
att(1285,308).
att(1386,1242).
att(1502,806).
att(1442,121).
att(1555,708).
att(1324,1315).
att(1324,1354).
att(1290,390).
att(1409,1221).
att(1539,992).
att(1448,49).
att(1098,366).
att(8,1087).
att(1210,1306).
att(1289,341).
att(1453,1152).
att(1421,16).
att(1424,17).
att(1468,1310).
att(1465,1237).
att(948,873).
att(31,766).
att(1517,765).
att(1502,744).
att(1538,996).
att(1092,368).
att(1208,1279).
att(1503,759).
att(881,692).
att(33,727).
att(3,1062).
att(1470,1307).
att(1095,332).
att(1294,393).
att(1207,1241).
att(1546,873).
att(1292,398).
att(1435,1033).
att(40,745).
att(1469,1311).
att(1266,278).
att(1432,1066).
att(1095,325).
att(1284,392).
att(1516,731).
att(876,709).
att(881,694).
att(1423,24).
att(877,730).
att(1378,1099).
att(48,740).
att(48,739).
att(1382,1132).
att(1356,1308).
att(906,779).
att(1192,1202).
att(1548,893).
att(1586,1193).
att(1210,1363).
att(1213,1313).
att(1520,738).
att(1184,1278).
att(1191,343).
att(907,742).
att(1363,1270).
att(1377,1147).
att(1352,357).
att(1447,63).
att(876,724).
att(1070,365).
att(1255,285).
att(1448,32).
att(1211,1357).
att(878,700).
att(948,869).
att(1546,896).
att(1185,330).
att(1259,291).
att(1464,1276).
att(1472,789).
att(950,916).
att(943,861).
att(1528,740).
att(47,734).
att(1101,283).
att(1531,8).
att(47,712).
att(1458,786).
att(1262,330).
att(1468,1407).
att(906,813).
att(1076,399).
att(1229,270).
att(883,761).
att(1077,395).
att(1188,1248).
att(950,938).
att(1354,236).
att(951,930).
att(1254,305).
att(1320,256).
att(1071,400).
att(1465,1386).
att(1102,273).
att(1193,396).
att(18,804).
att(1078,385).
att(1262,347).
att(48,665).
att(1355,1229).
att(1100,278).
att(1423,70).
att(1344,317).
att(907,759).
att(1424,65).
att(1424,66).
att(1196,1216).
att(1345,1350).
att(882,748).
att(1172,1227).
att(1352,253).
att(1419,63).
att(43,659).
att(1350,1349).
att(1458,787).
att(1447,52).
att(951,967).
att(1337,1252).
att(1075,411).
att(1447,162).
att(1316,315).
att(1449,1029).
att(864,1161).
att(857,1160).
att(1107,300).
att(882,831).
att(882,827).
att(1043,711).
att(861,1166).
att(1508,714).
att(879,787).
att(1226,278).
att(749,1160).
att(1527,7).
att(1100,304).
att(1049,667).
att(1587,1252).
att(1587,1242).
att(1390,29).
att(1269,275).
att(1588,1310).
att(1262,394).
att(1427,21).
att(1533,766).
att(1589,1237).
att(1518,781).
att(1451,1064).
att(944,1064).
att(946,977).
att(1108,345).
att(1294,437).
att(1531,38).
att(1288,435).
att(1358,1343).
att(1174,1197).
att(1225,325).
att(1522,778).
att(1109,328).
att(1456,1034).
att(1529,39).
att(1045,738).
att(1284,435).
att(1264,397).
att(1290,429).
att(1256,395).
att(1352,308).
att(1427,48).
att(1443,285).
att(1294,413).
att(1425,46).
att(1231,344).
att(1337,1197).
att(1424,164).
att(1288,437).
att(1338,1191).
att(1530,31).
att(1358,1271).
att(1389,12).
att(1588,1356).
att(1338,1197).
att(1254,395).
att(1338,1195).
att(47,782).
att(944,980).
att(1319,359).
att(1439,287).
att(1528,765).
att(58,811).
att(1190,918).
att(1461,1085).
att(11,1032).
att(1287,4).
att(1513,1179).
att(56,761).
att(59,803).
att(1459,1076).
att(1382,1410).
att(1575,853).
att(1380,1341).
att(942,708).
att(1476,1088).
att(1577,874).
att(55,813).
att(943,717).
att(1245,403).
att(51,761).
att(1501,1188).
att(945,642).
att(1531,1246).
att(1521,1220).
att(1495,1156).
att(1510,1190).
att(1250,410).
att(950,721).
att(1238,285).
att(1490,1438).
att(1497,1150).
att(1133,394).
att(1490,1269).
att(1501,1208).
att(1521,1301).
att(1239,350).
att(1492,1133).
att(1370,1287).
att(1428,1271).
att(1486,1287).
att(28,1112).
att(25,1152).
att(941,697).
att(25,1156).
att(949,726).
att(1497,1112).
att(949,729).
att(1472,1062).
att(22,1128).
att(1369,1281).
att(1188,1042).
att(1571,871).
att(944,735).
att(1526,1305).
att(956,1162).
att(1568,830).
att(52,700).
att(1428,1307).
att(940,705).
att(1532,1301).
att(1527,1240).
att(1587,1012).
att(1586,967).
att(51,732).
att(824,1161).
att(1376,1287).
att(1505,1206).
att(1587,967).
att(1570,855).
att(959,1161).
att(1491,1146).
att(26,1118).
att(10,985).
att(1473,1097).
att(1368,1191).
att(1473,1098).
att(47,1060).
att(1206,1401).
att(121,725).
att(1394,1228).
att(18,1129).
att(16,1132).
att(1579,895).
att(117,733).
att(41,993).
att(1460,1128).
att(1174,890).
att(1460,1112).
att(16,1149).
att(1211,1280).
att(1504,1229).
att(43,1061).
att(43,1066).
att(1211,1294).
att(1525,1338).
att(1426,1385).
att(1578,909).
att(1237,346).
att(1484,1425).
att(1574,864).
att(1115,384).
att(952,728).
att(1287,44).
att(1482,1393).
att(1390,1357).
att(1280,46).
att(17,1118).
att(1396,1189).
att(939,736).
att(1112,350).
att(1179,913).
att(1472,1092).
att(1511,1232).
att(1530,1313).
att(1179,936).
att(939,742).
att(57,791).
att(1204,1421).
att(952,803).
att(1177,937).
att(924,657).
att(1235,392).
att(19,1098).
att(1572,932).
att(942,822).
att(1504,1253).
att(1175,961).
att(1373,1381).
att(1170,963).
att(1389,1342).
att(1179,962).
att(1281,66).
att(1292,51).
att(1501,1233).
att(1397,1220).
att(1375,1390).
att(1311,275).
att(54,787).
att(1205,1440).
att(1366,1216).
att(114,663).
att(1490,1427).
att(1380,1399).
att(3,1128).
att(63,722).
att(1431,1115).
att(1395,1255).
att(1434,1156).
att(1569,728).
att(1551,769).
att(940,791).
att(1130,281).
att(1405,1358).
att(928,733).
att(1173,968).
att(1413,1332).
att(1413,1330).
att(1138,283).
att(1414,1326).
att(1178,1042).
att(1214,391).
att(1507,1282).
att(922,694).
att(1577,1063).
att(1216,396).
att(1527,1206).
att(1175,933).
att(1223,392).
att(1098,382).
att(1284,97).
att(923,654).
att(1512,1236).
att(64,739).
att(1292,99).
att(1397,1242).
att(4,1148).
att(923,665).
att(1177,1017).
att(1416,1154).
att(1525,1205).
att(1564,853).
att(1176,918).
att(1579,1017).
att(5,1153).
att(954,832).
att(1216,389).
att(68,730).
att(24,979).
att(1217,386).
att(1562,868).
att(1092,388).
att(1491,1066).
att(1254,1).
att(1290,164).
att(61,731).
att(949,830).
att(1415,1357).
att(1567,696).
att(1376,1228).
att(1251,323).
att(892,1167).
att(1411,1274).
att(9,1118).
att(27,985).
att(1173,1059).
att(1519,1388).
att(1,1149).
att(1203,1202).
att(1530,1208).
att(1245,305).
att(1569,697).
att(1246,303).
att(925,780).
att(1131,310).
att(65,725).
att(1133,300).
att(1253,327).
att(21,985).
att(1244,281).
att(34,785).
att(1219,404).
att(1175,992).
att(1098,409).
att(1266,47).
att(1098,403).
att(1431,1107).
att(1519,1418).
att(32,825).
att(1217,402).
att(1557,864).
att(1133,289).
att(1375,1185).
att(1509,1279).
att(61,696).
att(1179,1059).
att(1554,868).
att(1436,1095).
att(24,1102).
att(1147,352).
att(67,830).
att(926,803).
att(1494,1096).
att(1396,1409).
att(927,759).
att(68,827).
att(55,695).
att(1260,118).
att(1485,1217).
att(1368,1387).
att(1505,1396).
att(1367,1390).
att(54,739).
att(1367,1428).
att(1371,1217).
att(1366,1415).
att(63,820).
att(1495,1100).
att(928,778).
att(923,725).
att(802,1162).
att(1245,327).
att(1511,1368).
att(1497,1106).
att(60,692).
att(924,779).
att(1256,61).
att(1494,1091).
att(1254,35).
att(1479,1191).
att(1558,893).
att(921,764).
att(1298,57).
att(1562,962).
att(1364,1357).
att(1558,1017).
att(1568,742).
att(66,806).
att(62,760).
att(1510,1424).
att(1568,762).
att(69,791).
att(905,698).
att(1401,1393).
att(905,699).
att(905,692).
att(901,720).
att(1146,387).
att(1443,16).
att(1260,170).
att(1146,385).
att(51,662).
att(1482,1234).
att(1494,1103).
att(1519,1179).
att(1149,367).
att(1205,1248).
att(1558,1010).
att(1405,1342).
att(1563,934).
att(1566,855).
att(1564,930).
att(1407,1340).
att(69,813).
att(1407,1312).
att(1505,1254).
att(1485,1246).
att(1438,6).
att(1485,1249).
att(1524,1194).
att(1525,1174).
att(1478,1074).
att(902,718).
att(1375,1234).
att(1397,1269).
att(2,1374).
att(1268,1220).
att(1206,909).
att(35,1103).
att(1434,1455).
att(90,830).
att(101,826).
att(1517,1106).
att(101,824).
att(1542,551).
att(1439,1229).
att(1443,1221).
att(1539,486).
att(1557,673).
att(145,739).
att(1298,1313).
att(1376,895).
att(1508,1104).
att(1490,894).
att(1563,615).
att(1258,1277).
att(1559,638).
att(1489,914).
att(31,1078).
att(1560,612).
att(1203,913).
att(39,1107).
att(96,821).
att(1375,896).
att(1562,689).
att(1429,1333).
att(1205,960).
att(1275,382).
att(1431,1341).
att(94,759).
att(1488,935).
att(144,709).
att(1435,1408).
att(1441,1253).
att(1212,849).
att(1278,391).
att(1268,1241).
att(71,786).
att(1371,959).
att(1565,529).
att(1274,365).
att(45,1152).
att(1278,383).
att(101,748).
att(1554,673).
att(7,1333).
att(1445,1223).
att(34,1031).
att(1536,1151).
att(1276,382).
att(1537,1158).
att(1516,1032).
att(1438,1220).
att(1517,1034).
att(32,1082).
att(1486,918).
att(1275,405).
att(1393,1422).
att(34,1156).
att(1468,873).
att(69,1076).
att(1210,873).
att(1566,638).
att(967,1166).
att(1442,1303).
att(1484,1010).
att(1542,635).
att(1551,1081).
att(1497,1333).
att(1527,1418).
att(28,1328).
att(1371,1010).
att(170,763).
att(1278,410).
att(1360,281).
att(1541,526).
att(8,1460).
att(170,782).
att(1471,873).
att(1568,1056).
att(4,1481).
att(1207,854).
att(1442,1306).
att(1270,389).
att(172,782).
att(1552,1037).
att(1439,1238).
att(1543,581).
att(1275,390).
att(169,731).
att(1470,896).
att(1184,860).
att(1506,1154).
att(1440,1279).
att(1440,1272).
att(1541,628).
att(1206,1069).
att(1182,908).
att(1555,1036).
att(1442,1332).
att(1389,1262).
att(1568,980).
att(1183,914).
att(145,778).
att(1531,1268).
att(1448,1193).
att(1565,617).
att(1210,863).
att(1444,1279).
att(1205,984).
att(1502,1130).
att(1566,611).
att(996,1163).
att(1440,1310).
att(1540,583).
att(168,695).
att(1545,616).
att(84,827).
att(1466,914).
att(1542,617).
att(1275,410).
att(1518,1108).
att(116,822).
att(1155,347).
att(1533,1085).
att(1155,345).
att(948,488).
att(1544,641).
att(1422,1244).
att(50,1109).
att(50,1108).
att(1466,938).
att(1212,934).
att(114,813).
att(42,1071).
att(931,1169).
att(1467,931).
att(1543,715).
att(1213,960).
att(1184,911).
att(1450,1331).
att(49,1074).
att(1128,407).
att(955,486).
att(1544,690).
att(1451,1331).
att(1469,962).
att(1127,407).
att(1543,658).
att(1442,1386).
att(1463,1013).
att(1309,391).
att(1441,1443).
att(1467,968).
att(15,1156).
att(1455,1331).
att(1207,1013).
att(1446,1308).
att(1587,850).
att(43,1080).
att(1456,1331).
att(951,577).
att(1523,1089).
att(1582,852).
att(1466,966).
att(1440,1268).
att(1212,1015).
att(1209,933).
att(114,737).
att(1463,932).
att(1213,1010).
att(18,1153).
att(1439,1443).
att(13,1155).
att(46,1068).
att(1419,1248).
att(1308,325).
att(1198,854).
att(1212,1012).
att(1462,931).
att(1209,930).
att(49,1157).
att(1156,402).
att(1418,1259).
att(1418,1264).
att(1194,914).
att(1159,387).
att(1184,1063).
att(1188,908).
att(1446,1338).
att(1157,393).
att(1305,396).
att(39,1035).
att(35,1068).
att(1182,1041).
att(1427,1185).
att(1589,858).
att(1209,966).
att(1213,1063).
att(1150,384).
att(37,1055).
att(1470,1040).
att(1471,1057).
att(1536,1131).
att(45,1148).
att(47,1156).
att(1469,1067).
att(99,726).
att(950,632).
att(84,737).
att(42,1146).
att(1502,1055).
att(951,636).
att(1427,1222).
att(1547,658).
att(1390,1223).
att(71,723).
att(1524,1230).
att(955,641).
att(1584,956).
att(39,979).
att(1190,889).
att(1535,1106).
att(1534,1104).
att(1582,912).
att(1278,303).
att(1425,1226).
att(1528,1095).
att(1303,395).
att(955,613).
att(1390,1189).
att(1184,1057).
att(1270,271).
att(1522,1092).
att(40,980).
att(1136,503).
att(1528,1148).
att(48,1136).
att(834,1102).
att(1180,468).
att(927,100).
att(1473,1416).
att(1176,477).
att(1541,344).
att(1475,1493).
att(1411,271).
att(925,86).
att(1543,1300).
att(954,233).
att(1576,506).
att(942,265).
att(1174,466).
att(119,1081).
att(1051,1417).
att(115,979).
att(1177,474).
att(1052,1381).
att(1541,320).
att(1177,473).
att(1542,1353).
att(1579,479).
att(1545,383).
att(12,1452).
att(1539,1345).
att(954,266).
att(926,88).
att(1019,1398).
att(121,1068).
att(59,1129).
att(1573,476).
att(941,209).
att(1175,442).
att(1538,383).
att(920,165).
att(939,246).
att(1052,1497).
att(1578,491).
att(18,1429).
att(1557,432).
att(1176,509).
att(838,1113).
att(1575,498).
att(1562,428).
att(1174,493).
att(926,190).
att(55,1136).
att(1174,499).
att(1051,1461).
att(1559,415).
att(51,1096).
att(1022,1495).
att(52,1073).
att(1385,307).
att(1538,331).
att(943,272).
att(1385,302).
att(1024,1449).
att(1459,1450).
att(56,1106).
att(1050,1430).
att(60,1092).
att(1576,491).
att(14,1454).
att(1472,1383).
att(54,1098).
att(1019,1450).
att(839,1146).
att(1175,469).
att(1385,366).
att(1583,1512).
att(1405,321).
att(1024,1472).
att(1537,1381).
att(42,1384).
att(955,311).
att(1267,1162).
att(953,309).
att(1030,1402).
att(1411,324).
att(1563,425).
att(1571,493).
att(1581,1521).
att(840,1129).
att(1585,1504).
att(945,356).
att(1415,310).
att(1387,328).
att(1558,424).
att(1030,1328).
att(948,354).
att(1386,323).
att(1573,558).
att(12,1472).
att(1407,368).
att(1002,1398).
att(950,345).
att(1538,1265).
att(1518,1398).
att(1564,477).
att(928,207).
att(1534,1325).
att(1589,1521).
att(119,1100).
att(14,1506).
att(1522,1406).
att(922,203).
att(18,1520).
att(48,1329).
att(920,180).
att(18,1528).
att(951,373).
att(943,350).
att(1548,385).
att(50,1333).
att(118,1037).
att(117,1029).
att(53,1154).
att(945,366).
att(1001,1408).
att(955,376).
att(948,242).
att(950,375).
att(1558,510).
att(26,1436).
att(1559,469).
att(1563,505).
att(68,1131).
att(1028,1436).
att(1558,1344).
att(57,983).
att(1497,1417).
att(1551,1132).
att(1363,363).
att(1557,313).
att(1546,405).
att(902,78).
att(1361,363).
att(928,247).
att(28,1451).
att(924,254).
att(1559,314).
att(22,1457).
att(945,398).
att(1564,1347).
att(1484,1489).
att(1566,432).
att(999,1495).
att(1334,272).
att(1357,400).
att(168,811).
att(7,1569).
att(1478,1452).
att(1555,1094).
att(1552,1108).
att(1566,422).
att(900,160).
att(1360,401).
att(1487,1504).
att(1559,511).
att(905,142).
att(1558,355).
att(4,1523).
att(1542,439).
att(1483,1512).
att(1560,493).
att(29,1380).
att(1569,1088).
att(1481,1383).
att(1481,1381).
att(28,1506).
att(1566,473).
att(999,1518).
att(1545,446).
att(1463,1524).
att(1540,460).
att(1007,1410).
att(12,1335).
att(1337,328).
att(1025,1569).
att(18,1374).
att(1544,333).
att(13,1384).
att(1566,447).
att(28,1536).
att(929,209).
att(1337,305).
att(1554,533).
att(1542,458).
att(1544,357).
att(1468,1529).
att(1040,1165).
att(898,179).
att(1340,290).
att(898,181).
att(58,1080).
att(971,1384).
att(1007,1452).
att(882,89).
att(30,1528).
att(883,91).
att(29,1522).
att(1540,232).
att(1471,1524).
att(1540,239).
att(902,245).
att(881,157).
att(876,89).
att(29,1458).
att(897,225).
att(1549,1127).
att(54,1054).
att(1550,1111).
att(1568,1147).
att(23,1431).
att(905,208).
att(59,1032).
att(880,100).
att(1542,471).
att(1563,1283).
att(1545,243).
att(1545,240).
att(1541,262).
att(1556,1150).
att(1548,2).
att(1565,117).
att(34,1523).
att(1566,114).
att(999,1150).
att(1211,446).
att(904,1535).
att(1570,331).
att(166,1088).
att(901,1534).
att(9,205).
att(1463,452).
att(1570,298).
att(36,1550).
att(970,1086).
att(902,1506).
att(6,180).
att(1556,1327).
att(1211,454).
att(1575,321).
att(33,1476).
att(1002,1113).
att(1572,332).
att(907,1341).
att(1570,355).
att(1007,1036).
att(1004,1089).
att(1484,533).
att(20,187).
att(1182,429).
att(67,1335).
att(1204,556).
att(898,1461).
att(1508,1477).
att(907,1450).
att(1464,445).
att(883,1374).
att(1007,1108).
att(96,1118).
att(1174,350).
att(1207,475).
att(1516,1478).
att(1505,1510).
att(1502,1477).
att(1571,359).
att(1462,475).
att(1542,169).
att(1,189).
att(5,183).
att(1579,359).
att(1548,27).
att(1009,1108).
att(897,1535).
att(170,1054).
att(1173,365).
att(971,1088).
att(1576,390).
att(1516,1417).
att(162,1068).
att(97,1150).
att(1212,481).
att(67,1478).
att(1561,357).
att(1570,370).
att(1173,386).
att(27,134).
att(1570,1283).
att(8,286).
att(166,1147).
att(1180,392).
att(1584,413).
att(1004,1129).
att(1554,377).
att(1581,419).
att(1004,1111).
att(1190,415).
att(1573,392).
att(1172,417).
att(836,983).
att(169,1156).
att(1174,397).
att(1557,235).
att(1006,1098).
att(1009,1148).
att(1560,271).
att(1210,470).
att(1546,44).
att(1568,1451).
att(1177,408).
att(1570,1319).
att(900,1552).
att(1549,1429).
att(1469,469).
att(879,1451).
att(1466,507).
att(62,1433).
att(1212,504).
att(70,1493).
att(970,1098).
att(1589,457).
att(1570,401).
att(62,1378).
att(1579,1324).
att(25,83).
att(884,1328).
att(1576,1323).
att(976,1037).
att(1560,287).
att(1554,262).
att(9,245).
att(1554,260).
att(67,1449).
att(1578,1283).
att(29,167).
att(1570,407).
att(5,245).
att(1556,1433).
att(1574,1320).
att(1547,53).
att(5,246).
att(61,1454).
att(4,209).
att(1590,423).
att(1005,1155).
att(1194,428).
att(976,1055).
att(1319,1165).
att(1583,432).
att(1468,501).
att(882,1494).
att(883,1491).
att(1471,561).
att(1577,1321).
att(972,1113).
att(1,196).
att(64,1414).
att(61,1379).
att(1212,558).
att(836,1066).
att(945,38).
att(1554,309).
att(1574,1351).
att(33,1553).
att(1005,1151).
att(116,1159).
att(1561,345).
att(37,1325).
att(37,1335).
att(943,133).
att(955,121).
att(39,1333).
att(1171,451).
att(1584,472).
att(41,1474).
att(973,1108).
att(99,1089).
att(1580,362).
att(40,1398).
att(1585,474).
att(1586,339).
att(1415,400).
att(1548,114).
att(1581,374).
att(886,1406).
att(1588,338).
att(92,1055).
att(98,1037).
att(1411,395).
att(978,1103).
att(1536,1492).
att(945,51).
att(1523,1461).
att(1548,112).
att(116,1148).
att(1534,1429).
att(1560,366).
att(121,1111).
att(1194,505).
att(1462,1295).
att(947,95).
att(1590,511).
att(113,1133).
att(1462,1299).
att(953,125).
att(1463,1300).
att(45,1455).
att(1589,464).
att(877,1552).
att(954,86).
att(1528,1429).
att(950,152).
att(98,989).
att(976,1105).
att(948,113).
att(1465,1352).
att(41,1457).
att(122,1147).
att(1563,395).
att(1580,402).
att(113,1091).
att(1547,155).
att(114,1096).
att(835,1106).
att(942,89).
att(1463,1324).
att(1533,1457).
att(974,1093).
att(1471,1267).
att(840,1058).
att(974,1154).
att(1573,237).
att(4,100).
att(7,165).
att(1049,1497).
att(1506,1481).
att(101,1132).
att(1572,430).
att(1175,436).
att(1566,305).
att(949,175).
att(1589,1299).
att(36,1480).
att(32,1433).
att(37,1450).
att(1543,304).
att(886,1493).
att(1200,498).
att(1174,414).
att(1194,500).
att(31,1384).
att(976,1111).
att(1186,499).
att(843,1037).
att(1170,419).
att(839,1056).
att(1566,327).
att(1565,327).
att(1574,263).
att(1043,1435).
att(1190,503).
att(1585,497).
att(1575,263).
att(1543,327).
att(1576,262).
att(1023,1341).
att(1543,328).
att(1516,1410).
att(1581,313).
att(99,1101).
att(1584,319).
att(838,1078).
att(1508,1437).
att(1517,1408).
att(1047,1515).
att(45,1522).
att(1514,1341).
att(940,191).
att(886,1536).
att(954,177).
att(941,185).
att(1170,428).
att(41,1520).
att(1045,1460).
att(1537,1518).
att(1179,461).
att(1589,1349).
att(1022,1341).
att(883,1390).
att(116,1456).
att(880,1388).
att(1397,440).
att(1526,493).
att(1052,1064).
att(1052,1066).
att(1512,439).
att(1176,48).
att(1178,31).
att(1207,276).
att(13,233).
att(906,1364).
att(1532,561).
att(1021,1056).
att(1468,278).
att(1463,271).
att(1546,1586).
att(1396,441).
att(1043,1132).
att(1519,507).
att(15,206).
att(15,197).
att(943,1504).
att(15,195).
att(950,1487).
att(836,827).
att(1177,44).
att(940,1455).
att(845,738).
att(946,1451).
att(841,698).
att(1174,12).
att(1182,279).
att(841,692).
att(1178,38).
att(1205,398).
att(10,197).
att(1021,995).
att(1548,1462).
att(1390,505).
att(1172,162).
att(955,1486).
att(1391,511).
att(10,203).
att(950,1482).
att(1466,298).
att(950,1513).
att(1521,556).
att(120,1373).
att(841,781).
att(15,224).
att(841,779).
att(57,1516).
att(1570,64).
att(57,1515).
att(19,205).
att(1577,118).
att(113,1402).
att(955,1513).
att(834,779).
att(900,1172).
att(1501,421).
att(15,175).
att(1175,40).
att(1427,560).
att(53,1458).
att(1521,491).
att(1507,437).
att(1510,424).
att(116,1333).
att(886,1153).
att(1504,423).
att(118,1339).
att(878,1286).
att(947,1461).
att(1020,1055).
att(1391,561).
att(1179,67).
att(1511,461).
att(1467,347).
att(1541,1560).
att(1020,1072).
att(114,1476).
att(834,809).
att(1507,451).
att(1177,98).
att(945,1544).
att(41,182).
att(925,1455).
att(926,1449).
att(953,1542).
att(84,1331).
att(1570,116).
att(1213,369).
att(833,813).
att(113,1536).
att(1051,1091).
att(1396,449).
att(1462,348).
att(1212,369).
att(1563,9).
att(119,1533).
att(884,1262).
att(47,179).
att(1466,370).
att(840,759).
att(943,1572).
att(1368,456).
att(1208,372).
att(1579,116).
att(1464,347).
att(842,822).
att(924,1410).
att(1173,119).
att(1181,98).
att(1466,385).
att(1563,8).
att(122,1537).
att(922,1404).
att(1490,441).
att(1372,419).
att(1469,384).
att(1465,365).
att(16,297).
att(120,1472).
att(1176,170).
att(1486,431).
att(1486,413).
att(1575,168).
att(1209,384).
att(46,138).
att(45,136).
att(1570,166).
att(1170,174).
att(1554,16).
att(1546,1560).
att(1501,475).
att(12,264).
att(42,86).
att(115,1432).
att(945,1464).
att(880,1394).
att(1575,84).
att(122,1496).
att(1395,502).
att(46,167).
att(1186,277).
att(1213,411).
att(1183,394).
att(11,233).
att(1538,1505).
att(1465,400).
att(1512,547).
att(1171,273).
att(1590,302).
att(1194,307).
att(1562,53).
att(925,1533).
att(929,1427).
att(900,1438).
att(1364,487).
att(1366,554).
att(925,1518).
att(1542,1484).
att(1558,65).
att(1027,1058).
att(898,1254).
att(63,1518).
att(1002,991).
att(53,1325).
att(1489,440).
att(1560,46).
att(1023,1138).
att(1023,1115).
att(1561,66).
att(1541,1524).
att(1549,1556).
att(21,225).
att(1021,1118).
att(1205,412).
att(1552,1514).
att(919,1523).
att(926,1553).
att(1188,328).
att(923,1536).
att(927,1555).
att(921,1200).
att(1025,1103).
att(1569,1477).
att(905,1254).
att(924,1500).
att(1025,1100).
att(1000,1070).
att(1198,349).
att(901,1286).
att(1555,1516).
att(1582,330).
att(929,1410).
att(1563,58).
att(68,1459).
att(923,1472).
att(1369,457).
att(1200,364).
att(899,1294).
att(174,1151).
att(1190,345).
att(68,1474).
att(898,1331).
att(29,179).
att(1482,461).
att(22,194).
att(920,1369).
att(21,185).
att(65,1534).
att(1565,1).
att(1560,1574).
att(17,177).
att(58,1522).
att(904,1450).
att(1027,1091).
att(18,177).
att(1588,390).
att(1559,90).
att(59,1520).
att(1489,462).
att(1563,144).
att(1590,389).
att(1564,174).
att(121,1326).
att(1369,510).
att(1582,366).
att(1486,507).
att(1544,1563).
att(903,1429).
att(1544,1580).
att(1483,477).
att(904,1378).
att(12,158).
att(58,1476).
att(1539,1585).
att(1188,394).
att(1483,473).
att(919,1516).
att(999,1074).
att(1565,67).
att(13,160).
att(55,1417).
att(1376,563).
att(1544,36).
att(929,1458).
att(1484,502).
att(1539,1463).
att(1541,49).
att(1462,434).
att(1369,561).
att(1180,290).
att(1180,285).
att(1467,430).
att(898,1480).
att(1470,421).
att(1179,293).
att(1565,40).
att(1188,406).
att(1211,441).
att(898,1423).
att(56,1457).
att(1028,1148).
att(56,1456).
att(1579,302).
att(899,1420).
att(17,165).
att(1003,1098).
att(1173,291).
att(905,1495).
att(1176,290).
att(1538,50).
att(1578,302).
att(22,269).
att(1487,487).
att(1565,31).
att(1172,406).
att(1006,711).
att(1463,30).
att(929,1093).
att(1006,705).
att(1371,97).
att(900,1074).
att(921,1266).
att(7,687).
att(1527,349).
att(1369,174).
att(901,1108).
att(9,670).
att(1183,28).
att(970,712).
att(1467,14).
att(1209,27).
att(1000,791).
att(1371,116).
att(1213,26).
att(1444,451).
att(1269,474).
att(1530,391).
att(1428,383).
att(35,238).
att(31,249).
att(32,284).
att(69,194).
att(902,1102).
att(924,1280).
att(1213,21).
att(2,606).
att(174,1497).
att(1006,653).
att(1423,418).
att(1268,501).
att(1002,832).
att(949,1213).
att(1541,1308).
att(20,577).
att(1571,1573).
att(969,741).
att(1538,1275).
att(1392,391).
att(1571,1579).
att(68,160).
att(1391,392).
att(940,1376).
att(34,206).
att(1210,11).
att(166,1377).
att(1205,71).
att(1465,23).
att(1465,14).
att(901,1097).
att(1538,1305).
att(1397,293).
att(1467,50).
att(954,1205).
att(1213,52).
att(26,579).
att(1504,287).
att(1391,410).
att(971,727).
att(1440,497).
att(971,726).
att(878,1060).
att(24,604).
att(878,1064).
att(1392,405).
att(972,766).
att(1521,407).
att(62,266).
att(1447,458).
att(1539,1332).
att(903,1153).
att(1210,38).
att(950,1191).
att(28,603).
att(882,1062).
att(1440,509).
att(1558,1466).
att(1441,493).
att(371,1166).
att(879,1064).
att(1559,1463).
att(1504,324).
att(975,665).
att(953,1251).
att(162,1533).
att(941,1170).
att(1006,813).
att(1420,458).
att(61,210).
att(1007,793).
att(1559,1484).
att(174,1500).
att(1563,1470).
att(25,601).
att(1499,323).
att(974,716).
att(70,204).
att(1401,368).
att(1560,1489).
att(1395,366).
att(1470,114).
att(1560,1511).
att(1447,448).
att(164,1474).
att(1540,1336).
att(906,1070).
att(7,660).
att(948,1233).
att(1009,813).
att(9,719).
att(1,642).
att(879,1087).
att(1560,1499).
att(1462,56).
att(1561,1484).
att(1419,459).
att(1547,1273).
att(955,1300).
att(906,1138).
att(1367,362).
att(1465,168).
att(1579,1519).
att(99,1496).
att(945,1297).
att(952,1266).
att(1190,11).
att(835,692).
att(879,1094).
att(1419,468).
att(1422,511).
att(881,1147).
att(37,171).
att(1395,395).
att(1186,24).
att(1583,20).
att(50,231).
att(1464,122).
att(1530,419).
att(1446,505).
att(835,712).
att(1182,101).
att(1488,274).
att(41,252).
att(46,269).
att(1198,15).
att(945,1362).
att(1526,430).
att(955,1353).
att(1192,36).
att(1486,295).
att(1203,276).
att(1390,440).
att(1587,38).
att(882,1110).
att(882,1156).
att(1188,64).
att(1045,1066).
att(39,100).
att(953,1316).
att(1391,425).
att(1479,270).
att(1547,1291).
att(1584,70).
att(48,238).
att(90,1437).
att(1422,561).
att(39,83).
att(1370,298).
att(90,1404).
att(1448,495).
att(906,1112).
att(1582,1485).
att(1582,1469).
att(835,737).
att(94,1408).
att(876,1149).
att(1376,327).
att(945,1413).
att(1578,6).
att(940,1335).
att(92,1516).
att(981,804).
att(1521,460).
att(2,530).
att(1486,327).
att(1393,458).
att(1370,332).
att(1192,55).
att(34,225).
att(1488,323).
att(1489,330).
att(884,1074).
att(1049,1071).
att(1525,447).
att(1574,1463).
att(1588,98).
att(1196,71).
att(1582,53).
att(1392,458).
att(1180,8).
att(1370,345).
att(1393,423).
att(1428,458).
att(949,1389).
att(36,222).
att(1428,459).
att(1489,347).
att(34,180).
att(978,762).
att(955,1409).
att(1490,363).
att(1588,113).
att(35,176).
att(1181,8).
att(1188,51).
att(1426,444).
att(1571,1487).
att(950,1413).
att(1,526).
att(981,762).
att(954,1421).
att(1585,169).
att(844,698).
att(1521,474).
att(35,191).
att(886,1136).
att(976,829).
att(1490,385).
att(1583,94).
att(1426,503).
att(1510,416).
att(32,179).
att(1043,1107).
att(1574,1511).
att(952,1447).
att(98,1474).
att(1519,448).
att(90,1493).
att(1200,92).
att(1370,388).
att(1590,96).
att(943,1263).
att(1178,25).
att(1484,368).
att(1484,365).
att(42,282).
att(978,832).
att(1530,463).
att(35,139).
att(1490,399).
att(1389,442).
att(1583,122).
att(5,555).
att(1213,273).
att(954,1441).
att(44,529).
att(1538,568).
att(47,599).
att(1538,570).
att(1470,767).
att(1487,218).
att(1544,541).
att(939,1042).
att(1488,112).
att(1485,108).
att(1489,112).
att(925,892).
att(46,551).
att(11,658).
att(113,179).
att(48,551).
att(1563,631).
att(48,562).
att(1022,703).
att(120,179).
att(1483,104).
att(1000,528).
att(1021,717).
att(1483,131).
att(929,850).
att(1027,553).
att(12,638).
att(1052,642).
att(928,958).
att(120,194).
att(1021,660).
att(122,186).
att(36,484).
att(928,996).
att(101,192).
att(1463,124).
att(71,184).
att(47,643).
att(1540,646).
att(119,301).
att(45,634).
att(1462,756).
att(1466,758).
att(113,231).
att(122,286).
att(322,693).
att(1030,584).
att(1469,149).
att(1479,221).
att(1566,681).
att(1467,746).
att(117,266).
att(1548,1134).
att(1463,755).
att(1001,613).
att(1546,1135).
att(899,913).
att(1462,790).
att(118,208).
att(924,1041).
att(1465,792).
att(904,957).
att(1561,565).
att(1557,590).
att(53,185).
att(1513,110).
att(1027,640).
att(1558,590).
att(28,640).
att(1025,715).
att(1025,704).
att(1564,567).
att(1564,565).
att(60,222).
att(55,194).
att(1009,551).
att(22,612).
att(14,489).
att(1512,104).
att(1000,671).
att(22,688).
att(1578,627).
att(63,249).
att(900,935).
att(902,968).
att(903,998).
att(26,633).
att(51,78).
att(1512,152).
att(898,1039).
att(113,85).
att(57,230).
att(1009,607).
att(58,297).
att(901,1057).
att(1565,1126).
att(1544,1145).
att(899,1059).
att(1006,584).
att(1487,747).
att(1562,679).
att(969,579).
att(272,989).
att(56,195).
att(56,203).
att(907,963).
att(60,267).
att(883,963).
att(1479,794).
att(120,85).
att(1501,215).
att(52,196).
att(1560,537).
att(1512,79).
att(882,915).
att(15,523).
att(1499,76).
att(1499,111).
att(60,208).
att(881,619).
att(906,632).
att(25,859).
att(1590,631).
att(27,862).
att(1570,1144).
att(1588,631).
att(1511,819).
att(1,1063).
att(21,864).
att(1586,683).
att(982,91).
att(1532,155).
att(1587,681).
att(1525,147).
att(28,869).
att(145,230).
att(174,266).
att(1574,1134).
att(1005,265).
att(1005,269).
att(1579,1116).
att(1579,1121).
att(145,246).
att(144,250).
att(1530,154).
att(1519,767).
att(971,231).
att(5,968).
att(69,575).
att(1,998).
att(25,872).
att(981,194).
att(1576,1134).
att(62,557).
att(881,607).
att(7,931).
att(62,549).
att(1585,522).
att(835,171).
att(5,1013).
att(969,231).
att(2,935).
att(1507,775).
att(982,224).
att(1579,522).
att(62,670).
att(975,175).
att(17,846).
att(56,532).
att(878,690).
att(1525,198).
att(28,934).
att(1046,529).
att(59,600).
att(1047,529).
att(1047,528).
att(881,717).
att(1574,544).
att(1579,515).
att(1527,212).
att(62,686).
att(1504,797).
att(1530,218).
att(880,660).
att(883,642).
att(1570,574).
att(974,177).
att(62,641).
att(1575,570).
att(1529,77).
att(1510,796).
att(1583,609).
att(23,911).
att(54,483).
att(1530,217).
att(57,492).
att(949,863).
att(835,195).
att(952,853).
att(882,710).
att(1049,526).
att(63,634).
att(949,850).
att(1045,528).
att(1511,800).
att(1046,605).
att(978,250).
att(1469,644).
att(940,861).
att(1584,1134).
att(954,908).
att(1585,1139).
att(843,135).
att(976,234).
att(101,267).
att(953,878).
att(1467,621).
att(39,583).
att(35,605).
att(981,230).
att(94,227).
att(949,856).
att(1538,973).
att(31,523).
att(844,173).
att(1469,512).
att(33,557).
att(943,939).
att(1547,923).
att(1543,839).
att(1548,899).
att(1470,677).
att(885,673).
att(94,188).
att(952,894).
att(1048,615).
att(33,488).
att(947,915).
att(1547,925).
att(1046,672).
att(836,301).
att(39,546).
att(844,207).
att(169,184).
att(1529,796).
att(1530,773).
att(1588,544).
att(1053,605).
att(954,1016).
att(951,973).
att(1582,541).
att(844,203).
att(7,894).
att(92,301).
att(1546,971).
att(840,177).
att(8,889).
att(951,1007).
att(40,664).
att(1019,557).
att(162,158).
att(840,267).
att(33,639).
att(1584,590).
att(96,230).
att(170,139).
att(952,1063).
att(1462,622).
att(90,294).
att(945,1024).
att(31,637).
att(4,859).
att(96,234).
att(838,238).
att(1463,627).
att(1585,594).
att(833,206).
att(1022,575).
att(953,1048).
att(1022,580).
att(1468,620).
att(948,878).
att(44,893).
att(1541,128).
att(42,913).
att(47,958).
att(944,703).
att(1482,1257).
att(46,890).
att(1566,73).
att(1020,194).
att(1466,379).
att(952,664).
att(1050,179).
att(41,917).
att(921,550).
att(99,490).
att(949,703).
att(939,691).
att(1489,1285).
att(1538,756).
att(1542,758).
att(120,612).
att(927,581).
att(1462,261).
att(45,860).
att(1051,249).
att(1051,230).
att(41,848).
att(1485,319).
att(841,1502).
att(1468,259).
att(14,1039).
att(1022,292).
att(46,968).
att(1466,1354).
att(924,617).
att(945,754).
att(1582,261).
att(1589,243).
att(1548,146).
att(31,868).
att(43,1057).
att(920,580).
att(926,607).
att(920,583).
att(1052,247).
att(1466,1350).
att(1467,1347).
att(37,873).
att(1053,282).
att(1589,259).
att(999,88).
att(927,643).
att(945,817).
att(1543,212).
att(902,530).
att(1463,313).
att(1548,768).
att(924,641).
att(113,721).
att(1002,135).
att(48,935).
att(1542,73).
att(920,606).
att(98,529).
att(1462,361).
att(1003,191).
att(1539,74).
att(1547,799).
att(114,643).
att(903,557).
att(919,613).
att(96,557).
att(1504,1285).
att(57,611).
att(1025,267).
att(28,1063).
att(58,612).
att(1487,243).
att(51,619).
att(1487,380).
att(19,916).
att(1026,204).
att(28,1059).
att(16,861).
att(1025,196).
att(330,1148).
att(13,914).
att(1564,146).
att(1001,222).
att(11,854).
att(972,85).
att(1004,159).
att(905,632).
att(11,847).
att(1580,147).
att(1483,261).
att(1488,263).
att(22,994).
att(23,936).
att(1007,83).
att(1513,1348).
att(1509,316).
att(1510,320).
att(1563,772).
att(1512,1346).
att(1564,767).
att(970,95).
att(970,91).
att(1543,768).
att(1007,188).
att(972,140).
att(1540,788).
att(906,546).
att(1541,815).
att(906,494).
att(999,249).
att(1564,79).
att(54,710).
att(1561,212).
att(1557,77).
att(1562,214).
att(1007,141).
att(1483,313).
att(1000,301).
att(119,531).
att(907,602).
att(1007,229).
att(10,965).
att(60,704).
att(1580,212).
att(970,228).
att(1486,355).
att(364,1054).
att(120,562).
att(16,893).
att(969,183).
att(13,961).
att(115,562).
att(1490,337).
att(13,963).
att(93,793).
att(1544,500).
att(55,850).
att(64,918).
att(950,435).
att(55,855).
att(1542,554).
att(1519,1317).
att(1571,756).
att(1507,257).
att(1005,1458).
att(26,1245).
att(907,136).
att(1009,1491).
att(27,1245).
att(880,140).
att(20,1415).
att(24,1218).
att(95,822).
att(58,850).
att(1538,507).
att(901,230).
att(1512,263).
att(1529,308).
att(906,229).
att(164,688).
att(1540,558).
att(63,887).
att(973,1326).
att(1007,1534).
att(1573,798).
att(1581,213).
att(880,223).
att(972,1520).
att(880,227).
att(166,687).
att(171,669).
att(1521,315).
att(173,661).
att(945,459).
att(982,1325).
att(86,724).
att(878,134).
att(971,1491).
att(972,1493).
att(1519,353).
att(78,724).
att(172,686).
att(943,429).
att(70,961).
att(1586,77).
att(1006,1552).
att(906,266).
att(1558,812).
att(1577,214).
att(17,1222).
att(52,910).
att(161,749).
att(51,892).
att(1560,814).
att(878,180).
att(978,1374).
att(1524,1257).
att(1563,819).
att(13,1232).
att(951,480).
att(27,1276).
att(882,233).
att(60,916).
att(955,499).
att(1046,143).
att(1573,132).
att(951,497).
att(61,1067).
att(54,870).
att(1044,100).
att(1548,504).
att(26,1305).
att(1577,123).
att(991,1164).
att(1507,235).
att(173,737).
att(1575,149).
att(1530,253).
att(1587,776).
att(33,965).
att(36,933).
att(950,515).
att(1049,189).
att(99,703).
att(1049,182).
att(35,960).
att(166,548).
att(835,1477).
att(835,1475).
att(1589,756).
att(32,932).
att(31,956).
att(955,487).
att(20,1233).
att(978,1522).
att(38,960).
att(89,669).
att(174,548).
att(40,930).
att(974,1475).
att(84,691).
att(952,482).
att(950,565).
att(1584,817).
att(97,688).
att(975,1502).
att(1469,110).
att(1049,225).
att(169,488).
att(1585,815).
att(38,887).
att(3,1191).
att(7,1230).
att(939,523).
att(1587,805).
att(71,643).
att(974,1508).
att(45,1041).
att(981,1506).
att(1538,623).
att(838,1335).
att(6,1195).
att(954,532).
att(40,894).
att(1589,817).
att(101,606).
att(1045,181).
att(34,856).
att(1540,621).
att(1020,100).
att(944,636).
att(33,1059).
att(955,627).
att(1587,108).
att(169,617).
att(946,577).
att(1577,816).
att(1048,254).
att(950,629).
att(1050,142).
att(1046,245).
att(172,617).
att(91,763).
att(85,723).
att(955,652).
att(1047,252).
att(6,1279).
att(1525,375).
att(955,656).
att(1519,232).
att(1519,237).
att(976,1567).
att(946,604).
att(843,1432).
att(941,600).
att(1589,102).
att(835,1568).
att(1,1272).
att(944,689).
att(61,852).
att(840,1495).
att(1584,146).
att(65,872).
att(62,848).
att(946,617).
att(1519,262).
att(833,1492).
att(88,712).
att(1050,181).
att(63,851).
att(839,1476).
att(5,1273).
att(70,857).
att(844,1473).
att(1548,621).
att(944,617).
att(6,1241).
att(1047,294).
att(70,852).
att(1048,248).
att(86,661).
att(1525,261).
att(31,937).
att(1051,187).
att(162,603).
att(9,1303).
