arg(1..2288).
att(337,461).
att(566,2102).
att(563,2110).
att(571,2163).
att(544,1578).
att(540,1598).
att(568,2108).
att(341,463).
att(570,2180).
att(568,2136).
att(545,1599).
att(555,1641).
att(578,2183).
att(571,2202).
att(575,2194).
att(364,1881).
att(341,325).
att(573,2201).
att(368,1881).
att(546,1622).
att(578,2188).
att(571,2062).
att(538,1747).
att(517,1740).
att(332,1916).
att(525,1641).
att(555,1688).
att(519,1740).
att(521,1635).
att(538,1716).
att(544,1699).
att(1530,1758).
att(544,1701).
att(336,1913).
att(540,1715).
att(561,2203).
att(540,1698).
att(519,1755).
att(545,1690).
att(371,1919).
att(555,1710).
att(557,1735).
att(569,2191).
att(528,1637).
att(546,1669).
att(560,2066).
att(1534,1766).
att(563,2060).
att(1504,1767).
att(562,2085).
att(528,1747).
att(541,1708).
att(571,1419).
att(528,1744).
att(569,2200).
att(334,1948).
att(543,1729).
att(547,1709).
att(573,1405).
att(337,441).
att(555,1577).
att(338,439).
att(371,1949).
att(564,2112).
att(341,436).
att(577,2141).
att(581,2181).
att(388,1894).
att(581,2172).
att(394,1894).
att(364,499).
att(580,2196).
att(392,1889).
att(362,323).
att(364,333).
att(1452,1767).
att(360,357).
att(581,2208).
att(386,1915).
att(581,2205).
att(586,2195).
att(582,2061).
att(397,1893).
att(580,2063).
att(588,2207).
att(396,1918).
att(585,2204).
att(581,2077).
att(599,1417).
att(370,363).
att(1562,1762).
att(364,1942).
att(547,1747).
att(1560,1761).
att(370,1918).
att(572,2064).
att(544,1749).
att(581,1419).
att(577,2069).
att(578,2060).
att(367,448).
att(588,1378).
att(360,468).
att(588,1415).
att(588,1413).
att(367,459).
att(573,2127).
att(574,2136).
att(578,2108).
att(383,1865).
att(358,503).
att(584,2184).
att(1570,1761).
att(397,502).
att(383,348).
att(607,2178).
att(1570,1763).
att(396,504).
att(388,359).
att(393,324).
att(602,2194).
att(422,1895).
att(419,1918).
att(607,2191).
att(396,323).
att(416,1951).
att(416,1916).
att(394,361).
att(410,440).
att(397,350).
att(606,2201).
att(602,2067).
att(419,446).
att(410,463).
att(517,1417).
att(605,2085).
att(421,443).
att(605,2086).
att(395,1942).
att(600,1386).
att(396,1945).
att(585,2064).
att(586,2088).
att(586,2085).
att(392,466).
att(395,441).
att(393,461).
att(582,2146).
att(394,466).
att(397,440).
att(390,462).
att(583,2127).
att(587,2097).
att(600,2157).
att(386,499).
att(394,489).
att(586,2139).
att(603,2183).
att(9,405).
att(607,2160).
att(392,509).
att(600,2179).
att(587,2132).
att(392,499).
att(604,2163).
att(601,2180).
att(416,1861).
att(408,1920).
att(393,501).
att(394,505).
att(410,1920).
att(422,335).
att(423,329).
att(567,1921).
att(419,348).
att(413,363).
att(526,2199).
att(564,1943).
att(420,357).
att(525,2206).
att(334,271).
att(523,2087).
att(336,104).
att(538,1388).
att(527,2061).
att(555,1410).
att(562,461).
att(566,443).
att(541,1388).
att(528,2061).
att(527,2088).
att(336,97).
att(1604,1761).
att(1137,1760).
att(1604,1763).
att(338,142).
att(528,2081).
att(566,459).
att(557,2159).
att(563,464).
att(1129,1759).
att(526,2102).
att(547,1405).
att(561,487).
att(330,140).
att(600,2110).
att(604,2086).
att(601,2139).
att(601,2132).
att(417,486).
att(562,1855).
att(535,2182).
att(526,2166).
att(560,1855).
att(419,479).
att(603,2127).
att(605,2144).
att(421,479).
att(602,2133).
att(562,1883).
att(422,483).
att(528,2162).
att(419,499).
att(563,1865).
att(564,1881).
att(517,2193).
att(525,2193).
att(422,507).
att(564,1920).
att(416,365).
att(1040,1761).
att(2242,1809).
att(41,493).
att(566,1621).
att(560,1638).
att(371,2160).
att(541,983).
att(38,470).
att(2243,1811).
att(571,1692).
att(526,1213).
att(1035,1765).
att(2241,1811).
att(42,471).
att(337,2196).
att(2236,1888).
att(28,432).
att(546,1006).
att(2246,1986).
att(2243,1970).
att(567,1637).
att(28,431).
att(568,1738).
att(330,2060).
att(337,2204).
att(41,537).
att(30,498).
att(2242,1964).
att(543,1043).
att(36,520).
att(340,2208).
att(564,1756).
att(2243,1964).
att(2240,2026).
att(2243,1966).
att(576,1715).
att(336,2066).
att(336,2060).
att(2240,1987).
att(568,1751).
att(2248,2046).
att(337,2061).
att(565,1749).
att(545,1056).
att(2242,2026).
att(571,1731).
att(570,1722).
att(338,2063).
att(543,1061).
att(2243,2023).
att(543,1186).
att(2246,2039).
att(2243,1991).
att(332,1382).
att(528,1044).
att(13,380).
att(36,558).
att(30,539).
att(334,1378).
att(563,1722).
att(2232,2018).
att(564,1728).
att(568,1714).
att(17,385).
att(34,553).
att(527,1055).
att(561,1728).
att(2237,2044).
att(555,1137).
att(42,552).
att(42,548).
att(560,1580).
att(555,1127).
att(526,1061).
att(30,513).
att(36,534).
att(2240,1775).
att(2233,2044).
att(2229,2042).
att(538,1129).
att(336,1405).
att(26,513).
att(1016,1765).
att(2248,1796).
att(371,1417).
att(1015,1764).
att(557,1158).
att(563,1575).
att(340,1416).
att(567,1731).
att(341,1411).
att(540,992).
att(2234,1867).
att(2247,1786).
att(20,452).
att(561,1615).
att(1011,1758).
att(525,1207).
att(2241,1769).
att(519,1212).
att(2246,1808).
att(340,2164).
att(326,2178).
att(569,1571).
att(15,435).
att(2243,1775).
att(1675,1765).
att(523,1219).
att(14,431).
att(28,552).
att(1006,1759).
att(28,556).
att(544,992).
att(2229,1890).
att(341,2183).
att(523,1216).
att(527,1210).
att(564,1614).
att(330,2180).
att(2229,1878).
att(2233,1853).
att(20,426).
att(1006,1765).
att(330,2175).
att(8,453).
att(573,1745).
att(573,1744).
att(3,434).
att(582,1694).
att(3,426).
att(574,1638).
att(369,2198).
att(574,1740).
att(577,1745).
att(577,1747).
att(6,431).
att(589,1688).
att(575,1752).
att(360,2065).
att(9,433).
att(7,500).
att(362,2084).
att(368,2065).
att(7,496).
att(356,2084).
att(586,1712).
att(383,1410).
att(583,1734).
att(390,1418).
att(390,1384).
att(358,2099).
att(390,1386).
att(370,2082).
att(395,1376).
att(581,1577).
att(588,1722).
att(364,2110).
att(585,1573).
att(586,1575).
att(366,2112).
att(21,438).
att(1,451).
att(392,2166).
att(2244,2021).
att(9,553).
att(2241,2044).
att(540,1193).
att(555,1198).
att(332,2114).
att(368,1386).
att(545,1184).
att(574,1730).
att(2246,2041).
att(358,2160).
att(574,1572).
att(546,1183).
att(571,1591).
att(2243,2019).
att(370,1382).
att(990,1767).
att(8,520).
att(544,1188).
att(368,1410).
att(2247,1857).
att(7,513).
att(555,1220).
att(364,2156).
att(366,2184).
att(2245,2036).
att(557,1212).
att(1,491).
att(9,518).
att(576,1574).
att(2247,1886).
att(2247,1890).
att(362,2176).
att(32,399).
att(2248,1888).
att(369,2164).
att(369,2166).
att(3,551).
att(371,2144).
att(578,1597).
att(340,2144).
att(2245,1852).
att(340,2135).
att(547,1208).
att(41,438).
att(538,1216).
att(584,1669).
att(576,1613).
att(2241,1892).
att(7,550).
att(574,1618).
att(582,1661).
att(42,398).
att(370,2175).
att(397,2199).
att(53,510).
att(604,1694).
att(54,500).
att(605,1707).
att(55,513).
att(397,2203).
att(390,2087).
att(599,1576).
att(395,2062).
att(1189,1760).
att(421,1382).
att(53,474).
att(606,1711).
att(388,2097).
att(422,1388).
att(410,2157).
att(423,1416).
att(419,1413).
att(58,553).
att(1185,1758).
att(421,1411).
att(62,559).
att(53,536).
att(410,2175).
att(395,2110).
att(410,2177).
att(390,2129).
att(48,411).
att(60,559).
att(606,1580).
att(583,1592).
att(393,2164).
att(367,2097).
att(362,2127).
att(582,1620).
att(586,1595).
att(364,2135).
att(589,1578).
att(394,2162).
att(583,1599).
att(52,473).
att(46,438).
att(395,2157).
att(393,2184).
att(44,438).
att(43,414).
att(580,1639).
att(582,1631).
att(369,2136).
att(369,2127).
att(580,1740).
att(603,1669).
att(47,495).
att(392,2191).
att(49,515).
att(585,1636).
att(44,494).
att(47,476).
att(47,472).
att(50,498).
att(603,1696).
att(606,1664).
att(395,2196).
att(47,470).
att(392,2200).
att(386,2203).
att(49,490).
att(388,2068).
att(386,2062).
att(605,1688).
att(44,470).
att(388,2062).
att(394,2199).
att(583,1742).
att(599,1707).
att(395,2194).
att(408,2105).
att(408,2097).
att(535,1577).
att(13,478).
att(527,1735).
att(423,2082).
att(527,1731).
att(568,1418).
att(413,2097).
att(421,2088).
att(561,1411).
att(565,1416).
att(20,491).
att(417,2108).
att(423,2085).
att(563,1405).
att(423,2080).
att(564,2157).
att(565,1405).
att(20,550).
att(519,1613).
att(18,552).
att(59,399).
att(15,529).
att(517,1622).
att(564,2178).
att(564,2172).
att(330,1897).
att(524,1595).
att(20,533).
att(525,1618).
att(338,1861).
att(519,1631).
att(519,1629).
att(422,2129).
att(567,2184).
att(528,1593).
att(423,2144).
att(526,1596).
att(336,1921).
att(340,1863).
att(540,1666).
att(337,1894).
att(519,1641).
att(562,2197).
att(606,1590).
att(13,556).
att(54,414).
att(413,2175).
att(11,559).
att(422,2160).
att(607,1613).
att(600,1640).
att(523,1666).
att(604,1619).
att(56,405).
att(517,1694).
att(527,1661).
att(517,1688).
att(13,529).
att(11,542).
att(58,389).
att(605,1631).
att(417,2197).
att(408,2200).
att(528,1667).
att(535,1707).
att(599,1750).
att(419,2200).
att(527,1688).
att(601,1748).
att(517,1706).
att(1043,1762).
att(528,1696).
att(61,474).
att(413,2069).
att(420,2207).
att(1041,1763).
att(413,2082).
att(564,1376).
att(62,458).
att(408,2086).
att(524,1709).
att(70,460).
att(555,365).
att(570,1086).
att(368,921).
att(338,1684).
att(541,350).
att(73,559).
att(340,1691).
att(341,1697).
att(572,1075).
att(578,1087).
att(63,387).
att(369,954).
att(80,542).
att(360,747).
att(360,780).
att(367,747).
att(362,784).
att(581,293).
att(356,818).
att(370,758).
att(572,1128).
att(586,100).
att(571,1155).
att(66,453).
att(64,431).
att(66,454).
att(66,449).
att(566,1126).
att(371,758).
att(578,273).
att(67,510).
att(334,811).
att(66,513).
att(567,1117).
att(555,487).
att(338,816).
att(338,809).
att(578,295).
att(70,511).
att(541,457).
att(579,102).
att(571,160).
att(546,457).
att(567,1159).
att(340,815).
att(545,484).
att(541,489).
att(68,552).
att(153,431).
att(366,897).
att(358,927).
att(334,837).
att(149,399).
att(360,932).
att(63,534).
att(341,833).
att(367,856).
att(151,381).
att(71,554).
att(337,1660).
att(368,927).
att(68,530).
att(557,333).
att(156,385).
att(364,911).
att(546,501).
att(67,531).
att(156,389).
att(334,1689).
att(538,331).
att(543,325).
att(579,162).
att(47,534).
att(51,552).
att(393,962).
att(395,766).
att(607,269).
att(386,818).
att(588,1099).
att(598,145).
att(582,1145).
att(169,382).
att(44,522).
att(602,293).
att(52,542).
att(583,1124).
att(81,381).
att(606,271).
att(587,1100).
att(601,142).
att(174,418).
att(604,299).
att(588,1123).
att(582,1163).
att(169,418).
att(598,132).
att(76,403).
att(607,100).
att(82,451).
att(81,451).
att(599,164).
att(165,418).
att(413,897).
att(165,411).
att(416,895).
att(386,838).
att(386,1654).
att(602,177).
att(394,838).
att(159,398).
att(158,403).
att(397,811).
att(360,834).
att(76,475).
att(576,1149).
att(81,513).
att(362,833).
att(167,434).
att(1892,942).
att(578,1152).
att(158,434).
att(584,176).
att(1888,946).
att(171,458).
att(367,838).
att(356,1658).
att(78,472).
att(167,456).
att(364,1658).
att(171,470).
att(583,200).
att(366,1660).
att(158,454).
att(366,1657).
att(392,970).
att(174,496).
att(587,164).
att(157,451).
att(70,403).
att(167,470).
att(581,191).
att(79,532).
att(580,1080).
att(584,1080).
att(392,958).
att(76,492).
att(161,498).
att(169,513).
att(1885,936).
att(171,514).
att(586,1079).
att(1885,940).
att(1885,942).
att(165,520).
att(80,496).
att(80,498).
att(603,1123).
att(604,1123).
att(119,454).
att(408,816).
att(519,95).
att(603,1145).
att(603,1142).
att(423,778).
att(600,1145).
att(517,142).
att(413,830).
att(113,454).
att(120,472).
att(119,437).
att(517,138).
att(124,452).
att(408,834).
att(410,1668).
att(566,890).
att(419,836).
att(521,175).
att(606,1145).
att(535,166).
att(413,835).
att(115,520).
att(517,175).
att(527,93).
att(107,500).
att(416,1652).
att(421,831).
att(119,500).
att(560,966).
att(566,878).
att(117,495).
att(117,490).
att(563,882).
att(527,172).
att(416,1687).
att(565,884).
att(607,129).
att(600,172).
att(604,140).
att(390,1670).
att(395,836).
att(117,534).
att(208,385).
att(117,533).
att(416,968).
att(121,550).
att(393,1685).
att(113,542).
att(107,518).
att(393,1679).
att(605,190).
att(606,190).
att(396,1697).
att(413,765).
att(396,1695).
att(213,474).
att(421,762).
att(410,756).
att(216,453).
att(606,1075).
att(419,758).
att(523,309).
att(214,450).
att(523,267).
att(605,1106).
att(416,784).
att(605,1097).
att(524,271).
att(562,831).
att(151,452).
att(528,1117).
att(149,458).
att(152,437).
att(544,145).
att(564,833).
att(149,450).
att(336,1506).
att(568,812).
att(570,923).
att(574,895).
att(546,143).
att(150,435).
att(153,452).
att(63,553).
att(341,1512).
att(538,164).
att(332,1340).
att(560,1691).
att(575,925).
att(538,1087).
att(544,166).
att(561,1680).
att(562,1697).
att(574,971).
att(332,1355).
att(566,1680).
att(574,921).
att(563,1691).
att(341,1361).
att(538,1079).
att(544,195).
att(155,556).
att(422,1670).
att(115,382).
att(120,405).
att(153,553).
att(147,513).
att(152,514).
att(525,1080).
att(563,765).
att(569,921).
att(563,960).
att(154,529).
att(523,1086).
att(567,952).
att(561,754).
att(524,1076).
att(565,954).
att(326,1494).
att(541,269).
att(371,1269).
att(560,780).
att(567,765).
att(120,454).
att(148,548).
att(524,1101).
att(561,780).
att(566,787).
att(152,550).
att(326,1525).
att(560,816).
att(525,1123).
att(546,269).
att(547,309).
att(557,85).
att(567,760).
att(538,100).
att(564,783).
att(107,382).
att(523,1152).
att(564,808).
att(540,145).
att(367,273).
att(337,1105).
att(358,100).
att(364,269).
att(336,1136).
att(330,1126).
att(544,2077).
att(541,2085).
att(557,2103).
att(543,2110).
att(543,2116).
att(578,439).
att(540,2110).
att(577,465).
att(545,2103).
att(570,483).
att(356,129).
att(557,2141).
att(570,481).
att(578,444).
att(369,105).
att(578,446).
att(334,1163).
att(541,2127).
att(371,1142).
att(360,134).
att(573,487).
att(584,1863).
att(572,502).
att(368,127).
att(578,481).
att(583,1898).
att(360,170).
att(572,501).
att(566,489).
att(562,503).
att(340,136).
att(572,1895).
att(561,504).
att(337,176).
att(565,488).
att(371,127).
att(545,2198).
att(566,329).
att(543,2196).
att(540,2206).
att(341,191).
att(546,2194).
att(571,448).
att(338,1075).
att(579,1913).
att(538,2067).
att(341,1080).
att(565,361).
att(360,1147).
att(216,512).
att(367,1121).
att(581,459).
att(397,102).
att(212,480).
att(587,444).
att(587,443).
att(588,468).
att(214,493).
att(386,140).
att(208,470).
att(208,473).
att(370,1155).
att(395,140).
att(396,134).
att(386,199).
att(588,481).
att(588,479).
att(386,162).
att(383,192).
att(587,487).
att(390,194).
att(607,1865).
att(206,522).
att(598,1916).
att(605,1891).
att(206,520).
att(582,355).
att(383,1081).
att(581,1922).
att(573,335).
att(588,1865).
att(585,1895).
att(570,335).
att(570,333).
att(574,505).
att(356,194).
att(589,1894).
att(366,195).
att(580,1917).
att(577,339).
att(570,363).
att(356,1082).
att(358,1105).
att(358,1101).
att(360,1099).
att(581,1944).
att(356,1117).
att(578,365).
att(358,1130).
att(579,361).
att(370,1104).
att(370,1103).
att(587,1948).
att(583,436).
att(422,95).
att(604,482).
att(408,172).
att(397,1163).
att(602,484).
att(521,1895).
att(419,162).
att(607,481).
att(523,1859).
att(423,200).
att(423,173).
att(523,1912).
att(605,333).
att(606,509).
att(602,333).
att(535,1952).
att(419,1083).
att(535,1948).
att(535,1943).
att(422,190).
att(604,355).
att(416,1103).
att(396,190).
att(605,1917).
att(586,365).
att(586,363).
att(606,1920).
att(388,1099).
att(383,1101).
att(397,190).
att(390,1103).
att(603,1948).
att(603,1943).
att(600,1943).
att(588,355).
att(421,305).
att(394,1103).
att(388,1121).
att(383,1124).
att(589,353).
att(602,1944).
att(410,299).
att(410,87).
att(396,1104).
att(388,1155).
att(421,293).
att(396,1126).
att(601,465).
att(604,440).
att(420,87).
att(416,132).
att(394,1163).
att(417,142).
att(410,177).
att(606,446).
att(599,486).
att(525,505).
att(566,173).
att(535,320).
att(334,911).
att(543,1881).
att(340,884).
att(524,508).
att(561,193).
att(541,1922).
att(525,324).
att(562,1075).
att(546,1859).
att(543,1912).
att(538,1915).
att(544,1881).
att(541,1913).
att(563,1086).
att(546,1881).
att(563,1097).
att(544,1912).
att(577,305).
att(555,446).
att(338,756).
att(566,1096).
att(571,299).
att(543,436).
att(538,439).
att(561,1136).
att(519,436).
att(528,1918).
att(563,308).
att(535,439).
att(607,361).
att(526,1912).
att(565,303).
att(421,1101).
att(417,1104).
att(560,110).
att(606,359).
att(410,1142).
att(523,444).
att(523,440).
att(421,1124).
att(561,87).
att(525,461).
att(417,1142).
att(564,143).
att(423,1149).
att(423,1142).
att(523,482).
att(561,129).
att(565,132).
att(525,483).
att(562,160).
att(569,145).
att(338,854).
att(567,143).
att(540,1902).
att(562,200).
att(519,504).
att(2272,882).
att(2264,833).
att(2273,897).
att(1811,1049).
att(25,520).
att(2238,160).
att(2262,831).
att(1808,1031).
att(2271,932).
att(2043,1650).
att(2229,162).
att(35,409).
att(1810,1046).
att(2040,1655).
att(2041,1677).
att(1810,1054).
att(227,556).
att(2237,192).
att(2270,972).
att(1808,996).
att(2259,1695).
att(225,553).
att(1803,1115).
att(225,550).
att(33,398).
att(1805,996).
att(1808,980).
att(10,389).
att(2038,1644).
att(2266,1660).
att(1805,1064).
att(40,434).
att(1809,1032).
att(2278,927).
att(2043,1678).
att(1780,999).
att(1805,1052).
att(1804,1179).
att(1781,999).
att(35,434).
att(24,549).
att(1806,1077).
att(31,432).
att(2237,1083).
att(1810,1074).
att(2235,200).
att(2046,1601).
att(2037,1721).
att(2273,921).
att(2238,1080).
att(27,433).
att(2044,1585).
att(1808,1078).
att(1780,1110).
att(2275,966).
att(2111,1269).
att(2020,1607).
att(2045,1529).
att(2041,1720).
att(2230,1096).
att(2017,1562).
att(2272,752).
att(2041,1723).
att(2046,1531).
att(2120,1244).
att(1780,1047).
att(29,454).
att(2230,1103).
att(1798,1029).
att(1792,1017).
att(40,490).
att(2262,954).
att(2267,960).
att(2267,958).
att(2230,303).
att(40,498).
att(1805,1118).
att(2264,958).
att(1770,946).
att(2237,295).
att(1796,944).
att(2268,762).
att(31,493).
att(2225,1086).
att(2262,760).
att(2263,788).
att(2222,1130).
att(1784,940).
att(10,494).
att(1781,1090).
att(2016,1589).
att(2237,100).
att(2220,1130).
att(2016,1616).
att(2231,102).
att(1770,981).
att(2045,1703).
att(2026,1462).
att(2232,110).
att(2021,1623).
att(2238,85).
att(2221,1117).
att(2221,1123).
att(2266,780).
att(2223,1134).
att(2220,1163).
att(1788,996).
att(1781,1114).
att(1806,1178).
att(2224,1153).
att(2237,127).
att(2268,784).
att(2227,1119).
att(2221,1159).
att(37,548).
att(2225,1152).
att(35,554).
att(29,531).
att(35,551).
att(35,550).
att(1770,1027).
att(2261,836).
att(2275,1663).
att(2119,1546).
att(2281,968).
att(2045,1719).
att(2241,166).
att(2106,1330).
att(2288,888).
att(2120,1543).
att(2018,1650).
att(2134,1244).
att(2022,1721).
att(2016,1673).
att(1987,1558).
att(2275,1660).
att(2247,1083).
att(330,604).
att(2284,968).
att(1790,1069).
att(2106,1352).
att(2120,1338).
att(2044,1737).
att(2018,1705).
att(2246,1103).
att(2109,1380).
att(2277,1679).
att(371,580).
att(1986,1468).
att(1796,1046).
att(2243,193).
att(2025,1559).
att(1879,1931).
att(362,368).
att(1892,1998).
att(2280,758).
att(2280,752).
att(2248,1101).
att(338,607).
att(1798,1148).
att(1886,1978).
att(2106,1400).
att(2147,1258).
att(1792,1112).
att(2134,1438).
att(2109,1400).
att(1988,1584).
att(341,606).
att(2244,1101).
att(2240,1117).
att(1796,1072).
att(1890,1939).
att(2145,1456).
att(2284,756).
att(330,540).
att(2247,1123).
att(332,541).
att(2285,788).
att(358,423).
att(2023,1570).
att(1794,1168).
att(2120,1374).
att(2246,1152).
att(2286,789).
att(334,538).
att(2142,1442).
att(1882,1933).
att(2148,1448).
att(332,396).
att(1777,980).
att(1879,1979).
att(2025,1611).
att(2235,1083).
att(334,368).
att(2239,105).
att(1886,2028).
att(2121,1456).
att(2246,85).
att(2275,789).
att(1779,1066).
att(1986,1642).
att(2278,752).
att(1986,1645).
att(341,360).
att(2241,102).
att(1796,1115).
att(337,394).
att(2247,85).
att(2119,1436).
att(1884,1996).
att(2242,102).
att(1990,1570).
att(2109,1527).
att(2237,1142).
att(1771,938).
att(1790,1144).
att(1880,1972).
att(1878,2006).
att(401,173).
att(1772,1025).
att(2244,293).
att(1888,2053).
att(330,564).
att(2269,838).
att(332,562).
att(2235,1126).
att(1778,1032).
att(2246,176).
att(1885,2029).
att(2117,1522).
att(2239,176).
att(2279,927).
att(334,565).
att(2120,1485).
att(1962,1455).
att(1986,1703).
att(2244,145).
att(2275,809).
att(2272,1668).
att(2287,854).
att(330,573).
att(2272,1654).
att(1884,2048).
att(1885,2047).
att(2235,1153).
att(1771,994).
att(2246,170).
att(371,566).
att(2117,1340).
att(2282,932).
att(2270,1680).
att(2274,1658).
att(2109,1333).
att(547,1764).
att(2274,1662).
att(1986,1623).
att(2121,1518).
att(2024,1650).
att(2286,859).
att(2251,1274).
att(1965,930).
att(1890,1643).
att(1879,1570).
att(1992,1022).
att(245,474).
att(1963,1017).
att(2145,1352).
att(2145,1351).
att(2140,1380).
att(2150,1335).
att(1991,1116).
att(2210,788).
att(1994,1022).
att(2288,1682).
att(2024,1118).
att(2251,1450).
att(2251,1448).
att(2255,1267).
att(278,515).
att(1990,1071).
att(368,517).
att(2140,1402).
att(1880,1582).
att(388,386).
att(252,378).
att(2213,760).
att(252,381).
att(364,523).
att(1999,1021).
att(383,386).
att(2214,760).
att(252,389).
att(1879,1623).
att(2215,787).
att(252,384).
att(362,546).
att(1994,1052).
att(2249,1520).
att(2256,1436).
att(2147,1402).
att(388,408).
att(2210,810).
att(390,417).
att(223,385).
att(1989,1174).
att(2148,1412).
att(2228,854).
att(2257,1440).
att(367,544).
att(1989,1179).
att(1990,1115).
att(224,387).
att(2256,1495).
att(2149,1399).
att(2025,1175).
att(460,297).
att(243,530).
att(2249,1518).
att(1993,1070).
att(2253,1524).
att(2228,886).
att(1999,1072).
att(241,532).
att(2244,1121).
att(2247,1145).
att(2284,779).
att(1884,1672).
att(2145,1475).
att(1995,1072).
att(1864,1589).
att(2147,1479).
att(1853,1526).
att(1992,1073).
att(1885,1717).
att(2279,834).
att(2286,818).
att(2148,1489).
att(2240,1163).
att(2240,1159).
att(1896,1530).
att(2286,811).
att(1862,1559).
att(2287,813).
att(1852,1460).
att(1964,1032).
att(1896,1533).
att(1888,1723).
att(1962,1051).
att(362,566).
att(1882,1655).
att(2241,1157).
att(248,460).
att(2284,812).
att(2209,880).
att(369,423).
att(221,433).
att(1860,1528).
att(252,470).
att(1886,1717).
att(1993,1095).
att(1969,936).
att(224,451).
att(2143,1545).
att(2287,832).
att(1974,1027).
att(1854,1568).
att(1896,1630).
att(1974,1004).
att(1995,1168).
att(1970,942).
att(356,576).
att(2280,1657).
att(356,584).
att(1864,1630).
att(1853,1585).
att(358,582).
att(2279,1684).
att(1860,1647).
att(1969,939).
att(1973,1018).
att(2218,892).
att(248,494).
att(1862,1600).
att(221,472).
att(1857,1526).
att(1857,1531).
att(2212,911).
att(247,491).
att(1966,1088).
att(2217,932).
att(364,584).
att(1968,936).
att(1860,1583).
att(252,514).
att(1993,1169).
att(1993,1141).
att(2214,921).
att(2253,1380).
att(1866,1462).
att(1969,993).
att(2228,779).
att(1896,1704).
att(2225,766).
att(1974,1070).
att(2263,1453).
att(1995,1180).
att(392,521).
att(2219,783).
att(393,526).
att(2223,788).
att(2256,1385).
att(388,546).
att(393,525).
att(1866,1455).
att(2041,1470).
att(2253,1406).
att(1993,1175).
att(1896,1625).
att(2227,747).
att(2254,1402).
att(231,384).
att(2262,1491).
att(1803,942).
att(246,531).
att(2225,758).
att(2251,1406).
att(1857,1647).
att(1995,1176).
att(228,382).
att(1802,1018).
att(2265,1495).
att(2227,782).
att(227,399).
att(231,414).
att(2257,1399).
att(2042,1564).
att(2043,1559).
att(395,557).
att(1974,1098).
att(22,391).
att(413,562).
att(2040,1533).
att(223,553).
att(1857,1656).
att(23,387).
att(2224,814).
att(223,549).
att(225,414).
att(2042,1455).
att(1853,1681).
att(419,569).
att(2227,815).
att(2224,829).
att(2227,809).
att(2228,1652).
att(2266,1525).
att(227,438).
att(224,558).
att(2267,1547).
att(2264,1550).
att(23,418).
att(231,451).
att(1970,1090).
att(2252,1547).
att(396,562).
att(22,438).
att(23,426).
att(2219,880).
att(2216,831).
att(24,451).
att(2257,1527).
att(397,423).
att(1968,1140).
att(2253,1506).
att(2228,917).
att(2253,1542).
att(2042,1531).
att(2226,896).
att(2255,1550).
att(2251,1541).
att(1857,1736).
att(2249,1361).
att(23,451).
att(394,577).
att(2227,895).
att(1857,1726).
att(2253,1546).
att(2217,832).
att(390,584).
att(1810,980).
att(2218,1660).
att(2221,919).
att(2215,1665).
att(22,472).
att(2215,1660).
att(1970,1115).
att(2222,952).
att(393,589).
att(2216,1697).
att(2220,763).
att(2216,1679).
att(394,587).
att(2250,1389).
att(394,584).
att(1781,1025).
att(2250,1385).
att(390,604).
att(2257,1331).
att(1811,1027).
att(2225,971).
att(1867,1633).
att(1782,940).
att(2251,1373).
att(2267,1269).
att(1805,1027).
att(2223,765).
att(231,537).
att(2256,1351).
att(394,605).
att(2268,170).
att(2037,1092).
att(1866,1088).
att(2265,193).
att(2042,1108).
att(86,559).
att(2259,1076).
att(292,407).
att(2222,348).
att(103,454).
att(2226,325).
att(2233,1883).
att(2220,359).
att(292,432).
att(2038,1065).
att(2270,269).
att(2262,1079).
att(2039,1066).
att(2266,1080).
att(1867,1077).
att(294,454).
att(290,437).
att(103,475).
att(2234,1943).
att(2237,443).
att(2265,1105).
att(2262,1104).
att(2265,1099).
att(2022,944).
att(2236,1944).
att(2230,444).
att(2230,445).
att(2234,1947).
att(291,471).
att(2231,444).
att(2261,1157).
att(2265,1124).
att(2044,931).
att(2262,1124).
att(300,495).
att(2235,436).
att(291,490).
att(2022,942).
att(2278,295).
att(2229,468).
att(2278,299).
att(2229,461).
att(2020,939).
att(2263,1152).
att(292,493).
att(2257,1103).
att(298,516).
att(2262,293).
att(296,518).
att(304,382).
att(291,518).
att(2017,995).
att(2259,177).
att(2266,110).
att(2228,479).
att(288,520).
att(2021,1023).
att(2263,146).
att(272,391).
att(2258,1117).
att(2258,1149).
att(296,534).
att(2264,143).
att(270,389).
att(292,533).
att(2220,483).
att(2261,134).
att(2257,1157).
att(2262,175).
att(300,548).
att(2227,464).
att(2257,1149).
att(2225,468).
att(2262,138).
att(2266,145).
att(2022,1109).
att(2222,507).
att(2022,1095).
att(265,399).
att(2261,199).
att(270,403).
att(2264,166).
att(2021,1069).
att(2238,1893).
att(2262,168).
att(2228,328).
att(2232,1897).
att(2018,996).
att(2022,1070).
att(2234,1902).
att(2226,503).
att(2237,1921).
att(2113,754).
att(379,928).
att(2269,1100).
att(268,450).
att(2021,1078).
att(2274,1106).
att(2282,308).
att(2120,964).
att(2282,269).
att(2018,1074).
att(2271,1103).
att(2044,1116).
att(270,458).
att(274,472).
att(2244,1948).
att(2272,1124).
att(2276,1106).
att(2248,443).
att(2045,1071).
att(2285,303).
att(2022,1110).
att(2269,1121).
att(2109,810).
att(2117,785).
att(302,494).
att(2278,1101).
att(266,471).
att(2280,110).
att(2113,813).
att(274,494).
att(2284,295).
att(2017,1116).
att(2120,783).
att(2245,443).
att(2245,446).
att(2248,482).
att(2246,483).
att(272,515).
att(2239,463).
att(2274,1152).
att(2243,440).
att(2275,1136).
att(2024,1051).
att(1987,942).
att(2017,1169).
att(1990,938).
att(2137,886).
att(2017,1151).
att(2276,1147).
att(278,378).
att(2045,1116).
att(2278,1155).
att(2240,487).
att(2282,132).
att(275,385).
att(1890,1553).
att(307,553).
att(2113,859).
att(2231,467).
att(2235,469).
att(245,385).
att(2265,1152).
att(2109,886).
att(2266,1134).
att(1885,1556).
att(243,379).
att(2233,466).
att(2236,463).
att(1888,1530).
att(243,391).
att(2113,896).
att(1989,1050).
att(1986,1051).
att(244,411).
att(268,558).
att(2109,923).
att(2115,854).
att(2021,1171).
att(1988,1065).
att(1991,1051).
att(2239,1863).
att(2271,199).
att(2111,925).
att(278,438).
att(2240,1897).
att(2113,923).
att(2119,895).
att(1986,1092).
att(241,405).
att(2241,1897).
att(2025,1090).
att(2106,966).
att(2242,1895).
att(1890,1605).
att(275,449).
att(2115,923).
att(2120,897).
att(2231,507).
att(2242,1897).
att(2238,331).
att(1990,1092).
att(2232,329).
att(1991,1071).
att(2111,972).
att(2239,1883).
att(2233,507).
att(2230,331).
att(240,435).
att(2025,1093).
att(2231,329).
att(245,454).
att(2235,505).
att(2271,1085).
att(1878,1558).
att(2142,781).
att(2149,787).
att(157,493).
att(1884,1000).
att(1890,1054).
att(2284,1106).
att(2212,295).
att(174,549).
att(161,531).
att(131,387).
att(1884,1022).
att(2143,809).
att(163,533).
att(2284,1126).
att(133,391).
att(2216,104).
att(2284,1149).
att(163,537).
att(159,531).
att(2215,143).
att(159,542).
att(2212,140).
att(2140,1665).
att(2137,1652).
att(157,549).
att(2254,896).
att(1882,1107).
att(1880,1094).
att(2210,166).
att(2288,1142).
att(2217,132).
att(2218,129).
att(2215,140).
att(135,450).
att(2145,836).
att(125,426).
att(1880,1046).
att(2250,972).
att(1886,1108).
att(1882,1045).
att(131,460).
att(131,458).
att(2106,1668).
att(2284,127).
att(133,456).
att(128,450).
att(2106,1662).
att(2115,837).
att(1853,930).
att(2142,878).
att(2239,503).
att(2148,884).
att(2244,505).
att(1888,1141).
att(2113,1695).
att(130,471).
att(2119,1652).
att(2285,199).
att(1860,930).
att(2242,325).
att(1880,1091).
att(2150,878).
att(131,495).
att(2149,972).
att(2148,919).
att(128,498).
att(1890,1172).
att(2119,1679).
att(2241,348).
att(1857,997).
att(2281,1099).
att(2242,348).
att(1882,1138).
att(2280,1104).
att(2287,1076).
att(1882,1116).
att(2137,758).
att(135,530).
att(1892,1172).
att(2214,303).
att(2285,1099).
att(90,380).
att(2224,95).
att(1854,1050).
att(2227,295).
att(2228,134).
att(90,379).
att(2218,1124).
att(89,382).
att(2214,1152).
att(98,411).
att(2221,85).
att(131,550).
att(86,391).
att(2226,85).
att(96,428).
att(2249,837).
att(84,381).
att(94,403).
att(125,539).
att(2249,1657).
att(2250,1668).
att(1860,1034).
att(1854,1068).
att(2259,878).
att(2225,145).
att(1896,1032).
att(2222,177).
att(1864,1032).
att(1853,1065).
att(2260,880).
att(1858,1032).
att(1858,1031).
att(2257,814).
att(2253,1654).
att(1860,1148).
att(2263,923).
att(2263,928).
att(2220,1081).
att(1854,1111).
att(1860,1071).
att(2224,194).
att(2227,160).
att(2222,196).
att(2255,1687).
att(2255,1689).
att(2226,191).
att(2219,1085).
att(2220,1082).
att(2254,970).
att(1867,994).
att(2043,1027).
att(2137,1689).
att(2216,195).
att(1864,1171).
att(2145,1682).
att(84,478).
att(144,522).
att(1853,1138).
att(2250,758).
att(98,512).
att(1860,1113).
att(2215,195).
att(2215,192).
att(2212,1103).
att(1856,1148).
att(2253,763).
att(2150,1685).
att(1866,1022).
att(2214,1083).
att(2222,308).
att(2042,1064).
att(1867,1046).
att(2252,789).
att(2212,1101).
att(2216,1084).
att(84,515).
att(89,529).
att(2037,1066).
att(144,554).
att(2258,789).
att(1854,1174).
att(2211,1124).
att(88,533).
att(1854,1176).
att(1856,1139).
att(2251,781).
att(2039,1000).
att(288,389).
att(2223,104).
att(2223,293).
att(1857,1172).
att(2209,1149).
att(2237,1383).
att(1798,1997).
att(562,1060).
att(566,1041).
att(332,1709).
att(2237,1374).
att(2273,1963).
att(392,1766).
att(563,1043).
att(1811,2101).
att(1782,2070).
att(2044,313).
att(1792,2000).
att(1809,2123).
att(2235,1332).
att(2232,1380).
att(2232,1374).
att(2018,236).
att(564,1059).
att(568,1043).
att(2244,1267).
att(2247,1453).
att(2272,1989).
att(561,1184).
att(2237,1400).
att(2231,1375).
att(2022,255).
att(2235,1355).
att(2017,250).
att(2247,1495).
att(1798,2047).
att(562,1198).
att(2017,283).
att(2241,1491).
att(2241,1442).
att(2281,1772).
att(1784,2048).
att(2019,373).
att(1792,2014).
att(334,1572).
att(2240,1527).
att(1770,1975).
att(2272,2041).
att(576,1125).
att(1807,2124).
att(2248,1550).
att(338,1580).
att(570,1160).
att(1784,1997).
att(334,1595).
att(560,1213).
att(2274,1852).
att(564,1203).
att(421,1193).
att(1987,217).
att(563,1137).
att(2235,1436).
att(419,1192).
att(2022,345).
att(2023,183).
att(2232,1475).
att(413,1207).
att(1888,720).
att(2024,255).
att(416,1207).
att(564,1150).
att(1794,2058).
att(2234,1520).
att(2237,1550).
att(1990,109).
att(2026,203).
att(2020,319).
att(1788,2054).
att(2232,1550).
att(2277,1774).
att(560,985).
att(1769,2051).
att(423,1203).
att(1792,2092).
att(423,1201).
att(1986,106).
att(568,1158).
att(2276,1796).
att(2230,1542).
att(367,1763).
att(1884,715).
att(1884,718).
att(2270,1974).
att(2265,1880).
att(566,982).
att(1775,1923).
att(2232,1544).
att(2232,1541).
att(2278,1807).
att(1885,806).
att(2236,1541).
att(423,1212).
att(336,1671).
att(567,983).
att(2271,1969).
att(1779,2006).
att(420,1213).
att(360,1760).
att(2230,1335).
att(330,1667).
att(1777,1933).
att(421,1213).
att(1786,2128).
att(2269,1973).
att(2272,1962).
att(562,1039).
att(1987,185).
att(1890,722).
att(2268,1890).
att(2270,1992).
att(422,1216).
att(356,1760).
att(2273,1803).
att(334,1671).
att(1991,257).
att(2278,1967).
att(334,1686).
att(358,1763).
att(2023,232).
att(1880,718).
att(1986,179).
att(2018,427).
att(1880,720).
att(564,1042).
att(564,1038).
att(1987,180).
att(2229,1354).
att(565,1016).
att(2230,1358).
att(2025,280).
att(1879,774).
att(2240,1399).
att(1773,2000).
att(2244,1379).
att(1990,317).
att(2280,2016).
att(2248,1400).
att(356,1572).
att(571,1198).
att(571,1196).
att(2285,2016).
att(578,1053).
att(1777,1972).
att(1779,2049).
att(1886,825).
att(1769,2098).
att(2282,2016).
att(341,1757).
att(538,541).
att(1987,239).
att(362,1575).
att(577,1185).
att(2026,316).
att(1884,795).
att(2281,2040).
att(1775,2000).
att(1886,769).
att(2288,2024).
att(1986,235).
att(364,1571).
att(1988,316).
att(583,1132).
att(1794,2170).
att(583,1129).
att(1777,1996).
att(584,1137).
att(1779,1979).
att(1779,2078).
att(1778,2029).
att(576,1197).
att(2283,1857).
att(584,1150).
att(2209,1794).
att(1966,112).
att(586,1167).
att(2284,2038).
att(1885,898).
att(1963,211).
att(571,1218).
att(2282,1896).
att(369,1577).
att(587,1167).
att(1988,343).
att(1988,321).
att(1777,2028).
att(1888,872).
att(2024,406).
att(1778,2050).
att(2025,377).
att(1778,2048).
att(1773,1979).
att(1890,827).
att(368,1594).
att(2284,1853).
att(582,989).
att(368,1593).
att(1963,106).
att(2285,1890).
att(1885,828).
att(2217,1798).
att(2282,1888).
att(364,1610).
att(369,1590).
att(358,1631).
att(1888,904).
att(2286,1862).
att(360,1618).
att(341,1590).
att(2287,1770).
att(1779,2138).
att(562,1217).
att(2280,1780).
att(561,1220).
att(565,1201).
att(1965,186).
att(371,1580).
att(2285,1786).
att(2269,1878).
att(2285,1790).
att(1991,427).
att(371,1577).
att(371,1766).
att(1779,2154).
att(362,1700).
att(573,1012).
att(362,1671).
att(576,983).
att(1989,402).
att(2287,1782).
att(356,1700).
att(1965,205).
att(1778,2092).
att(337,1615).
att(2281,1969).
att(356,1669).
att(1992,183).
att(575,1012).
att(1858,726).
att(360,1701).
att(2282,1804).
att(340,1613).
att(360,1700).
att(579,982).
att(1878,905).
att(1777,2091).
att(572,1007).
att(1773,2030).
att(1965,204).
att(330,1762).
att(572,1009).
att(1994,178).
att(2287,1802).
att(1777,2122).
att(1779,2171).
att(1896,847).
att(368,1667).
att(330,1739).
att(1995,313).
att(2281,1993).
att(1864,767).
att(337,1631).
att(2281,1994).
att(570,1037).
att(1778,2096).
att(2248,1352).
att(1778,2107).
att(2279,2026).
att(334,1746).
att(2286,1968).
att(1999,281).
att(2286,1803).
att(1879,975).
att(1888,1001).
att(1962,258).
att(2287,1966).
att(326,1757).
att(2288,1973).
att(1778,2138).
att(1857,797).
att(2248,1401).
att(2288,1995).
att(1966,219).
att(2288,1966).
att(358,1729).
att(557,555).
att(2243,1356).
att(1993,316).
att(579,1037).
att(2239,1373).
att(1768,2072).
att(2286,1962).
att(1878,978).
att(2210,1856).
att(392,1579).
att(1768,1683).
att(581,1196).
att(393,1734).
att(2216,2045).
att(582,1209).
att(1992,2059).
att(586,1198).
att(1998,1765).
att(1860,251).
att(602,1133).
att(2213,2036).
att(2214,1867).
att(1776,1725).
att(599,1158).
att(589,1193).
att(599,983).
att(395,1577).
att(2211,1858).
att(1882,319).
att(392,1593).
att(1879,349).
att(2212,1858).
att(2216,1867).
att(396,1573).
att(585,1199).
att(605,1135).
att(581,1212).
att(605,1158).
att(1892,400).
att(1892,402).
att(2217,1866).
att(383,1619).
att(1878,373).
att(1878,372).
att(397,1572).
att(1896,311).
att(584,1219).
att(2214,1879).
att(2211,1892).
att(1974,2012).
att(2226,1792).
att(2215,1864).
att(2219,1811).
att(581,1218).
att(1967,2012).
att(393,1620).
att(416,1664).
att(393,1617).
att(1973,2012).
att(1994,2075).
att(1772,1723).
att(419,1669).
att(560,1761).
att(560,1762).
att(1777,1717).
att(604,991).
att(607,982).
att(413,1671).
att(604,987).
att(416,1700).
att(1864,237).
att(2224,1974).
att(2217,1888).
att(598,1038).
att(417,1669).
att(602,1009).
att(1964,2073).
att(1854,262).
att(2287,1885).
att(585,991).
att(367,1610).
att(577,1213).
att(586,1011).
att(390,1669).
att(366,1631).
att(395,1661).
att(587,1009).
att(1962,2153).
att(1974,1981).
att(584,1035).
att(362,1741).
att(586,1043).
att(2213,1993).
att(364,1742).
att(1860,279).
att(366,1744).
att(1969,2006).
att(584,1043).
att(360,1752).
att(367,1745).
att(1852,373).
att(2211,1988).
att(1854,319).
att(1896,404).
att(386,1722).
att(397,1716).
att(1801,2032).
att(1968,2095).
att(2037,205).
att(390,1707).
att(1975,1758).
att(2042,109).
att(405,1739).
att(1852,283).
att(1970,2048).
att(1981,1763).
att(1965,2170).
att(2212,2045).
att(2215,1991).
att(393,1735).
att(1970,2052).
att(386,1729).
att(582,1189).
att(2212,2038).
att(1801,2050).
att(2213,2046).
att(582,1195).
att(2213,2019).
att(598,1125).
att(1980,1758).
att(2214,2020).
att(397,1709).
att(2042,256).
att(422,1576).
att(1852,429).
att(2236,1779).
att(1852,425).
att(2235,1773).
att(2227,2038).
att(2228,1879).
att(1970,2072).
att(2043,253).
att(2225,2037).
att(1923,1758).
att(1970,2073).
att(1806,1925).
att(527,1161).
att(604,1208).
att(2233,1784).
att(1931,1763).
att(2233,1790).
att(2230,1780).
att(1939,1764).
att(1973,2073).
att(519,1009).
att(419,1619).
att(1803,2032).
att(1937,1763).
att(603,1211).
att(413,1619).
att(420,1598).
att(1970,2079).
att(1857,427).
att(420,1620).
att(2223,1888).
att(527,983).
att(2037,180).
att(2237,1974).
att(2230,1803).
att(408,1766).
att(1807,2004).
att(2231,1970).
att(410,1747).
att(1973,2169).
att(566,1659).
att(419,1635).
att(1969,2107).
att(1804,2154).
att(2044,123).
att(1780,1996).
att(2229,1994).
att(527,1015).
att(2039,317).
att(527,1013).
att(523,1036).
att(565,1700).
att(565,1666).
att(2230,1966).
att(1802,2124).
att(519,1041).
att(1968,2167).
att(551,501).
att(1867,310).
att(563,1696).
att(2043,235).
att(420,1747).
att(1780,1929).
att(1970,2104).
att(2043,286).
att(567,1690).
att(1926,1761).
att(527,1038).
att(2234,1999).
att(420,1738).
att(568,1690).
att(416,1748).
att(561,1710).
att(1924,1766).
att(2037,234).
att(417,1745).
att(397,1637).
att(410,1709).
att(413,1696).
att(600,1040).
att(2042,374).
att(2044,207).
att(600,1053).
att(1782,2053).
att(601,1056).
att(1806,2028).
att(1781,2054).
att(1807,2051).
att(2045,201).
att(603,1063).
att(606,1037).
att(2037,262).
att(603,1057).
att(423,1693).
att(423,1688).
att(1803,2100).
att(2043,280).
att(2038,287).
att(420,1707).
att(1804,2167).
att(2040,375).
att(393,1754).
att(602,1058).
att(2036,415).
att(419,1732).
att(396,1757).
att(604,1185).
att(2038,404).
att(2230,1768).
att(2220,1852).
att(417,1571).
att(2046,184).
att(1807,2014).
att(1808,2028).
att(521,1125).
att(2038,319).
att(2018,217).
att(2020,183).
att(2017,204).
att(394,1764).
att(2040,404).
att(2220,1864).
att(602,1198).
att(598,1206).
att(2224,2041).
att(2017,207).
att(330,1125).
att(417,544).
att(2232,818).
att(2273,1436).
att(2046,2054).
att(419,545).
att(2044,2049).
att(2044,2050).
att(2022,2035).
att(2275,1495).
att(2036,2168).
att(330,1150).
att(2106,1786).
att(2248,892).
att(2237,834).
att(2109,1794).
att(422,545).
att(2246,896).
att(2022,2004).
att(2232,813).
att(2018,1924).
att(2046,1980).
att(1867,2169).
att(2042,2107).
att(2018,2002).
att(2016,1997).
att(2111,1790).
att(2016,2000).
att(2275,1524).
att(2036,2123).
att(1781,1584).
att(561,564).
att(2276,1512).
att(2015,1762).
att(2237,1663).
att(2273,1516).
att(1807,1681).
att(1794,1553).
att(2246,919).
att(2121,1796).
att(2229,1665).
att(2240,923).
att(1770,1468).
att(2118,1770).
att(337,988).
att(561,583).
att(2247,917).
att(332,1015).
att(1798,1460).
att(2231,1668).
att(2109,1974).
att(566,571).
att(2109,1969).
att(2277,1518).
att(589,1758).
att(2232,1689).
att(2239,917).
att(1809,1648).
att(2271,1335).
att(2111,1802).
att(341,987).
att(1796,1605).
att(2020,2126).
att(2235,897).
att(2259,1360).
att(2235,888).
att(1796,1588).
att(2262,1543).
att(585,1766).
att(2263,1340).
att(2219,1691).
att(1989,1933).
att(2230,917).
att(2260,1330).
att(417,587).
att(2227,1670).
att(2231,970).
att(1810,1718).
att(2027,1761).
att(2021,2095).
att(2034,1766).
att(422,572).
att(581,1763).
att(2033,1761).
att(2236,925).
att(2259,1354).
att(2225,1658).
att(2046,2058).
att(2266,1333).
att(1784,1504).
att(2018,2092).
att(2018,2079).
att(2016,2095).
att(1780,1656).
att(1788,1553).
att(2261,1385).
att(1987,2008).
att(2270,1457).
att(2274,1273).
att(1988,1978).
att(2229,789).
att(1988,1971).
att(2021,2173).
att(2274,1263).
att(1986,1998).
att(2275,1276).
att(2229,749).
att(413,519).
att(2024,2054).
att(2272,1450).
att(421,523).
att(2231,788).
att(1990,1939).
att(1798,1587).
att(2235,958).
att(1798,1569).
att(2266,1357).
att(423,605).
att(2236,765).
att(1784,1585).
att(2044,2185).
att(1786,1582).
att(1987,1926).
att(2276,1457).
att(2276,1444).
att(2247,836).
att(2241,839).
att(2284,1527).
att(2287,1475).
att(337,1197).
att(1798,1702).
att(1790,1627).
att(2106,1862).
att(2147,1776).
att(2026,2015).
att(1886,178).
att(2026,2076).
att(334,1209).
att(1776,1564).
att(2117,1853).
att(2143,1794).
att(2282,1508).
att(2024,2078).
att(2118,1867).
att(1987,2051).
att(1882,123).
att(2025,2055).
att(2284,1548).
att(2113,1880).
att(332,1218).
att(364,1164).
att(2021,2169).
att(1888,204).
att(2120,1857).
att(2279,1330).
att(1989,2050).
att(1779,1462).
att(370,1162).
att(2024,2031).
att(1989,2053).
att(2025,2071).
att(1796,1720).
att(1890,256).
att(2240,1679).
att(2283,1332).
att(1884,184).
att(2244,1652).
att(2140,1973).
att(2242,1660).
att(2248,1680).
att(2147,1967).
att(2281,1352).
att(578,1766).
att(1993,1931).
att(369,987).
att(1888,229).
att(1878,180).
att(571,601).
att(1878,187).
att(367,991).
att(2283,1337).
att(577,1760).
att(2280,1389).
att(1774,1462).
att(2149,1804).
att(2026,2090).
att(356,1043).
att(574,1763).
att(2242,1687).
att(2216,1244).
att(1771,1562).
att(578,585).
att(2150,1967).
att(2142,1993).
att(2210,1448).
att(1772,1566).
att(1779,1530).
att(2214,1267).
att(578,580).
att(2142,1965).
att(2282,1351).
att(1779,1532).
att(2286,1330).
att(1768,1589).
att(1986,2126).
att(1989,2101).
att(2244,911).
att(2272,1353).
att(1989,2098).
att(2024,2171).
att(2113,1966).
att(2234,1689).
att(1965,1939).
att(2055,1766).
att(337,1006).
att(338,1015).
att(571,1763).
att(1966,1929).
att(2273,1330).
att(560,602).
att(1771,1601).
att(2235,1662).
att(2277,1545).
att(338,1036).
att(1963,2006).
att(2235,1679).
att(2278,1360).
att(2282,1271).
att(1776,1647).
att(2054,1760).
att(2111,1999).
att(334,1036).
att(1989,2123).
att(2118,1801).
att(1773,1530).
att(2119,1993).
att(1773,1533).
att(1777,1588).
att(1770,1721).
att(2025,2152).
att(1788,1725).
att(2109,2025).
att(2235,1691).
att(334,1062).
att(2277,1352).
att(2270,1406).
att(2277,1355).
att(1771,1606).
att(1963,1939).
att(340,1042).
att(2271,1383).
att(1776,1569).
att(1988,2131).
att(2278,1355).
att(1878,255).
att(2271,1375).
att(568,602).
att(1986,2057).
att(2275,1352).
att(1778,1623).
att(332,1189).
att(1777,1611).
att(1987,2170).
att(1778,1626).
att(2280,1442).
att(332,1187).
att(1777,1608).
att(2119,1987).
att(2281,1491).
att(2285,1446).
att(332,1181).
att(338,1055).
att(1890,347).
att(2285,1260).
att(2282,1495).
att(2242,780).
att(2288,1448).
att(2239,784).
att(1885,352).
att(2121,1989).
att(563,555).
att(1771,1616).
att(340,1058).
att(567,523).
att(1986,2170).
att(2244,788).
att(2283,1436).
att(2287,1450).
att(1965,2002).
att(566,547).
att(356,1133).
att(2277,1381).
att(356,1127).
att(1884,314).
att(1892,285).
att(1963,1971).
att(1993,2047).
att(1963,1982).
att(334,1194).
att(1986,2125).
att(2243,785).
att(1962,2004).
att(1964,1982).
att(1989,2186).
att(395,1161).
att(2143,1888).
att(2258,1786).
att(2143,1890).
att(1878,2056).
att(2215,1551).
att(367,1208).
att(396,1161).
att(2057,1766).
att(1864,1931).
att(1890,2128).
att(1990,1718).
att(386,1009).
att(393,984).
att(2056,1763).
att(2145,1885).
att(1775,1143).
att(2256,1781).
att(1886,2123).
att(2150,1896).
att(608,382).
att(635,399).
att(2257,1790).
att(1886,2104).
att(1964,1605).
att(1993,1568).
att(1773,1050).
att(1999,1589).
att(1987,1650).
att(1995,1526).
att(2211,1331).
att(557,1763).
att(1890,2059).
att(396,985).
att(2256,1811).
att(1771,1107).
att(1775,1073).
att(2219,1244).
att(1886,2155).
att(1858,1927).
att(649,391).
att(651,409).
att(1772,1095).
att(580,601).
att(651,405).
att(2148,1886).
att(2214,1355).
att(1779,1175).
att(378,2062).
att(641,449).
att(581,602).
att(1858,1972).
att(2223,1277).
att(2220,1453).
att(1771,1115).
att(2252,1986).
att(2224,1274).
att(1963,1645).
att(1885,2168).
att(635,455).
att(2070,1763).
att(1776,1177).
att(1885,2171).
att(2213,1354).
att(395,1043).
att(587,606).
att(2218,1357).
att(2258,1993).
att(2218,1359).
att(587,603).
att(2214,1373).
att(1856,1931).
att(2212,1387).
att(2075,1758).
att(2212,1385).
att(645,449).
att(2255,1987).
att(2216,1385).
att(1885,2125).
att(581,555).
att(2223,1258).
att(580,544).
att(2250,2020).
att(2227,1265).
att(1854,2033).
att(1860,2078).
att(608,491).
att(2211,1444).
att(572,519).
att(2145,1995).
att(2209,1453).
att(362,1056).
att(637,498).
att(364,1060).
att(571,546).
att(570,557).
att(2282,1383).
att(1992,1655).
att(2142,1988).
att(366,1055).
att(572,528).
att(2143,2024).
att(2286,1358).
att(1854,2054).
att(360,1186).
att(1999,1676).
att(1965,1628).
att(388,1137).
att(574,541).
att(364,1186).
att(2210,1522).
att(364,1183).
att(1963,1625).
att(1853,2050).
att(1853,2053).
att(2282,1404).
att(575,543).
att(1852,2091).
att(629,428).
att(1896,2151).
att(649,550).
att(2211,1479).
att(2251,1771).
att(1896,2131).
att(2215,1492).
att(621,414).
att(1896,2130).
att(2284,1409).
att(1804,1558).
att(1862,2057).
att(613,378).
att(611,389).
att(619,414).
att(1864,2138).
att(390,1167).
att(651,554).
att(1853,2059).
att(1968,1588).
att(2217,1442).
att(1968,1589).
att(2214,1485).
att(623,385).
att(1964,1651).
att(1852,2027).
att(628,398).
att(2149,2040).
att(649,536).
att(392,1150).
att(1994,1650).
att(621,381).
att(2212,1518).
att(1966,1704).
att(2249,1792).
att(1965,1655).
att(2140,1892).
att(2217,1527).
att(2150,1866).
att(1963,1674).
att(608,496).
att(2218,1527).
att(2218,1520).
att(628,389).
att(635,514).
att(2250,1782).
att(596,414).
att(599,604).
att(1852,2151).
att(2037,2008).
att(592,387).
att(1862,2125).
att(2038,1923).
att(592,381).
att(1803,1588).
att(2258,1879).
att(591,385).
att(1864,2125).
att(2226,1544).
att(2219,1389).
att(2267,1802).
att(2036,1996).
att(420,1006).
att(1967,1630).
att(2040,1981).
att(1858,2168).
att(590,380).
att(2265,1974).
att(1853,2098).
att(454,436).
att(599,517).
att(2228,1379).
att(2221,1352).
att(419,1038).
att(2225,1333).
att(413,1057).
att(1856,2126).
att(2039,1939).
att(1968,1583).
att(2041,1998).
att(1801,1600).
att(416,1058).
att(2264,1994).
att(2234,1271).
att(2231,1277).
att(599,546).
att(630,426).
att(599,545).
att(2221,1383).
att(1866,2033).
att(2238,1492).
att(422,1036).
att(2232,1260).
att(603,519).
att(591,438).
att(2266,1987).
att(2043,2032).
att(416,1190).
att(2036,2049).
att(1968,1704).
att(2219,1406).
att(416,1184).
att(1801,1609).
att(2230,1436).
att(2041,2033).
att(2234,1448).
att(2235,1456).
att(2224,1401).
att(2227,1379).
att(2221,1407).
att(592,398).
att(2233,1453).
att(632,391).
att(416,1200).
att(2039,1979).
att(2263,2039).
att(590,414).
att(2040,2053).
att(421,1189).
att(561,1133).
att(604,557).
att(416,1193).
att(2237,1525).
att(1968,1609).
att(2234,1442).
att(593,476).
att(410,1127).
att(1807,1562).
att(583,555).
att(1808,1564).
att(396,1059).
att(2226,1450).
att(596,492).
att(2256,2024).
att(2260,1772).
att(1780,1566).
att(2220,1527).
att(585,543).
att(408,1135).
att(590,476).
att(408,1125).
att(590,473).
att(2227,1438).
att(410,1150).
att(597,471).
att(1866,2094).
att(392,1198).
att(1973,1653).
att(2042,2032).
att(1803,1626).
att(587,555).
att(592,458).
att(1867,2095).
att(2039,2027).
att(2226,1479).
att(2252,1858).
att(416,1162).
att(2260,1786).
att(396,1191).
att(386,1203).
att(393,1196).
att(605,1766).
att(386,1201).
att(1801,1703).
att(421,1125).
att(597,454).
att(2036,2015).
att(1802,1705).
att(390,1209).
att(395,1200).
att(649,381).
att(423,1135).
att(2251,1860).
att(2258,2042).
att(2263,1792).
att(600,1766).
att(601,1759).
att(1811,1585).
att(2042,2154).
att(2254,1852).
att(2226,1520).
att(2043,2154).
att(2044,2002).
att(592,513).
att(645,379).
att(386,1211).
att(632,500).
att(1780,1589).
att(2017,1931).
att(410,990).
att(597,514).
att(1802,1719).
att(2268,1796).
att(1810,1606).
att(2045,1931).
att(2262,1806).
att(597,515).
att(630,490).
att(2221,1545).
att(596,515).
att(596,512).
att(2219,1338).
att(1867,2096).
att(595,518).
att(1804,1717).
att(591,494).
att(682,460).
att(1620,1766).
att(982,1124).
att(1012,267).
att(1013,309).
att(1012,273).
att(1200,448).
att(982,1142).
att(1194,443).
att(1200,1942).
att(984,1136).
att(1014,299).
att(1198,436).
att(984,1145).
att(1195,464).
att(1015,295).
att(988,1123).
att(1196,444).
att(682,434).
att(986,1153).
att(678,431).
att(987,1152).
att(693,533).
att(451,1182).
att(691,537).
att(1007,138).
att(689,510).
att(669,378).
att(680,498).
att(680,494).
att(687,511).
att(685,514).
att(678,492).
att(690,494).
att(689,493).
att(1196,483).
att(1204,1881).
att(691,511).
att(1013,170).
att(1006,198).
att(1010,170).
att(1200,481).
att(1194,507).
att(678,473).
att(678,548).
att(1188,488).
att(1188,485).
att(658,387).
att(1181,499).
att(1185,485).
att(1189,467).
att(987,168).
att(1190,484).
att(678,539).
att(1186,499).
att(1194,1865).
att(667,389).
att(693,559).
att(984,190).
att(1192,1887).
att(690,529).
att(1197,1895).
att(983,196).
att(1182,359).
att(1183,339).
att(991,172).
att(671,389).
att(1195,1913).
att(664,452).
att(1185,353).
att(670,471).
att(662,452).
att(656,433).
att(1190,333).
att(656,432).
att(667,434).
att(2169,1765).
att(1007,269).
att(1192,1943).
att(670,454).
att(982,1105).
att(982,1101).
att(682,559).
att(658,405).
att(990,1083).
att(1010,308).
att(1590,1767).
att(2168,1763).
att(1190,361).
att(2167,1758).
att(1190,357).
att(1202,482).
att(2151,1761).
att(1206,459).
att(1041,110).
att(615,433).
att(1038,143).
att(1203,459).
att(1131,856).
att(1042,95).
att(1205,462).
att(628,460).
att(1036,136).
att(2131,1760).
att(1015,1147).
att(1129,859).
att(1131,927).
att(1208,488).
att(1204,499).
att(1211,1865).
att(1137,856).
att(1039,127).
att(1213,1863).
att(1214,1859).
att(615,471).
att(1212,1919).
att(619,494).
att(1216,1894).
att(1205,507).
att(629,495).
att(1036,1076).
att(1129,972).
att(1207,508).
att(1131,972).
att(1203,325).
att(615,449).
att(1137,971).
att(611,453).
att(1209,509).
att(1039,192).
att(1203,1891).
att(617,512).
att(1012,190).
att(611,522).
att(1016,172).
att(1016,162).
att(1198,508).
att(692,391).
att(1014,191).
att(625,510).
att(1210,1881).
att(629,531).
att(1207,1887).
att(1192,365).
att(1579,1763).
att(1208,1922).
att(1012,197).
att(1035,309).
att(1575,1766).
att(613,497).
att(611,495).
att(1200,335).
att(1206,1952).
att(1010,1086).
att(1206,1951).
att(1576,1758).
att(1198,357).
att(1037,301).
att(1037,271).
att(1208,1942).
att(611,559).
att(678,401).
att(613,550).
att(2104,1764).
att(1206,439).
att(1014,1097).
att(1203,446).
att(2107,1759).
att(625,551).
att(1012,1128).
att(678,382).
att(678,381).
att(702,401).
att(1125,1654).
att(1063,145).
att(1219,467).
att(1063,97).
att(1044,1155).
att(1167,813).
att(698,384).
att(1158,859).
att(1160,888).
att(1061,129).
att(1059,175).
att(1131,1658).
att(1211,499).
att(713,531).
att(992,896).
att(1133,1668).
att(1213,505).
att(1216,502).
att(1133,1660).
att(1150,919).
att(1061,136).
att(1129,1665).
att(1061,138).
att(709,513).
att(706,490).
att(1218,501).
att(1165,884).
att(1162,971).
att(1060,197).
att(1150,765).
att(708,549).
att(707,558).
att(1057,197).
att(1150,962).
att(698,430).
att(698,433).
att(1744,1764).
att(1211,350).
att(1211,348).
att(1059,1076).
att(1162,964).
att(1057,1086).
att(1150,758).
att(709,556).
att(1055,1104).
att(705,533).
att(702,403).
att(1056,1104).
att(700,389).
att(705,530).
att(1125,752).
att(1132,952).
att(1209,328).
att(1220,1942).
att(1036,1096).
att(1040,1081).
att(696,450).
att(1203,357).
att(1207,335).
att(695,450).
att(697,431).
att(700,458).
att(1220,446).
att(1133,788).
att(1044,1084).
att(1036,1117).
att(1053,297).
att(699,450).
att(1041,1085).
att(1135,758).
att(418,563).
att(1035,1117).
att(700,522).
att(1219,1945).
att(1217,1947).
att(1037,1126).
att(1041,1104).
att(1218,1947).
att(1055,143).
att(1042,1128).
att(1131,811).
att(1039,1136).
att(1039,1126).
att(700,498).
att(1060,93).
att(1167,818).
att(1213,464).
att(699,500).
att(1214,486).
att(698,491).
att(1062,97).
att(1184,193).
att(1181,195).
att(671,516).
att(1639,1758).
att(986,878).
att(1150,1685).
att(992,1652).
att(1638,1763).
att(1641,1760).
att(1640,1767).
att(381,606).
att(983,960).
att(983,754).
att(987,765).
att(1189,194).
att(1637,1759).
att(991,919).
att(984,958).
att(672,477).
att(1195,271).
att(671,556).
att(1192,273).
att(669,559).
att(713,403).
att(712,389).
att(662,536).
att(1187,1084).
att(1192,308).
att(989,760).
att(1193,295).
att(670,532).
att(1200,306).
att(1186,1130).
att(669,534).
att(656,497).
att(1187,1104).
att(662,510).
att(984,778).
att(1185,309).
att(1060,1100).
att(1156,780).
att(706,437).
att(992,954).
att(1061,1085).
att(1057,1121).
att(1164,758).
att(1190,267).
att(705,430).
att(712,435).
att(1055,1126).
att(1181,110).
att(1181,91).
att(667,549).
att(664,558).
att(1063,1099).
att(658,537).
att(706,398).
att(1061,1130).
att(658,530).
att(1156,836).
att(992,783).
att(1158,815).
att(1182,160).
att(1061,1149).
att(1062,1155).
att(1164,808).
att(710,480).
att(983,925).
att(1063,1159).
att(710,472).
att(1165,836).
att(1187,140).
att(1192,2163).
att(717,418).
att(1315,478).
att(723,432).
att(1185,2136).
att(983,507).
att(1191,2181).
att(1197,2158).
att(1195,2178).
att(985,503).
att(1007,1863).
att(1009,1894).
att(1009,1887).
att(736,536).
att(738,558).
att(1318,515).
att(736,530).
att(717,380).
att(738,554).
att(984,509).
att(1195,2198).
att(1011,1894).
att(1305,382).
att(727,480).
att(991,502).
att(1195,2193).
att(1327,542).
att(1303,387).
att(985,323).
att(731,496).
att(1007,1891).
att(982,329).
att(1316,512).
att(1009,1889).
att(982,355).
att(1312,518).
att(717,452).
att(1016,1861).
att(1303,407).
att(729,456).
att(729,460).
att(1011,1920).
att(988,331).
att(1305,409).
att(1199,2196).
att(1315,532).
att(719,434).
att(1312,531).
att(723,456).
att(1290,380).
att(1318,554).
att(729,437).
att(1009,1942).
att(990,329).
att(717,433).
att(1193,2062).
att(1292,405).
att(1316,550).
att(1184,2203).
att(1301,428).
att(992,508).
att(1185,2190).
att(1299,432).
att(986,1893).
att(1189,2181).
att(1164,333).
att(1183,2204).
att(1291,405).
att(1288,548).
att(1305,455).
att(727,495).
att(727,490).
att(731,518).
att(990,1916).
att(1290,431).
att(1191,1386).
att(1303,477).
att(1164,348).
att(804,431).
att(1295,472).
att(723,553).
att(1182,2099).
att(1297,470).
att(727,537).
att(798,381).
att(982,464).
att(1299,496).
att(1290,475).
att(983,486).
att(719,510).
att(1190,2084).
att(1297,495).
att(1186,2099).
att(1200,2132).
att(739,414).
att(1037,1894).
att(1198,2136).
att(1203,2172).
att(1196,2144).
att(696,529).
att(1301,516).
att(1290,493).
att(743,418).
att(1201,2189).
att(1039,1865).
att(1035,1952).
att(1204,2201).
att(1208,2193).
att(1290,516).
att(1290,515).
att(701,516).
att(1297,533).
att(1299,553).
att(1014,335).
att(1206,2201).
att(739,452).
att(1014,325).
att(738,460).
att(1042,1920).
att(735,438).
att(1201,2067).
att(1757,1759).
att(1035,1943).
att(744,455).
att(1013,357).
att(1220,1384).
att(1757,1765).
att(1210,2207).
att(1044,1915).
att(1129,305).
att(735,409).
att(744,437).
att(1041,1943).
att(1129,289).
att(1137,309).
att(1208,2067).
att(1035,444).
att(1038,441).
att(1211,1378).
att(1132,267).
att(743,514).
att(1007,1948).
att(1193,2086).
att(1201,1386).
att(1016,1951).
att(1195,2069).
att(1750,1766).
att(1203,1386).
att(1204,1388).
att(1201,1413).
att(1010,446).
att(1006,463).
att(1011,465).
att(1199,2085).
att(725,391).
att(1012,443).
att(1192,2108).
att(742,553).
att(1201,2164).
att(1204,2158).
att(1196,2105).
att(738,533).
att(1191,2141).
att(1197,2108).
att(1200,2087).
att(1201,2158).
att(1197,2105).
att(730,384).
att(740,513).
att(1012,466).
att(736,498).
att(739,513).
att(1035,1859).
att(735,491).
att(1201,2177).
att(1006,507).
att(741,495).
att(1194,2133).
att(1057,1922).
att(1217,2177).
att(1217,2189).
att(1240,451).
att(1041,333).
att(1062,1891).
att(1035,354).
att(1220,2064).
att(1127,1097).
att(1239,449).
att(1217,2192).
att(1135,1080).
att(1131,1106).
att(1135,1081).
att(1241,474).
att(1043,354).
att(1238,471).
att(1063,1912).
att(1043,348).
att(1213,2061).
att(1223,454).
att(1160,303).
att(1062,447).
att(1237,471).
att(1240,493).
att(1058,439).
att(1129,1123).
att(1211,2086).
att(1161,301).
att(1053,466).
att(1150,91).
att(1129,1153).
att(1167,1119).
att(1236,498).
att(1129,1145).
att(1058,459).
att(1222,493).
att(1165,289).
att(1131,1152).
att(1137,1128).
att(1166,269).
att(1210,2067).
att(1131,91).
att(1131,97).
att(1208,2083).
att(1042,436).
att(1166,308).
att(1212,2158).
att(1040,465).
att(1133,145).
att(1240,548).
att(1204,2146).
att(1211,2160).
att(1236,537).
att(1137,91).
att(1205,2116).
att(1205,2139).
att(1219,2165).
att(1043,462).
att(1133,175).
att(1210,2112).
att(1223,533).
att(1044,467).
att(1230,435).
att(1207,2116).
att(1214,2178).
att(1211,2182).
att(1042,488).
att(1218,2158).
att(1208,2135).
att(1215,2160).
att(1222,549).
att(1039,503).
att(1040,508).
att(1210,2141).
att(1058,1897).
att(1041,504).
att(1058,1891).
att(1214,2192).
att(1225,431).
att(1309,434).
att(800,449).
att(1181,1944).
att(1150,1101).
att(796,456).
att(1150,1100).
att(1226,458).
att(987,269).
att(987,267).
att(1061,348).
att(1165,1086).
att(1226,477).
att(1227,471).
att(1184,439).
att(802,428).
att(1230,491).
att(804,449).
att(796,432).
att(984,104).
att(1309,472).
att(777,451).
att(988,305).
att(1225,472).
att(1229,490).
att(989,102).
att(1154,1157).
att(1154,1149).
att(982,85).
att(987,102).
att(1158,1134).
att(987,146).
att(1225,490).
att(992,1121).
att(798,478).
att(803,496).
att(1162,1145).
att(1185,464).
att(991,91).
att(1320,378).
att(1318,382).
att(1228,542).
att(1226,539).
att(1162,95).
att(1158,146).
att(1213,2114).
att(1231,556).
att(1219,2077).
att(1327,411).
att(1061,464).
att(1214,2144).
att(791,518).
att(1312,378).
att(1214,2136).
att(1316,387).
att(807,534).
att(1211,2133).
att(791,511).
att(1212,2141).
att(1288,387).
att(1226,559).
att(1162,134).
att(1320,403).
att(1219,2116).
att(800,510).
att(804,534).
att(1158,177).
att(1061,467).
att(1324,437).
att(1324,434).
att(796,520).
att(796,515).
att(796,511).
att(1314,403).
att(1056,509).
att(1181,1902).
att(1315,433).
att(1162,200).
att(1288,405).
att(1161,164).
att(1316,426).
att(1217,2141).
att(1063,502).
att(1182,1912).
att(1318,452).
att(1160,198).
att(802,558).
att(1188,1894).
att(1055,357).
att(1315,454).
att(1059,323).
att(1154,1075).
att(1316,454).
att(1158,1087).
att(1315,460).
att(1190,1902).
att(1015,1550).
att(1196,836).
att(1009,1339).
att(1201,925).
att(1009,1337).
att(1009,1332).
att(1205,882).
att(1191,1680).
att(1207,923).
att(1208,925).
att(1192,1684).
att(1007,1351).
att(1006,1389).
att(1009,1354).
att(1010,1360).
att(1210,932).
att(1014,1544).
att(1199,1679).
att(1009,1357).
att(1039,1273).
att(1035,1450).
att(1009,1380).
att(1200,1697).
att(1040,1277).
att(1202,780).
att(1207,763).
att(1207,958).
att(1041,1244).
att(1009,1414).
att(1201,817).
att(1009,1399).
att(1036,1494).
att(1009,1401).
att(988,1353).
att(1011,1258).
att(1012,1277).
att(983,1402).
att(1010,1456).
att(1200,964).
att(987,1385).
att(1007,1438).
att(1193,782).
att(1012,1258).
att(1197,782).
att(988,1381).
att(989,1402).
att(1010,1527).
att(1197,814).
att(1203,895).
att(1010,1508).
att(1219,880).
att(1213,971).
att(1209,1652).
att(1037,1335).
att(1214,966).
att(1044,1540).
att(1125,1992).
att(1215,919).
att(1133,1974).
att(1043,1331).
att(1053,1448).
att(1167,1973).
att(1167,1969).
att(1044,1331).
att(1135,1967).
att(1039,1358).
att(1039,1379).
att(1220,782).
att(1219,958).
att(1036,1399).
att(1220,780).
att(1062,1444).
att(1062,1450).
att(1038,1399).
att(1132,2025).
att(1056,1483).
att(1063,1456).
att(1043,1385).
att(1219,754).
att(1061,1456).
att(1131,1867).
att(1131,2041).
att(1135,2016).
att(1215,817).
att(1132,2019).
att(1208,787).
att(1131,1768).
att(1205,818).
att(1201,809).
att(1016,1387).
att(1125,1773).
att(1127,1778).
att(1220,856).
att(1037,1522).
att(1037,1524).
att(1203,808).
att(1042,1525).
att(1131,1788).
att(1137,1772).
att(1209,817).
att(1016,1402).
att(1208,835).
att(1216,896).
att(1039,1518).
att(1205,833).
att(1036,1543).
att(1133,1798).
att(1206,1658).
att(1127,1804).
att(1203,1668).
att(1214,923).
att(1129,1781).
att(1042,1339).
att(1201,1680).
att(1132,1808).
att(1166,1784).
att(992,1974).
att(1165,1962).
att(1056,1401).
att(1190,1277).
att(1061,1380).
att(1165,2023).
att(1059,1399).
att(1186,1495).
att(1162,2016).
att(984,1772).
att(1154,2041).
att(1184,1485).
att(1154,1857).
att(1181,1514).
att(986,1777).
att(1156,1852).
att(1158,1866).
att(1061,1409).
att(1158,2043).
att(987,1784).
att(1190,1520).
att(1160,1862).
att(984,1784).
att(1187,1485).
att(985,1790).
att(1125,1857).
att(1220,835).
att(1043,1402).
att(1127,1864).
att(1127,1862).
att(1057,1483).
att(1167,2017).
att(1061,1475).
att(1137,2041).
att(1056,1550).
att(1216,839).
att(1132,1864).
att(1127,1892).
att(1219,810).
att(1058,1545).
att(1165,1786).
att(1055,1339).
att(1162,1807).
att(1164,1798).
att(1167,1884).
att(1135,1880).
att(1218,1663).
att(1211,1687).
att(1166,1888).
att(1166,1882).
att(1182,1267).
att(1158,1968).
att(1217,1670).
att(1053,1354).
att(1062,1360).
att(1164,1803).
att(1161,1974).
att(987,2044).
att(986,2016).
att(1194,1438).
att(987,2017).
att(991,1989).
att(991,1991).
att(1195,1492).
att(1196,1438).
att(1189,1383).
att(1191,1527).
att(990,2025).
att(983,1858).
att(987,2036).
att(1011,1778).
att(1199,1485).
att(988,2039).
att(1192,1512).
att(1007,1788).
att(1193,1551).
att(1016,1775).
att(1194,1548).
att(1194,1506).
att(1195,1542).
att(1199,1518).
att(1192,1543).
att(1007,1807).
att(989,1857).
att(982,1882).
att(1197,1514).
att(990,1860).
att(1191,1361).
att(1154,1879).
att(1189,1527).
att(992,1866).
att(1185,1516).
att(1186,1548).
att(987,1802).
att(989,1968).
att(986,1973).
att(1185,1335).
att(986,1967).
att(1182,1379).
att(984,1999).
att(1183,1357).
att(1183,1358).
att(1190,1333).
att(1187,1330).
att(985,1988).
att(1181,1383).
att(982,1988).
att(986,1966).
att(987,2026).
att(988,1685).
att(989,1689).
att(1009,762).
att(1013,958).
att(1194,1083).
att(990,1682).
att(1199,1079).
att(1015,964).
att(1007,754).
att(1204,273).
att(1016,762).
att(1009,780).
att(1202,104).
att(1010,749).
att(1207,269).
att(1009,815).
att(1194,1134).
att(1191,1149).
att(1200,1099).
att(1014,778).
att(1207,102).
att(1207,293).
att(1196,1136).
att(1012,782).
att(1012,812).
att(1009,830).
att(1206,143).
att(1006,832).
att(1200,1128).
att(1206,145).
att(1196,104).
att(1192,87).
att(990,789).
att(1006,896).
att(1006,886).
att(1189,1117).
att(991,817).
att(991,778).
att(985,837).
att(1197,143).
att(407,1761).
att(988,834).
att(1193,199).
att(414,1766).
att(982,1662).
att(1013,884).
att(1011,932).
att(985,1685).
att(1012,933).
att(1199,166).
att(1015,882).
att(990,1670).
att(1009,954).
att(1010,921).
att(984,1695).
att(1206,1105).
att(1167,1273).
att(1206,1100).
att(1213,305).
att(1220,289).
att(1214,301).
att(1129,1444).
att(1207,1083).
att(1129,1260).
att(1203,1096).
att(1204,1124).
att(1131,1491).
att(1132,1446).
att(1133,1453).
att(1206,1106).
att(1132,1442).
att(1206,1124).
att(1213,104).
att(1214,293).
att(1207,1103).
att(1215,295).
att(1035,815).
att(1039,784).
att(1166,1440).
att(1206,1145).
att(1167,1438).
att(1044,778).
att(1215,87).
att(1036,836).
att(1053,896).
att(1040,836).
att(1039,829).
att(1127,1546).
att(1057,886).
att(1040,833).
att(428,1758).
att(1038,1668).
att(1058,882).
att(1218,132).
att(1011,831).
att(1035,895).
att(1201,199).
att(1200,1157).
att(1036,911).
att(437,1767).
att(1041,895).
att(1044,854).
att(1207,134).
att(1041,892).
att(433,362).
att(1012,1663).
att(1016,831).
att(1040,917).
att(1038,917).
att(1208,194).
att(1201,1080).
att(1039,921).
att(1040,966).
att(1014,1685).
att(1014,1682).
att(1042,765).
att(1137,1267).
att(1042,958).
att(1137,1271).
att(426,416).
att(1201,1097).
att(1205,1081).
att(1060,784).
att(1057,781).
att(1158,1442).
att(1133,1401).
att(1154,1527).
att(1181,859).
att(1158,1508).
att(1160,1551).
att(1062,839).
att(1062,813).
att(1156,1543).
att(1053,1668).
att(1060,834).
att(1061,816).
att(1186,884).
att(1062,838).
att(453,1759).
att(1154,1332).
att(1060,1658).
att(456,1764).
att(1186,911).
att(1059,1670).
att(1059,1658).
att(1063,888).
att(1219,140).
att(1220,197).
att(1217,177).
att(1133,1540).
att(1215,170).
att(1166,1547).
att(1219,177).
att(1132,1331).
att(1150,1271).
att(1217,166).
att(1167,1542).
att(1135,1337).
att(1132,1352).
att(1060,954).
att(1158,1276).
att(1129,1356).
att(1165,1244).
att(1212,1103).
att(1053,784).
att(1133,1380).
att(1057,749).
att(1214,1106).
att(1129,1404).
att(1129,1402).
att(1160,1436).
att(1055,778).
att(1188,814).
att(1193,895).
att(1188,812).
att(983,1514).
att(1182,832).
att(1186,814).
att(471,1761).
att(472,1761).
att(472,1765).
att(982,1543).
att(986,1547).
att(990,1520).
att(1181,1657).
att(1189,830).
att(1194,928).
att(477,1760).
att(1198,888).
att(1198,890).
att(1195,928).
att(475,1766).
att(984,1540).
att(988,1541).
att(1192,917).
att(1184,1680).
att(1188,1657).
att(982,1330).
att(1185,1658).
att(1197,919).
att(991,1544).
att(984,1334).
att(1190,1654).
att(1187,1670).
att(1007,1246).
att(1193,960).
att(1707,1758).
att(983,1385).
att(1189,1680).
att(990,1330).
att(987,1354).
att(982,1276).
att(1162,1335).
att(1158,1360).
att(1061,1668).
att(1186,964).
att(1190,921).
att(1059,1697).
att(1186,752).
att(1150,1414).
att(1161,1407).
att(1185,782).
att(386,1775).
att(748,552).
att(577,1409).
att(356,1867).
att(953,405).
att(1161,1181).
att(586,1492).
att(369,2019).
att(1162,1192).
att(369,2021).
att(579,1409).
att(745,559).
att(367,2019).
att(584,1485).
att(368,2041).
att(956,434).
att(953,437).
att(956,455).
att(395,1772).
att(955,437).
att(1160,1203).
att(367,1864).
att(584,1541).
att(985,991).
att(1158,1219).
att(1164,1203).
att(367,1896).
att(1160,1216).
att(956,470).
att(396,1806).
att(957,480).
att(965,494).
att(985,1014).
att(584,1332).
att(588,1545).
att(985,1012).
att(1165,1211).
att(393,1810).
att(588,1542).
att(585,1546).
att(982,1014).
att(388,1963).
att(397,1809).
att(369,1892).
att(598,1244).
att(986,1007).
att(764,520).
att(984,1016).
att(984,1013).
att(1165,1217).
att(362,1803).
att(545,1657).
att(541,1654).
att(1132,1211).
att(366,1811).
att(575,1340).
att(340,1896).
att(369,1788).
att(951,494).
att(1167,1218).
att(1167,1213).
att(572,1335).
att(360,1970).
att(547,1652).
att(572,1330).
att(573,1361).
att(576,1545).
att(576,1540).
att(577,1336).
att(541,1697).
att(368,1804).
att(545,1682).
att(992,988).
att(582,1244).
att(955,511).
att(1150,1042).
att(574,1333).
att(1150,1040).
att(580,1450).
att(366,1995).
att(358,1990).
att(1150,1053).
att(969,414).
att(918,382).
att(585,1274).
att(914,378).
att(957,542).
att(546,1687).
att(570,1373).
att(358,2019).
att(587,1274).
att(1158,1059).
att(1158,1057).
att(370,1964).
att(913,398).
att(585,1446).
att(910,407).
att(574,1377).
att(953,559).
att(364,1991).
att(589,1276).
att(918,433).
att(1150,1192).
att(579,1387).
att(918,437).
att(1165,1062).
att(360,2017).
att(969,450).
att(914,430).
att(396,2041).
att(922,456).
att(420,1768).
att(393,2042).
att(408,1811).
att(421,1784).
att(601,1540).
att(969,470).
att(602,1551).
att(967,474).
att(990,1196).
att(422,1772).
att(913,453).
att(920,470).
att(397,2039).
att(603,1541).
att(392,1892).
att(420,1784).
att(988,1204).
att(386,1882).
att(408,1809).
att(989,1213).
att(394,1888).
att(986,1215).
att(602,1546).
att(395,1884).
att(914,473).
att(421,1806).
att(922,498).
att(421,1970).
att(1013,1012).
att(601,1357).
att(601,1359).
att(1012,1015).
att(1012,1040).
att(924,379).
att(535,1444).
att(588,1335).
att(386,1999).
att(600,1244).
att(598,1277).
att(918,542).
att(918,539).
att(879,382).
att(929,407).
att(924,398).
att(587,1360).
att(983,1055).
att(587,1335).
att(920,553).
att(991,1007).
att(588,1359).
att(988,1040).
att(985,1062).
att(982,1061).
att(989,1040).
att(986,1044).
att(533,1767).
att(983,1188).
att(987,1056).
att(924,449).
att(601,1436).
att(394,2019).
att(388,2038).
att(987,1189).
att(390,2038).
att(600,1524).
att(604,1436).
att(416,1773).
att(394,1866).
att(606,1487).
att(987,1196).
att(390,2043).
att(603,1524).
att(876,451).
att(1127,1667).
att(1013,1212).
att(535,1331).
att(521,1546).
att(569,1769).
att(413,1888).
att(523,1339).
att(1011,1214).
att(527,1540).
att(561,1801).
att(1131,1659).
att(524,1541).
att(562,1969).
att(566,1969).
att(560,1995).
att(566,1801).
att(528,1542).
att(567,1807).
att(423,1884).
att(527,1332).
att(519,1389).
att(1132,1701).
att(565,1803).
att(528,1360).
att(528,1337).
att(1166,1659).
att(526,1331).
att(567,1804).
att(1038,1062).
att(1042,1041).
att(1039,1042).
att(519,1406).
att(566,1991).
att(1039,1056).
att(557,1438).
att(563,2025).
att(1166,1686).
att(1040,1058).
att(526,1353).
att(547,1263).
att(567,1986).
att(1037,1186).
att(568,2025).
att(549,1764).
att(1038,1185).
att(1131,1728).
att(1035,1187).
att(521,1444).
att(1006,1184).
att(600,1379).
att(1012,1043).
att(605,1381).
att(421,1988).
att(528,1274).
att(550,1765).
att(408,2017).
att(603,1387).
att(528,1258).
att(419,2022).
att(423,1991).
att(1014,1058).
att(600,1407).
att(413,2017).
att(601,1414).
att(1015,1184).
att(527,1440).
att(519,1522).
att(1016,1061).
att(535,1525).
att(1016,1184).
att(526,1492).
att(1014,1182).
att(561,1779).
att(421,2043).
att(562,1786).
att(566,1774).
att(759,385).
att(1011,1205).
att(568,1777).
att(1015,1194).
att(519,1542).
att(1161,1659).
att(1166,1622).
att(1166,1619).
att(578,1805).
att(761,409).
att(1133,1739).
att(1167,1635).
att(746,379).
att(1131,1742).
att(545,1360).
att(1165,1659).
att(745,380).
att(555,1387).
att(1056,1057).
att(1056,1058).
att(1162,1693).
att(570,1990).
att(1053,1063).
att(546,1337).
att(543,1359).
att(1127,1751).
att(1056,1185).
att(570,2022).
att(557,1402).
att(1158,1712).
att(571,2022).
att(543,1402).
att(1150,1571).
att(755,455).
att(574,2044).
att(577,2016).
att(546,1383).
att(755,474).
att(761,478).
att(546,1375).
att(575,2045).
att(572,1867).
att(575,2036).
att(1057,1192).
att(745,458).
att(1043,1062).
att(1043,1059).
att(543,1495).
att(560,2037).
att(1167,1735).
att(560,2036).
att(543,1491).
att(526,1377).
att(748,474).
att(757,493).
att(538,1479).
att(750,480).
att(545,1495).
att(1137,1732).
att(565,2045).
att(568,2018).
att(565,2020).
att(1125,1578).
att(1137,1727).
att(569,2044).
att(1166,1731).
att(761,510).
att(575,1776).
att(572,1776).
att(1129,1591).
att(576,1772).
att(568,2039).
att(764,384).
att(540,1516).
att(565,2036).
att(963,382).
att(557,1340).
att(571,1805).
att(569,2037).
att(965,384).
att(1133,1590).
att(561,1888).
att(577,1792).
att(561,1880).
att(1131,1614).
att(545,1550).
att(577,1786).
att(1042,1212).
att(753,542).
att(761,548).
att(953,381).
att(965,407).
att(579,1794).
att(750,531).
att(1044,1208).
att(567,1885).
att(1041,1217).
att(547,1542).
att(356,1545).
att(570,1652).
att(369,1512).
att(366,1542).
att(587,854).
att(388,1244).
att(583,917).
att(572,1695).
att(587,880).
att(572,1691).
att(386,1276).
att(585,968).
att(582,766).
att(356,1374).
att(358,1377).
att(383,1444).
att(383,1448).
att(579,1695).
att(202,1761).
att(584,766).
att(585,964).
att(388,1448).
att(390,1446).
att(589,954).
att(207,1758).
att(588,763).
att(392,1450).
att(545,1075).
att(574,960).
att(338,1355).
att(543,1084).
att(578,915).
att(547,1087).
att(543,1096).
att(575,747).
att(360,1446).
att(576,958).
att(362,1491).
att(337,1385).
att(369,1277).
att(575,787).
att(574,747).
att(571,809).
att(366,1438).
att(544,1101).
att(362,1495).
att(362,1475).
att(371,1383).
att(578,760).
att(547,1117).
att(577,814).
att(367,1475).
att(544,1142).
att(581,856).
att(356,1512).
att(358,1548).
att(371,1404).
att(358,1514).
att(370,1527).
att(370,1520).
att(575,833).
att(370,1481).
att(370,1479).
att(367,1525).
att(581,895).
att(573,838).
att(396,1339).
att(600,917).
att(604,925).
att(388,1359).
att(410,1273).
att(583,1697).
att(383,1353).
att(397,1541).
att(603,917).
att(383,1351).
att(413,1273).
att(588,1679).
att(396,1333).
att(589,1684).
att(607,966).
att(410,1440).
att(390,1373).
att(600,754).
att(116,1759).
att(598,785).
att(605,747).
att(112,1763).
att(123,1764).
att(413,1494).
att(413,1438).
att(605,789).
att(598,813).
att(602,818).
att(599,809).
att(395,1381).
att(386,1492).
att(388,1483).
att(580,815).
att(395,1453).
att(587,756).
att(370,1374).
att(99,1767).
att(368,1401).
att(599,896).
att(599,856).
att(583,811).
att(386,1547).
att(585,816).
att(586,829).
att(603,888).
att(585,833).
att(580,1684).
att(584,1665).
att(607,892).
att(563,1276).
att(563,1246).
att(419,1351).
att(413,1359).
att(416,1389).
att(413,1354).
att(564,1263).
att(562,1446).
att(519,754).
att(528,971).
att(525,758).
att(560,1487).
att(526,762).
att(521,747).
att(420,1359).
att(421,1383).
att(563,1492).
att(560,1475).
att(423,1380).
att(420,1381).
att(423,1400).
att(526,781).
att(517,835).
att(538,854).
att(540,896).
att(337,1776).
att(524,816).
att(332,1794).
att(524,808).
att(600,813).
att(413,1475).
att(604,781).
att(605,817).
att(408,1547).
att(599,838).
att(521,890).
att(420,1479).
att(421,1550).
att(421,1512).
att(598,1660).
att(602,836).
att(599,1670).
att(521,897).
att(525,854).
att(606,809).
att(525,882).
att(604,835).
att(421,1541).
att(519,915).
att(525,911).
att(410,1352).
att(603,1691).
att(607,1660).
att(521,921).
att(423,1541).
att(420,1546).
att(604,1684).
att(237,1761).
att(525,971).
att(236,1765).
att(574,1457).
att(557,783).
att(1127,1183).
att(560,1400).
att(576,1453).
att(341,1989).
att(1135,1060).
att(561,1414).
att(572,1440).
att(573,1492).
att(565,1385).
att(541,817).
att(569,1380).
att(547,789).
att(1167,1185).
att(538,814).
att(547,779).
att(1135,1186).
att(545,785).
att(330,1856).
att(1150,1160).
att(341,1866).
att(579,1483).
att(1154,1161).
att(544,808).
att(1154,984).
att(555,1665).
att(356,1811).
att(369,1776).
att(1166,1193).
att(573,1338).
att(341,1854).
att(572,1542).
att(330,1882).
att(337,1860).
att(1137,1210).
att(341,1852).
att(541,888).
att(535,1665).
att(563,1514).
att(526,809).
att(568,1522).
att(1131,990).
att(546,888).
att(526,835).
att(523,1665).
att(1167,1158).
att(521,1657).
att(1135,990).
att(1131,1014).
att(330,1968).
att(336,1803).
att(524,1663).
att(540,919).
att(565,1546).
att(560,1356).
att(1133,1014).
att(371,1807).
att(557,958).
att(560,1353).
att(326,1962).
att(538,766).
att(257,1767).
att(330,1994).
att(337,1968).
att(545,971).
att(337,1965).
att(1132,1042).
att(1166,1006).
att(567,1337).
att(563,1374).
att(341,1964).
att(573,1446).
att(561,1377).
att(1131,1056).
att(984,2188).
att(1184,1637).
att(1184,1738).
att(1188,1629).
att(990,2197).
att(1191,1710).
att(1198,1700).
att(1187,1741).
att(984,2062).
att(1181,1757).
att(1193,1712).
att(1193,1727).
att(986,2064).
att(1200,1715).
att(983,2085).
att(1197,1707).
att(987,2069).
att(1200,1686).
att(1195,1712).
att(1187,1745).
att(1196,1712).
att(1193,1574).
att(1006,2165).
att(1197,1730).
att(987,2081).
att(984,2084).
att(1156,2086).
att(983,1419).
att(1189,1693).
att(281,1759).
att(280,1764).
att(1150,2105).
att(279,1763).
att(1062,1756).
att(984,1376).
att(985,2165).
att(982,2165).
att(1156,2114).
att(1158,2116).
att(1185,1573).
att(1190,1732).
att(1186,1576).
att(1183,1578).
att(1183,1579).
att(1164,2082).
att(1187,1576).
att(1154,2135).
att(1158,2146).
att(1189,1577).
att(1182,1613).
att(1165,2112).
att(1160,2136).
att(984,2156).
att(992,2110).
att(1164,2139).
att(1012,2196).
att(1196,1744).
att(1016,2195).
att(1209,1699).
att(1009,2063).
att(1197,1738).
att(1202,1710).
att(1016,2201).
att(1210,1698).
att(1204,1714).
att(1015,2201).
att(1036,1417).
att(1035,1376).
att(1198,1750).
att(1042,1419).
att(1013,2088).
att(1009,2105).
att(1200,1756).
att(1036,2166).
att(1036,1410).
att(1016,2083).
att(1010,2108).
att(1014,2081).
att(1042,1405).
att(1195,1762).
att(988,2087).
att(984,2099).
att(985,2116).
att(1015,1386).
att(1012,1416).
att(1015,1376).
att(1009,2164).
att(1196,1727).
att(1191,1760).
att(315,1767).
att(984,2133).
att(1193,1595).
att(986,2141).
att(1198,1592).
att(1009,2193).
att(1016,2183).
att(1197,1610).
att(1191,1631).
att(1011,2189).
att(1007,2196).
att(1192,1635).
att(1192,1634).
att(1199,1610).
att(1007,2199).
att(312,1761).
att(1016,2179).
att(1191,1746).
att(310,1763).
att(1006,2205).
att(609,403).
att(1040,2064).
att(646,435).
att(1220,1729).
att(1210,1744).
att(1133,1944).
att(1129,1946).
att(1038,2084).
att(1131,443).
att(640,452).
att(1213,1727).
att(1133,439).
att(650,471).
att(1218,1735).
att(610,433).
att(1131,467).
att(609,456).
att(1166,443).
att(1219,1733).
att(1057,1413).
att(1040,2099).
att(1129,467).
att(1211,1598).
att(1137,466).
att(644,500).
att(1056,2161).
att(342,1761).
att(1220,1619).
att(1043,2114).
att(1167,465).
att(1167,462).
att(610,474).
att(1061,1415).
att(1214,1598).
att(1135,489).
att(640,510).
att(1211,1620).
att(344,1758).
att(1036,2181).
att(609,500).
att(1043,1408).
att(638,512).
att(1201,1622).
att(640,530).
att(1125,1897).
att(1201,1613).
att(1039,2157).
att(1206,1621).
att(622,382).
att(618,380).
att(1041,2184).
att(1132,1902).
att(1035,2190).
att(1216,1659).
att(1043,2175).
att(1036,2204).
att(1209,1615).
att(1210,1620).
att(624,432).
att(1218,1666).
att(1211,1688).
att(1039,2191).
att(734,399).
att(1127,1944).
att(1037,2205).
att(1129,1945).
att(1135,1913).
att(622,455).
att(1216,1716).
att(1219,1699).
att(1132,1915).
att(626,472).
att(992,1943).
att(1158,445).
att(612,458).
att(1165,469).
att(1058,2102).
att(1184,2157).
att(1184,2156).
att(992,444).
att(1060,2103).
att(618,475).
att(1162,457).
att(1164,467).
att(1160,483).
att(1183,2162).
att(1187,1415).
att(1154,501).
att(618,497).
att(1162,484).
att(992,481).
att(1150,328).
att(1158,507).
att(622,518).
att(1154,505).
att(1161,508).
att(616,515).
att(986,1897).
att(1162,507).
att(986,1881).
att(626,537).
att(616,531).
att(1158,320).
att(988,1895).
att(1056,2191).
att(1063,2184).
att(734,520).
att(1060,2175).
att(1214,1640).
att(1129,324).
att(620,552).
att(1058,2192).
att(1162,1920).
att(1056,2204).
att(1063,2180).
att(1127,348).
att(1058,2206).
att(1214,1742).
att(1058,2205).
att(1165,1887).
att(1129,348).
att(1131,357).
att(1213,1758).
att(1215,1738).
att(1216,1744).
att(1158,1943).
att(1167,354).
att(1059,2208).
att(1161,1952).
att(1056,2069).
att(1211,1748).
att(1212,1757).
att(992,1952).
att(1182,1418).
att(1213,1755).
att(1160,469).
att(1061,2066).
att(1218,1753).
att(588,1963).
att(683,387).
att(683,384).
att(684,391).
att(861,537).
att(861,536).
att(584,1988).
att(675,520).
att(581,2046).
att(677,533).
att(988,1709).
att(863,553).
att(985,1727).
att(654,378).
att(681,391).
att(989,1713).
att(1161,1749).
att(683,414).
att(1181,1185).
att(683,407).
att(674,542).
att(991,1707).
att(588,2024).
att(1183,1185).
att(1183,1186).
att(683,430).
att(585,2045).
att(601,1771).
att(655,411).
att(985,1573).
att(585,2017).
att(986,1733).
att(986,1572).
att(583,2036).
att(686,458).
att(987,1573).
att(1184,1209).
att(988,1577).
att(985,1595).
att(581,1864).
att(605,1779).
att(585,2041).
att(684,454).
att(652,428).
att(982,1595).
att(1181,1206).
att(987,1594).
att(991,1577).
att(688,471).
att(1055,1201).
att(1060,1200).
att(546,1404).
att(578,2022).
att(679,478).
att(1057,1202).
att(588,1775).
att(589,1776).
att(580,1806).
att(1060,1220).
att(1158,1615).
att(575,1878).
att(584,1780).
att(1161,1622).
att(1062,1212).
att(684,514).
att(1060,1211).
att(987,1700).
att(583,1970).
att(686,533).
att(686,532).
att(686,531).
att(583,1801).
att(655,518).
att(665,385).
att(683,532).
att(581,1962).
att(989,1659).
att(1164,1640).
att(583,1966).
att(663,407).
att(607,1989).
att(601,2021).
att(605,2019).
att(681,551).
att(424,1761).
att(654,554).
att(665,426).
att(663,435).
att(603,2037).
att(1012,1731).
att(1192,1202).
att(668,458).
att(525,1772).
att(1191,1207).
att(525,1774).
att(400,1762).
att(663,454).
att(633,435).
att(607,2043).
att(633,433).
att(1014,1572).
att(604,1866).
att(668,475).
att(668,473).
att(1195,1201).
att(603,1884).
att(660,472).
att(607,1857).
att(604,1858).
att(660,480).
att(517,1805).
att(604,1879).
att(1007,1634).
att(1007,1637).
att(605,1880).
att(1012,1613).
att(631,454).
att(1012,1615).
att(1006,1634).
att(584,1882).
att(1183,1213).
att(585,1853).
att(586,1860).
att(1181,1216).
att(605,1780).
att(599,1974).
att(982,1631).
att(660,511).
att(983,1636).
att(587,1885).
att(601,1969).
att(982,1641).
att(1009,1667).
att(989,1631).
att(663,534).
att(606,1808).
att(991,1619).
att(665,530).
att(665,533).
att(1014,1664).
att(598,1999).
att(636,381).
att(986,1741).
att(990,1638).
att(609,387).
att(660,552).
att(642,399).
att(648,435).
att(598,2045).
att(601,2018).
att(1009,1733).
att(642,411).
att(599,2044).
att(1043,1727).
att(1044,1728).
att(1041,1732).
att(544,1778).
att(540,1792).
att(527,2037).
att(1204,1207).
att(1127,2180).
att(547,1775).
att(1167,2165).
att(1044,1577).
att(526,1852).
att(924,522).
att(883,512).
att(541,1794).
att(1056,1669).
att(541,1805).
att(1205,1213).
att(521,1892).
att(875,494).
att(1044,1610).
att(889,387).
att(877,511).
att(524,1879).
att(1125,2191).
att(889,379).
att(1040,1629).
att(1058,1698).
att(881,539).
att(1200,1211).
att(526,1811).
att(1040,1669).
att(607,1880).
att(879,558).
att(1199,1215).
att(887,432).
att(1039,1661).
att(1010,1742).
att(1040,1693).
att(858,433).
att(526,1801).
att(1037,1698).
att(1011,1744).
att(527,1963).
att(519,2024).
att(1007,1751).
att(1006,1757).
att(1006,1753).
att(1040,1716).
att(1016,1743).
att(853,438).
att(889,470).
att(524,1989).
att(1039,1735).
att(1035,1728).
att(1013,1755).
att(1127,1410).
att(853,455).
att(1133,1388).
att(517,1867).
att(857,472).
att(540,1778).
att(887,497).
att(524,2046).
att(1042,1731).
att(852,476).
att(1035,1572).
att(1055,1615).
att(1059,1591).
att(1156,2179).
att(1059,1593).
att(1057,1598).
att(1158,2175).
att(1167,2133).
att(1160,2181).
att(545,1896).
att(1135,2127).
att(1160,2196).
att(544,1886).
att(891,549).
att(1055,1638).
att(1161,2198).
att(1062,1615).
att(853,516).
att(863,401).
att(891,556).
att(676,380).
att(1056,1741).
att(546,1888).
att(864,403).
att(1056,1738).
att(1185,1669).
att(677,384).
att(1160,2202).
att(1190,1659).
att(858,552).
att(889,559).
att(1161,2205).
att(858,558).
att(1156,2067).
att(1181,1708).
att(1181,1706).
att(1189,1666).
att(1158,2208).
att(1060,1750).
att(1189,1686).
att(852,548).
att(1164,2199).
att(1043,1639).
att(676,434).
att(557,2023).
att(1040,1744).
att(544,1964).
att(861,450).
att(865,473).
att(545,1990).
att(676,458).
att(1166,2204).
att(863,480).
att(675,455).
att(1058,1733).
att(1055,1734).
att(862,476).
att(555,2046).
att(1166,2067).
att(1129,2110).
att(1133,2097).
att(1160,1413).
att(862,495).
att(1156,2161).
att(541,2041).
att(673,480).
att(1156,2159).
att(546,2017).
att(864,514).
att(1150,2156).
att(557,1852).
att(547,2042).
att(675,496).
att(1057,1592).
att(676,511).
att(1161,1410).
att(1385,124).
att(1387,117).
att(834,939).
att(834,1020).
att(1353,30).
att(834,1004).
att(831,1018).
att(1373,150).
att(829,946).
att(1527,1904).
att(1475,1848).
att(1358,6).
att(832,946).
att(1660,1168).
att(1359,4).
att(1516,2005).
att(1660,1140).
att(1483,1818).
att(1654,1073).
att(1387,151).
att(838,939).
att(1522,1834).
att(1358,4).
att(1481,1847).
att(1373,68).
att(1524,1842).
att(1657,1074).
att(1475,1908).
att(1359,54).
att(837,1051).
att(1355,14).
att(1356,49).
att(1351,13).
att(1475,1906).
att(1495,1785).
att(832,997).
att(1658,1177).
att(1380,218).
att(1357,58).
att(831,997).
att(1663,1179).
att(1495,1818).
att(1489,1822).
att(1525,1911).
att(1520,2001).
att(835,1089).
att(834,1093).
att(1389,64).
att(1527,2001).
att(829,1067).
att(1483,1872).
att(1354,55).
att(1487,1791).
att(1356,78).
att(833,1031).
att(1438,1797).
att(1353,44).
att(1336,6).
att(1361,26).
att(1491,1848).
att(839,1021).
att(1442,1817).
att(1487,1849).
att(1334,34).
att(1330,9).
att(1360,30).
att(810,938).
att(1389,119).
att(1357,121).
att(1475,1932).
att(1360,5).
att(1332,39).
att(811,1021).
att(1337,19).
att(837,1171).
att(813,1064).
att(1335,61).
att(810,994).
att(1332,8).
att(1495,1906).
att(816,1020).
att(833,1170).
att(1442,1848).
att(1330,38).
att(833,1118).
att(814,994).
att(834,1122).
att(1357,216).
att(1440,1868).
att(1440,1872).
att(1337,44).
att(1361,77).
att(1440,1876).
att(1334,47).
att(1487,1956).
att(813,1111).
att(1487,1911).
att(1260,1793).
att(1330,50).
att(1456,1822).
att(1489,1930).
att(1448,1797).
att(1456,1831).
att(1491,1957).
att(829,1174).
att(1494,1960).
att(815,1066).
att(1495,1958).
att(1442,1905).
att(815,1051).
att(812,1069).
att(1457,1789).
att(810,1065).
att(1438,1984).
att(1457,1844).
att(810,1073).
att(1340,6).
att(810,1078).
att(1453,1847).
att(1544,3).
att(1543,5).
att(1438,2007).
att(1336,75).
att(1332,44).
att(1446,1816).
att(1487,1983).
att(1331,73).
att(1260,1829).
att(1457,1812).
att(813,1179).
att(810,1138).
att(1450,1833).
att(780,939).
att(780,930).
att(1542,4).
att(1543,39).
att(811,1168).
att(811,1114).
att(1334,210).
att(1334,214).
att(1260,1833).
att(1339,12).
att(816,1176).
att(1446,1907).
att(1339,15).
att(812,1118).
att(817,1021).
att(814,1116).
att(1332,63).
att(1457,1841).
att(1337,152).
att(1333,156).
att(811,1148).
att(782,1023).
att(779,939).
att(1260,1851).
att(1448,1350).
att(1542,1789).
att(1542,1797).
att(1543,1822).
att(1444,1345).
att(1332,1958).
att(1333,1940).
att(1330,1934).
att(1331,1932).
att(1545,1828).
att(1448,1368).
att(1340,1831).
att(1546,1791).
att(1546,1793).
att(1332,1877).
att(1440,1537).
att(1361,1911).
att(1453,1349).
att(1339,1831).
att(1450,1398).
att(1697,1027).
att(1274,1282).
att(1684,930).
att(1263,1396).
att(1338,1907).
att(1401,9).
att(1399,1).
att(1544,1839).
att(1687,940).
att(1545,1814).
att(1336,2005).
att(1457,1395).
att(1263,1347).
att(1409,8).
att(1337,2013).
att(1258,1426).
att(1687,939).
att(1456,1561).
att(1277,1304).
att(1340,1876).
att(1697,1066).
att(1401,32).
att(1457,1536).
att(1453,1563).
att(1338,1872).
att(1450,1432).
att(1402,60).
att(1691,1052).
att(1444,1538).
att(1691,1054).
att(1246,1325).
att(1679,1000).
att(1269,1329).
att(1680,1020).
att(1273,1319).
att(1444,1467).
att(1540,1833).
att(1542,1841).
att(1258,1501).
att(1691,981).
att(1518,1785).
att(1339,1911).
att(1545,1958).
att(1542,1958).
att(1684,1050).
att(1400,47).
att(1339,1934).
att(1541,1955).
att(1404,52).
att(1406,58).
att(1339,1960).
att(1450,1557).
att(1691,1066).
att(1414,52).
att(1691,1031).
att(1269,1289).
att(1684,1054).
att(1660,940).
att(1679,1073).
att(1381,4).
att(1547,1846).
att(1551,1847).
att(1670,936).
att(1548,1834).
att(1409,121).
att(1540,2007).
att(1550,1845).
att(1550,1820).
att(1679,1108).
att(1516,1825).
att(1679,1094).
att(1687,1073).
att(1400,82).
att(1406,79).
att(1546,1938).
att(1401,47).
att(1407,67).
att(1414,154).
att(1542,1940).
att(1542,1910).
att(1665,944).
att(1267,1428).
att(1544,2013).
att(1550,1821).
att(1541,1930).
att(1387,11).
att(1685,1179).
att(1271,1497).
att(1547,1899).
att(1665,1070).
att(1689,1177).
att(1274,1561).
att(1691,1173).
att(1244,1502).
att(1274,1539).
att(1548,1874).
att(1267,1430).
att(1516,1844).
att(1404,124).
att(1660,1023).
att(1269,1397).
att(1406,150).
att(1680,1140).
att(1375,4).
att(1380,9).
att(1665,1000).
att(1244,1397).
att(1691,1115).
att(1401,153).
att(1385,30).
att(1400,148).
att(1550,1961).
att(1654,1064).
att(1660,1034).
att(1481,1789).
att(1373,54).
att(1522,1830).
att(1527,1823).
att(1506,1875).
att(1383,82).
att(1657,1051).
att(1400,213).
att(1380,11).
att(1518,1900).
att(1662,1000).
att(1551,1875).
att(1689,1180).
att(1271,1537).
att(1663,1069).
att(1548,1956).
att(1401,188).
att(1267,1539).
att(1551,2011).
att(1380,73).
att(1520,1847).
att(1481,1816).
att(1383,147).
att(1670,1151).
att(1475,1828).
att(1383,150).
att(1374,75).
att(1527,1851).
att(1524,1814).
att(1550,1936).
att(1551,1932).
att(1520,1827).
att(1662,1045).
att(1520,1831).
att(1381,63).
att(1375,79).
att(1665,1090).
att(1663,1098).
att(1374,47).
att(1483,1321).
att(1525,1294).
att(1516,1463).
att(1387,1872).
att(1485,1328).
att(1387,1959).
att(1522,1365).
att(1527,1363).
att(1357,1800).
att(1383,1959).
att(1508,1472).
att(1479,1279).
att(1381,1873).
att(1512,1461).
att(1512,1469).
att(1524,1311).
att(1508,1498).
att(1524,1329).
att(1483,1278).
att(1475,1370).
att(1354,1783).
att(1374,1941).
att(1520,1422).
att(1356,1818).
att(1383,2011).
att(1524,1368).
att(1385,1954).
att(1380,1954).
att(1520,1348).
att(1375,1961).
att(1381,1911).
att(1524,1365).
att(1389,1822).
att(1355,1815).
att(1356,1832).
att(1351,1816).
att(1527,1497).
att(1524,1426).
att(1475,1342).
att(1524,1425).
att(1351,1837).
att(1524,1431).
att(1525,1461).
att(1487,1319).
att(1520,1461).
att(1489,1294).
att(1436,1328).
att(1522,1565).
att(1495,1300).
att(1351,1850).
att(1358,1832).
att(1495,1326).
att(1487,1279).
att(1487,1286).
att(1357,1905).
att(1494,1321).
att(1494,1326).
att(1351,1877).
att(1337,1795).
att(1389,1910).
att(1442,1307).
att(1356,1934).
att(1355,1959).
att(1331,1793).
att(1351,1868).
att(1361,1795).
att(1351,1908).
att(1354,1905).
att(1487,1289).
att(1438,1289).
att(1494,1363).
att(1335,1800).
att(1353,2009).
att(1332,1827).
att(1361,1849).
att(1354,1932).
att(1334,1813).
att(1334,1815).
att(1355,1983).
att(1491,1420).
att(1360,1819).
att(1492,1350).
att(1442,1371).
att(1436,1346).
att(1356,1985).
att(1450,1286).
att(1492,1503).
att(1436,1498).
att(1438,1502).
att(1331,1839).
att(1440,1420).
att(1495,1497).
att(1440,1422).
att(1334,1844).
att(1334,1839).
att(1436,1391).
att(1487,1500).
att(1360,1941).
att(1444,1300).
att(1338,1783).
att(1453,1362).
att(1492,1557).
att(1444,1307).
att(1444,1371).
att(1330,1869).
att(1456,1371).
att(1495,1563).
att(1361,1877).
att(1440,1472).
att(1446,1298).
att(1334,1871).
att(1260,1321).
att(1456,1300).
att(1330,1905).
att(1448,1313).
att(1331,1900).
att(1450,767).
att(1361,1502).
att(1442,937).
att(1337,1501).
att(1335,1498).
att(1436,1001).
att(1457,767).
att(1494,1005).
att(1491,907).
att(1495,1024).
att(1495,1026).
att(1337,1422).
att(1444,799).
att(1489,1001).
att(1457,898).
att(1332,1497).
att(1540,1311).
att(1335,1567).
att(1340,1311).
att(1360,1463).
att(1546,1280).
att(1335,1430).
att(1331,1472).
att(1360,1430).
att(1361,1465).
att(1453,874).
att(1444,827).
att(1402,1789).
att(1407,1799).
att(1409,1821).
att(1453,909).
att(1542,1370).
att(1401,1800).
att(1402,1829).
att(1456,851).
att(1545,1304).
att(1546,1298).
att(1414,1799).
att(1263,903).
att(1544,1363).
att(1260,898).
att(1412,1845).
att(1406,1817).
att(1407,1820).
att(1402,1842).
att(1263,906).
att(998,37).
att(1269,793).
att(1414,1812).
att(1453,943).
att(1407,1831).
att(1409,1843).
att(1267,790).
att(1246,726).
att(1444,906).
att(1258,948).
att(1277,786).
att(1551,1323).
att(1545,1500).
att(1546,1430).
att(1540,1497).
att(1540,1496).
att(1400,1834).
att(1409,1835).
att(1407,1837).
att(1514,1278).
att(1399,1850).
att(1544,1496).
att(1550,1278).
att(1550,1282).
att(1276,845).
att(1269,900).
att(1404,1958).
att(1277,867).
att(1547,1368).
att(1267,869).
att(1548,1347).
att(1506,1308).
att(1402,1954).
att(1277,898).
att(1339,1561).
att(1541,1430).
att(1340,1538).
att(1540,1463).
att(1276,901).
att(1404,1873).
att(1269,973).
att(1400,1930).
att(1400,1910).
att(1412,1985).
att(1387,1821).
att(1273,1001).
att(1276,976).
att(1547,1342).
att(1375,1787).
att(1547,1346).
att(1514,1341).
att(1377,1826).
att(1276,973).
att(1525,1278).
att(1550,1497).
att(1380,1842).
att(1551,1496).
att(1525,1285).
att(1271,1028).
att(1551,1473).
att(1522,1323).
att(1506,1393).
att(1527,1311).
att(1373,1843).
att(1506,1395).
att(1246,907).
att(1387,1846).
att(1527,1279).
att(1527,1282).
att(1527,805).
att(1527,777).
att(1442,597).
att(830,2015).
att(1520,804).
att(915,1554).
att(1494,621).
att(1479,730).
att(1527,796).
att(971,1454).
att(1487,592).
att(1487,590).
att(962,1611).
att(1494,641).
att(1522,725).
att(1522,732).
att(1495,635).
att(970,1452).
att(836,2101).
att(833,2073).
att(921,1529).
att(966,1570).
att(911,1529).
att(968,1568).
att(832,2074).
att(954,1674).
att(837,2075).
att(1485,727).
att(1438,608).
att(833,2058).
att(915,1526).
att(1438,611).
att(1479,804).
att(1438,621).
att(1494,687).
att(911,1554).
att(829,2101).
att(1440,669).
att(1487,710).
att(833,2174).
att(1489,698).
att(830,2130).
att(971,1586).
att(1442,693).
att(813,1997).
att(928,1452).
att(972,1655).
att(970,1683).
att(921,1623).
att(915,1705).
att(813,2078).
att(966,1655).
att(1491,736).
att(917,1611).
att(1456,632).
att(1494,737).
att(932,1460).
att(810,2051).
att(1457,591).
att(927,1535).
att(1457,692).
att(1440,717).
att(911,1649).
att(1453,689).
att(1258,637).
att(1487,791).
att(1487,798).
att(1438,796).
att(1448,623).
att(933,1529).
att(1453,611).
att(933,1534).
att(970,1651).
att(927,1560).
att(928,1559).
att(1453,628).
att(884,1468).
att(1446,623).
att(921,1673).
att(966,1719).
att(812,2076).
att(968,1720).
att(880,1560).
att(785,2000).
att(884,1607).
att(816,2185).
att(785,1980).
att(1446,705).
att(1457,704).
att(814,2185).
att(785,1926).
att(911,1725).
att(1258,615).
att(928,1605).
att(783,1996).
att(817,1998).
att(932,1587).
att(1450,697).
att(1457,741).
att(1450,698).
att(927,1611).
att(1697,202).
att(884,1646).
att(785,2032).
att(1276,597).
att(925,1705).
att(1446,742).
att(927,1646).
att(780,2012).
att(933,1612).
att(811,2174).
att(1448,712).
att(779,2095).
att(1273,613).
att(1450,719).
att(1263,737).
att(784,2093).
att(1265,649).
att(1244,651).
att(854,1554).
att(1444,803).
att(1691,258).
att(878,1674).
att(1260,723).
att(923,1725).
att(1277,617).
att(890,1553).
att(1269,643).
att(896,1562).
att(1273,637).
att(1448,744).
att(1457,733).
att(817,2076).
att(1453,729).
att(1444,735).
att(1684,111).
att(785,2092).
att(1444,733).
att(928,1649).
att(933,1723).
att(1685,180).
att(923,1651).
att(888,1559).
att(1685,183).
att(1269,592).
att(897,999).
att(1689,1978).
att(892,1022).
att(895,996).
att(1274,11).
att(882,1118).
att(854,1017).
att(886,993).
att(1263,121).
att(1274,62).
att(895,1052).
att(1697,2015).
att(1276,12).
att(1446,210).
att(1260,107).
att(1446,206).
att(1258,122).
att(817,1645).
att(933,1112).
att(1546,669).
att(1450,154).
att(1697,1981).
att(884,1091).
att(1542,693).
att(781,1581).
att(884,1168).
att(1444,124).
att(886,1018).
att(1446,117).
att(1276,30).
att(856,930).
att(1541,662).
att(890,1070).
att(779,1703).
att(1273,47).
att(784,1704).
att(1542,694).
att(897,1032).
att(754,1455).
att(1689,2031).
att(886,1045).
att(1508,630).
att(1697,2058).
att(747,1452).
att(1540,735).
att(1269,53).
att(1269,56).
att(1551,608).
att(1545,696).
att(880,1172).
att(1689,2050).
att(1450,218).
att(1274,56).
att(1540,697).
att(1691,2027).
att(785,1677).
att(1691,2033).
att(1514,597).
att(782,1678).
att(781,1616).
att(1684,2035).
att(1276,60).
att(1276,70).
att(1687,2152).
att(1277,69).
att(1689,2072).
att(892,1072).
att(752,1534).
att(1665,2012).
att(856,1111).
att(1668,1926).
att(1271,43).
att(1687,2074).
att(1269,50).
att(749,1560).
att(1541,731).
att(789,1528).
att(1506,593).
att(1544,791).
att(1543,777).
att(782,1736).
att(888,1111).
att(890,1144).
att(890,1168).
att(1277,120).
att(1518,672).
att(1657,1925).
att(1512,712).
att(1663,1981).
att(1512,711).
att(1663,1982).
att(859,1141).
att(1267,115).
att(896,1169).
att(1668,1997).
att(789,1583).
att(1273,152).
att(1665,1998).
att(752,1600).
att(1658,2006).
att(1665,1982).
att(1514,664).
att(1658,2004).
att(1652,1929).
att(888,1143).
att(1679,2151).
att(1520,592).
att(1551,738).
att(1551,744).
att(890,1175).
att(762,1566).
att(1512,739).
att(1665,2090).
att(1524,591).
att(787,1653).
att(1548,730).
att(1654,1975).
att(1516,713).
att(897,1180).
att(1244,119).
att(1506,704).
att(859,1122).
att(1684,2168).
att(1660,2074).
att(765,1535).
att(1550,807).
att(1475,637).
att(1652,2090).
att(836,1929).
att(1660,2071).
att(1483,595).
att(962,1455).
att(1481,630).
att(1522,637).
att(762,1528).
att(760,1655).
att(952,1462).
att(752,1681).
att(954,1452).
att(1548,777).
att(1524,670).
att(1652,2138).
att(1525,672).
att(1654,2126).
att(833,1937).
att(1654,2138).
att(829,1924).
att(1481,662).
att(831,2004).
att(952,1607).
att(1663,2096).
att(954,1602).
att(1508,777).
att(749,1718).
att(762,1584).
att(1506,798).
att(1524,693).
att(1527,742).
att(1483,707).
att(838,2048).
att(834,1972).
att(766,1675).
att(762,1703).
att(762,1678).
att(762,1702).
att(835,2032).
att(1475,707).
att(1483,708).
att(954,1568).
att(833,2012).
att(833,2000).
att(835,2049).
att(762,1626).
att(964,1633).
att(763,1624).
att(830,1998).
att(832,1978).
att(1527,155).
att(1483,73).
att(837,1607).
att(1520,64).
att(962,1098).
att(1485,81).
att(1479,63).
att(1353,682).
att(835,1585).
att(1522,150).
att(1522,155).
att(1373,804).
att(829,1534).
att(954,1048).
att(833,1553).
att(1483,52).
att(1379,725).
att(1380,727).
att(1357,689).
att(1522,66).
att(1373,727).
att(1481,78).
att(1358,709).
att(971,1018).
att(765,1114).
att(954,1151).
att(1525,120).
att(1356,706).
att(1520,188).
att(1527,212).
att(1495,11).
att(1524,119).
att(1492,32).
att(1475,72).
att(766,1170).
att(1355,689).
att(1485,154).
att(762,1115).
att(835,1645).
att(1438,5).
att(829,1602).
att(1353,664).
att(1481,153).
att(1336,595).
att(839,1566).
att(1440,20).
att(1334,632).
att(962,1180).
att(1355,697).
att(1356,731).
att(1335,651).
att(952,1174).
att(1475,208).
att(1475,122).
att(1492,16).
att(1354,704).
att(1524,216).
att(1359,697).
att(962,1139).
att(837,1609).
att(1487,20).
att(1489,60).
att(958,1172).
att(1351,704).
att(1440,32).
att(917,1000).
att(815,1531).
att(911,1047).
att(1492,76).
att(1337,623).
att(970,1094).
att(1334,611).
att(1354,732).
att(1355,796).
att(1487,70).
att(1489,63).
att(1495,65).
att(839,1528).
att(970,1048).
att(972,1098).
att(812,1556).
att(837,1725).
att(966,1107).
att(812,1564).
att(917,1045).
att(1494,80).
att(836,1736).
att(1442,68).
att(1444,6).
att(1330,664).
att(921,1140).
att(1448,4).
att(809,1583).
att(1335,711).
att(917,1169).
att(829,1736).
att(1453,3).
att(815,1602).
att(971,1090).
att(830,1718).
att(1334,690).
att(915,1089).
att(813,1570).
att(911,1138).
att(1457,61).
att(814,1676).
att(1444,16).
att(782,1452).
att(923,1069).
att(1335,737).
att(782,1458).
att(923,1052).
att(1448,12).
att(1330,698).
att(809,1626).
att(915,1176).
att(1450,39).
att(1263,2).
att(1450,36).
att(882,942).
att(1334,708).
att(1436,148).
att(816,1625).
att(923,993).
att(1446,19).
att(809,1642).
att(925,998).
att(1335,702).
att(814,1717).
att(880,1032).
att(784,1554).
att(1334,719).
att(781,1554).
att(1333,723).
att(1446,73).
att(1334,796).
att(1544,619).
att(1456,80).
att(1448,59).
att(814,1656).
att(1361,719).
att(1543,593).
att(1337,738).
att(1258,55).
att(1544,651).
att(878,1052).
att(932,1046).
att(1340,639).
att(1545,691).
att(880,1078).
att(818,1581).
att(895,939).
att(1542,613).
att(882,1093).
att(1332,804).
att(928,1074).
att(1338,713).
att(1258,67).
att(1276,8).
att(878,1073).
att(1695,1927).
att(1258,47).
att(1333,719).
att(884,1049).
att(1333,729).
att(1333,796).
att(1687,1926).
att(925,1088).
att(1687,1566).
att(1545,62).
att(1340,47).
att(779,1052).
att(1406,595).
att(1448,1876).
att(784,1064).
att(1697,1558).
att(808,1176).
att(1338,50).
att(1540,58).
att(1446,1953).
att(1276,1785).
att(1540,55).
att(1414,597).
att(815,1180).
att(1263,1841).
att(1540,11).
att(1330,216).
att(1331,206).
att(1456,2009).
att(1680,1530).
att(778,1092).
att(1456,2011).
att(783,1072).
att(1271,1828).
att(1448,1936).
att(1414,680).
att(818,1091).
att(1273,1820).
att(780,1049).
att(1409,670).
att(1540,80).
att(1548,9).
att(1269,1828).
att(1679,1529).
att(1685,1605).
att(1544,67).
att(1273,1823).
att(1414,615).
att(779,1034).
att(1448,1958).
att(1338,75).
att(818,1109).
att(1697,1605).
att(1446,1930).
att(1271,1787).
att(1406,608).
att(1276,1840).
att(788,1025).
att(1271,1850).
att(1271,1847).
att(758,940).
att(1506,7).
att(1682,1584).
att(1338,189).
att(1274,1909).
att(818,1179).
att(1246,1844).
att(754,1023).
att(1544,122).
att(781,1146).
att(793,1760).
att(1407,682).
att(1545,66).
att(1338,152).
att(1546,66).
att(1244,1822).
att(1697,1586).
att(1697,1587).
att(1689,1568).
att(1514,1).
att(756,944).
att(1404,671).
att(756,946).
att(1685,1683).
att(1269,1903).
att(1516,14).
att(1516,19).
att(1695,1705).
att(1518,14).
att(1407,696).
att(760,993).
att(1244,1835).
att(1680,1616).
att(789,1052).
att(1663,1458).
att(1697,1673).
att(1514,58).
att(1506,18).
att(1508,12).
att(1277,1905).
att(1400,709).
att(1412,700).
att(1541,83).
att(817,1174).
att(1406,705).
att(817,1176).
att(1695,1616).
att(818,1174).
att(1512,14).
att(752,1027).
att(784,1175).
att(785,1174).
att(1697,1675).
att(1274,1877).
att(1267,1908).
att(1404,700).
att(1269,1955).
att(788,1109).
att(1547,76).
att(1277,1936).
att(1273,1940).
att(1695,1717).
att(1506,45).
att(1665,1589).
att(1679,1674).
att(1385,645).
att(1387,608).
att(1400,739).
att(788,1049).
att(1269,1876).
att(758,1064).
att(1695,1674).
att(1682,1627).
att(1697,1674).
att(760,1048).
att(752,1070).
att(1665,1530).
att(1697,1720).
att(1407,730).
att(787,1108).
att(1684,1705).
att(1401,742).
att(756,1050).
att(1508,71).
att(1379,682).
att(788,1170).
att(1551,148).
att(1516,70).
att(1520,7).
att(760,1143).
att(1670,1628).
att(763,1022).
att(1512,155).
att(1375,669).
att(1385,656).
att(1276,1984).
att(749,1098).
att(1518,78).
att(760,1110).
att(789,1074).
att(762,934).
att(1375,678).
att(1527,2).
att(756,1089).
att(747,1112).
att(1483,42).
att(765,981).
att(1379,712).
att(1525,18).
att(1520,16).
att(762,996).
att(1389,632).
att(722,1765).
att(1389,591).
att(1665,1678).
att(754,1178).
att(1373,709).
att(1506,120).
att(960,997).
att(747,1140).
att(1660,1628).
att(1525,42).
att(1518,151).
att(789,1114).
att(1663,1643).
att(1373,667).
att(1514,120).
att(1658,1656).
att(1654,1704).
att(1355,596).
att(1352,593).
att(1380,741).
att(1670,1736).
att(1353,639).
att(763,1107).
att(1357,628).
att(829,1452).
att(832,1552).
att(1358,641).
att(1377,723).
att(1658,1649).
att(1377,725).
att(1660,1704).
att(1525,54).
att(1518,206).
att(1518,208).
att(1662,1626).
att(1357,647).
att(1381,731).
att(960,1066).
att(1665,1672).
att(1657,1612).
att(1475,19).
att(1506,189).
att(1506,213).
att(1658,1677).
att(1445,958).
att(911,236).
att(1312,1373).
att(971,316).
att(1226,1276).
att(816,776).
att(1227,1456).
att(1262,752).
att(1327,1353).
att(1264,749).
att(1451,960).
att(1310,1436).
att(968,283).
att(810,773).
att(1322,1354).
att(1259,789).
att(1322,1352).
att(836,1003).
att(839,771).
att(1261,782).
att(1324,1379).
att(919,255).
att(1228,1258).
att(1226,1489).
att(1449,758).
att(814,771).
att(836,1028).
att(968,286).
att(1224,1489).
att(1316,1409).
att(1225,1520).
att(919,281).
att(1224,1485).
att(811,840).
att(1324,1399).
att(921,279).
att(1226,1494).
att(1320,1414).
att(1447,781).
att(921,374).
att(972,376).
att(846,1767).
att(815,849).
att(816,848).
att(1447,815).
att(812,774).
att(925,111).
att(1262,837).
att(1227,1548).
att(843,1766).
att(1227,1514).
att(1226,1508).
att(1437,897).
att(882,202).
att(1324,1475).
att(927,181).
att(1513,1163).
att(811,901).
att(1266,816).
att(808,903).
att(1314,1518).
att(815,851).
att(816,867).
att(1515,1157).
att(1288,1541).
att(813,950).
att(1324,1522).
att(783,724).
att(917,427).
att(1272,813).
att(919,376).
att(1256,927).
att(1275,813).
att(1320,1550).
att(816,850).
att(971,415).
att(1248,1665).
att(1243,1682).
att(1288,1330).
att(1259,911).
att(780,724).
att(884,250).
att(785,792).
att(1312,1332).
att(781,718).
att(884,260).
att(816,1003).
att(816,1001).
att(1288,1355).
att(932,313).
att(1270,1658).
att(779,799).
att(932,238).
att(784,716).
att(785,714).
att(839,909).
att(919,429).
att(818,801).
att(811,867).
att(1266,1679).
att(1266,1691).
att(884,181).
att(812,868).
att(1262,968).
att(1327,1360).
att(812,950).
att(814,935).
att(1257,747).
att(1322,1335).
att(817,792).
att(1224,1276).
att(880,263).
att(1224,1409).
att(1224,1414).
att(784,847).
att(928,284).
att(1225,1412).
att(782,822).
att(884,262).
att(1222,1481).
att(923,351).
att(1221,1522).
att(1435,812).
att(880,284).
att(1493,754).
att(779,844).
att(1240,1495).
att(1240,1494).
att(933,280).
att(928,312).
att(1228,1414).
att(1697,1286).
att(815,1024).
att(781,792).
att(811,1001).
att(923,261).
att(1687,1278).
att(1223,1551).
att(1223,1512).
att(1689,1300).
att(1695,1369).
att(1221,1545).
att(1237,1547).
att(1477,897).
att(890,215).
att(817,870).
att(785,904).
att(1684,1294).
att(781,899).
att(1490,833).
att(1441,835).
att(1486,897).
att(888,183).
att(1478,882).
att(854,205).
att(1685,1362).
att(782,851).
att(1239,1550).
att(896,182).
att(1435,1652).
att(897,201).
att(1695,1306).
att(776,1766).
att(818,898).
att(1490,837).
att(785,902).
att(781,827).
att(878,372).
att(1441,1662).
att(1480,923).
att(890,99).
att(925,321).
att(1476,968).
att(1680,1347).
att(1445,831).
att(787,793).
att(1441,892).
att(854,179).
att(785,979).
att(1682,1366).
att(1262,1670).
att(1230,1550).
att(888,233).
att(778,977).
att(1451,837).
att(1679,1350).
att(1231,1547).
att(856,258).
att(1231,1543).
att(780,905).
att(1434,968).
att(1697,1346).
att(818,979).
att(787,806).
att(781,867).
att(854,178).
att(1449,1668).
att(888,253).
att(781,851).
att(1443,911).
att(767,1767).
att(1310,1356).
att(779,869).
att(897,280).
att(897,282).
att(1689,1392).
att(780,947).
att(1225,1352).
att(1229,1337).
att(1691,1393).
att(854,313).
att(1309,1385).
att(752,775).
att(1682,1395).
att(787,825).
att(886,261).
att(854,316).
att(747,776).
att(1221,1444).
att(1236,1273).
att(1236,1260).
att(1231,1354).
att(1241,1277).
att(1228,1389).
att(789,775).
att(754,792).
att(1222,1440).
att(1691,1397).
att(1682,1426).
att(1697,1473).
att(747,795).
att(1310,1404).
att(1443,754).
att(1433,784).
att(1443,752).
att(1290,1790).
att(1689,867).
att(1523,785).
att(897,2059).
att(1477,814).
att(886,2091).
att(895,2152).
att(1293,1798).
att(1474,835).
att(1658,722).
att(1480,814).
att(1679,871).
att(1480,839).
att(1687,974).
att(788,186).
att(758,217).
att(1254,1524).
att(758,215).
att(785,342).
att(818,425).
att(1511,888).
att(1482,833).
att(1234,1544).
att(895,2058).
att(1685,869).
att(781,344).
att(1253,1548).
att(1299,1788).
att(1486,832).
att(1290,1801).
att(1480,1668).
att(1251,1340).
att(1476,1687).
att(1680,908).
att(1305,1798).
att(1517,892).
att(895,2170).
att(859,2126).
att(1478,1695).
att(1234,1331).
att(1680,975).
att(1291,1963).
att(1521,1662).
att(760,260).
att(1255,1330).
att(1523,1689).
att(787,316).
att(1234,1354).
att(1252,1334).
att(1507,960).
att(1252,1331).
att(1290,1992).
att(856,2072).
att(756,352).
att(1233,1271).
att(1493,1658).
att(850,1766).
att(851,1759).
att(766,118).
att(856,2171).
att(1240,1546).
att(1484,928).
att(789,352).
att(763,204).
att(1484,919).
att(1663,822).
att(752,285).
att(1441,1691).
att(1658,822).
att(1652,846).
att(1652,844).
att(1493,1670).
att(1233,1456).
att(856,2098).
att(1242,1332).
att(1488,1687).
att(1679,1001).
att(1488,1691).
att(1240,1336).
att(752,229).
att(789,282).
att(859,2154).
att(1484,960).
att(763,116).
att(1253,1267).
att(1658,845).
att(787,347).
att(1684,1026).
att(1235,1258).
att(1238,1353).
att(1660,840).
att(1493,1695).
att(1652,771).
att(1239,1379).
att(869,1767).
att(766,182).
att(958,184).
att(1663,867).
att(1237,1406).
att(836,720).
att(1238,1387).
att(762,257).
att(1486,758).
att(747,342).
att(1658,872).
att(1254,1273).
att(1223,1402).
att(960,185).
att(1291,1778).
att(962,106).
att(1250,1491).
att(1523,789).
att(749,347).
att(762,202).
att(1482,784).
att(758,351).
att(789,321).
att(1670,904).
att(1670,871).
att(1238,1412).
att(765,204).
att(819,1762).
att(962,250).
att(1247,1544).
att(964,256).
att(1515,832).
att(824,1764).
att(762,317).
att(1663,935).
att(1662,908).
att(822,1764).
att(1270,1518).
att(1249,1543).
att(1270,1506).
att(1301,1890).
att(1272,1540).
att(1654,866).
att(1509,1695).
att(1509,1679).
att(1662,873).
att(1515,1660).
att(1505,1689).
att(1320,1807).
att(1316,1973).
att(1517,1660).
att(1665,945).
att(958,257).
att(1316,1802).
att(1658,978).
att(954,181).
att(1314,1995).
att(1245,1355).
att(1314,1966).
att(1268,1336).
att(1275,1330).
att(762,372).
att(1315,1965).
att(831,844).
att(1272,1336).
att(1652,1030).
att(954,311).
att(1447,1273).
att(1312,2026).
att(765,310).
att(1247,1375).
att(1447,1244).
att(1662,937).
att(964,232).
att(1243,1385).
att(1662,941).
att(1662,1002).
att(958,317).
att(1270,1355).
att(829,790).
att(1272,1353).
att(1322,1962).
att(954,233).
att(1266,1246).
att(1266,1271).
att(1295,1964).
att(919,123).
att(962,349).
att(838,904).
att(915,201).
att(831,894).
att(1252,1357).
att(958,319).
att(832,901).
att(952,349).
att(1247,1487).
att(1295,2025).
att(966,109).
att(1251,1375).
att(766,375).
att(1297,1991).
att(966,114).
att(1270,1273).
att(1519,756).
att(1234,1404).
att(1272,1260).
att(972,211).
att(829,847).
att(952,261).
att(829,848).
att(1293,2039).
att(1250,1401).
att(1303,1991).
att(833,948).
att(809,720).
att(966,238).
att(1505,829).
att(915,258).
att(1299,2044).
att(1511,816).
att(1272,1491).
att(968,236).
att(911,184).
att(1253,1404).
att(1266,1487).
att(972,239).
att(1245,1518).
att(832,850).
att(1515,813).
att(1549,818).
att(1290,1862).
att(837,871).
att(1290,1856).
att(838,866).
att(766,425).
att(915,202).
att(1291,1854).
att(1270,1524).
att(964,404).
att(964,406).
att(834,871).
att(966,257).
att(1299,2039).
att(1507,831).
att(832,866).
att(829,904).
att(1259,87).
att(911,1982).
att(1272,1124).
att(836,327).
att(833,284).
att(921,2053).
att(1275,1134).
att(1315,814).
att(838,327).
att(1257,140).
att(831,374).
att(1451,293).
att(839,201).
att(829,287).
att(1266,1155).
att(1225,892).
att(1447,143).
att(1256,176).
att(921,2000).
att(1266,1142).
att(1256,138).
att(1447,87).
att(1320,834).
att(968,2050).
att(814,111).
att(966,2052).
att(1315,837).
att(1451,95).
att(958,2167).
att(911,2002).
att(1445,138).
att(833,346).
att(1314,1658).
att(1314,1660).
att(813,254).
att(966,2059).
att(1257,193).
att(1322,833).
att(1451,134).
att(829,347).
att(839,186).
att(1261,196).
att(816,202).
att(816,209).
att(833,321).
att(968,2091).
att(1230,927).
att(1327,1652).
att(809,205).
att(831,344).
att(1299,1652).
att(972,2098).
att(1268,200).
att(1318,878).
att(1509,339).
att(1295,1670).
att(1291,1691).
att(1509,320).
att(923,2008).
att(966,2101).
att(915,2151).
att(925,2012).
att(1316,917).
att(932,1996).
att(1292,1685).
att(1245,1076).
att(970,2074).
att(1247,1079).
att(1295,1687).
att(970,2058).
att(1295,1695).
att(971,2073).
att(971,2126).
att(1275,191).
att(1303,1680).
att(971,2138).
att(1303,1689).
att(966,2152).
att(932,1926).
att(1511,363).
att(968,2152).
att(1245,1084).
att(1507,361).
att(911,2090).
att(1247,1104).
att(1247,1099).
att(1257,303).
att(1243,1126).
att(1259,301).
att(1264,267).
att(1249,1097).
att(1316,760).
att(1322,952).
att(808,232).
att(917,2096).
att(1259,299).
att(1261,102).
att(1247,1136).
att(1247,1130).
att(1257,110).
att(1314,808).
att(813,279).
att(1275,1097).
att(1433,166).
att(817,181).
att(882,2049).
att(839,406).
att(781,108).
att(928,2014).
att(1441,142).
att(812,346).
att(923,2079).
att(1449,1155).
att(817,179).
att(1488,127).
att(1227,1652).
att(1222,932).
att(1224,1657).
att(1222,923).
att(1223,970).
att(783,202).
att(779,111).
att(814,346).
att(1239,884).
att(1224,1687).
att(895,1933).
att(884,2090).
att(1434,196).
att(1434,1082).
att(1242,932).
att(1226,1685).
att(1239,921).
att(1242,919).
att(1437,1075).
att(812,406).
att(880,2091).
att(1435,1102).
att(1685,722).
att(1687,716).
att(779,181).
att(880,2092).
att(1231,911).
att(1695,846).
att(896,1979).
att(1318,1691).
att(928,2101).
att(1230,972).
att(1691,849).
att(1257,1101).
att(1226,960).
att(1257,1104).
att(1433,269).
att(1451,1087).
att(1264,1081).
att(1433,273).
att(932,2100).
att(1680,806).
att(784,239).
att(895,1998).
att(818,310).
att(948,1766).
att(884,2070).
att(933,2098).
att(1447,1085).
att(818,287).
att(884,2131).
att(1433,289).
att(789,204).
att(1439,102).
att(1689,822).
att(1445,1102).
att(1435,110).
att(1447,1103).
att(886,2049).
att(1434,295).
att(854,2048).
att(1443,295).
att(1679,820).
att(1262,1123).
att(749,111).
att(1262,1119).
att(1259,1153).
att(817,372).
att(1687,826).
att(1695,819).
att(1689,842).
att(1695,826).
att(1490,104).
att(859,2012).
att(882,2096).
att(1229,811).
att(783,372).
att(1221,856).
att(1227,815).
att(896,2050).
att(758,1924).
att(1242,832).
att(1476,191).
att(1221,1679).
att(1242,834).
att(1273,666).
att(859,1526).
att(1689,238).
att(1682,260).
att(1244,623).
att(854,1602).
att(886,1568).
att(1685,311).
att(1232,968).
att(778,2154).
att(1276,662).
att(1679,234).
att(1223,1680).
att(1269,689).
att(779,2151).
att(1238,1654).
att(1679,237).
att(1474,1076).
att(896,1588).
att(1482,1087).
att(892,1531).
att(1695,238).
att(1236,1691).
att(1523,162).
att(1682,258).
att(1484,197).
att(1682,259).
att(781,2075).
att(1292,1265).
att(886,1588).
att(1246,628).
att(778,2059).
att(1680,250).
att(1271,704).
att(1521,196).
att(1480,1082).
att(1668,123).
att(1265,710).
att(1267,695).
att(1665,217).
att(1507,269).
att(1484,1076).
att(1679,280).
att(1253,766).
att(1246,713).
att(1679,279).
att(1276,698).
att(1486,1099).
att(1273,707).
att(784,2124).
att(1523,1086).
att(780,2151).
att(1521,1081).
att(780,2100).
att(1697,351).
att(1299,1450).
att(781,2098).
att(1478,1121).
att(1276,709).
att(1488,1079).
att(890,1677).
att(1240,952).
att(1477,305).
att(1274,719).
att(1477,289).
att(754,2091).
att(1222,780).
att(747,2028).
att(1476,102).
att(1236,780).
att(1484,306).
att(1237,784).
att(1484,303).
att(1241,756).
att(1670,185).
att(1658,203).
att(1665,185).
att(888,1704).
att(1654,106).
att(1679,375).
att(749,2049).
att(749,2074).
att(1476,127).
att(890,1718).
att(1237,813).
att(890,1719).
att(1477,145).
att(1222,839).
att(1241,783).
att(1265,800).
att(1241,812).
att(1490,1157).
att(958,1931).
att(1657,254).
att(1484,87).
att(1232,897).
att(1441,1145).
att(1660,260).
att(1250,892).
att(1223,1657).
att(1269,723).
att(1221,1652).
att(1668,258).
att(760,2091).
att(1482,129).
att(1663,178).
att(1265,725).
att(1274,791).
att(1665,233).
att(1222,1660).
att(752,2076).
att(1478,160).
att(1239,837).
att(1239,832).
att(756,2072).
att(1245,952).
att(1513,191).
att(788,2168).
att(1288,1277).
att(788,2174).
att(1275,932).
att(1291,1352).
att(1270,932).
att(1511,1086).
att(754,2170).
att(1665,349).
att(1301,1335).
att(758,2153).
att(1291,1381).
att(762,2006).
att(1295,1351).
att(1243,781).
att(1270,766).
att(1327,1244).
att(1327,1246).
att(1505,1117).
att(763,1977).
att(754,2124).
att(1652,233).
att(1507,1101).
att(1293,1381).
att(833,111).
att(1519,1099).
att(1654,373).
att(1266,749).
att(1318,1450).
att(833,106).
att(838,204).
att(1288,1495).
att(833,123).
att(1320,1456).
att(1515,1101).
att(964,2049).
att(1505,1128).
att(762,2089).
att(1292,1414).
att(1511,1136).
att(958,2031).
att(836,182).
att(1663,327).
att(1511,1117).
att(1660,376).
att(837,118).
att(1660,374).
att(962,1977).
att(1245,811).
att(964,1971).
att(1515,1124).
att(1288,1522).
att(1663,372).
att(1243,831).
att(762,2031).
att(1315,1483).
att(835,215).
att(1316,1481).
att(1511,1149).
att(765,2071).
att(1295,1438).
att(1254,789).
att(833,182).
att(1662,406).
att(972,1924).
att(1299,1436).
att(958,2056).
att(1295,1520).
att(1509,140).
att(833,204).
att(1250,810).
att(1654,346).
att(1482,1163).
att(1654,318).
att(1233,832).
att(1303,1491).
att(1668,415).
att(1234,838).
att(1292,1548).
att(1663,427).
att(1292,1512).
att(919,1925).
att(1268,897).
att(832,314).
att(954,2152).
att(1301,1506).
att(971,2012).
att(1249,933).
att(1234,1660).
att(829,234).
att(832,312).
att(970,1997).
att(911,1933).
att(1507,173).
att(1303,1548).
att(1251,1658).
att(833,259).
att(964,2130).
att(1234,1689).
att(1292,1336).
att(1251,1682).
att(958,2154).
att(1507,195).
att(1299,1543).
att(970,1924).
att(1299,1542).
att(818,1795).
att(919,1463).
att(933,1367).
att(815,1870).
att(884,1319).
att(1447,2043).
att(884,1326).
att(1257,1890).
att(1488,1776).
att(817,1783).
att(1493,1774).
att(933,1302).
att(816,1875).
att(923,1302).
att(911,1496).
att(808,1956).
att(785,1829).
att(778,1822).
att(1449,1892).
att(923,1426).
att(1493,1811).
att(809,1936).
att(813,1983).
att(784,1822).
att(927,1366).
att(839,1938).
att(878,1298).
att(1261,1994).
att(1689,5).
att(1262,1973).
att(811,2001).
att(1447,1802).
att(782,1844).
att(1157,940).
att(878,1390).
att(1684,6).
att(888,1286).
att(1155,1021).
att(779,1850).
att(882,1341).
att(1445,1994).
att(808,1936).
att(1447,1966).
att(1256,1989).
att(1264,2025).
att(1449,1962).
att(880,1428).
att(1445,1999).
att(1155,1069).
att(859,1280).
att(892,1317).
att(784,1907).
att(1682,36).
att(818,1871).
att(854,1280).
att(923,1461).
att(884,1431).
att(1262,2016).
att(1264,2019).
att(783,1871).
att(1433,1773).
att(1153,1054).
att(1445,2024).
att(932,1469).
att(932,1432).
att(932,1431).
att(1149,1023).
att(878,1502).
att(1437,1771).
att(880,1496).
att(1152,1004).
att(1437,1774).
att(1155,1110).
att(758,1791).
att(1145,1031).
att(859,1298).
att(780,1875).
att(895,1350).
att(1149,1066).
att(1149,1047).
att(888,1347).
att(1443,1884).
att(1476,1967).
att(1437,1886).
att(1482,1967).
att(1689,58).
att(890,1302).
att(882,1461).
att(927,1539).
att(859,1323).
att(1142,994).
att(1523,1780).
att(784,1876).
att(928,1567).
att(1142,998).
att(1157,1064).
att(1490,1890).
att(884,1561).
att(1476,1992).
att(1687,155).
att(1155,1168).
att(1482,1999).
att(789,1846).
att(1689,64).
att(1477,1999).
att(1682,79).
att(1689,71).
att(752,1830).
att(752,1831).
att(854,1343).
att(1149,1089).
att(1124,931).
att(1130,944).
att(749,1821).
att(890,1345).
att(788,1820).
att(1145,1092).
att(892,1347).
att(1523,1966).
att(780,1954).
att(854,1363).
att(1682,52).
att(1142,1032).
att(747,1822).
att(782,2003).
att(1684,80).
att(1486,1989).
att(782,2011).
att(778,1940).
att(1685,71).
att(1153,1074).
att(749,1829).
att(783,2009).
att(1437,1986).
att(789,1901).
att(1126,998).
att(1145,1120).
att(1439,1986).
att(1657,21).
att(1490,1966).
att(1663,28).
att(1142,1140).
att(1697,218).
att(1130,994).
att(747,1834).
att(854,1501).
att(888,1469).
att(758,1844).
att(788,1841).
att(1155,1114).
att(1670,26).
att(760,1843).
att(1665,32).
att(1670,41).
att(1136,1022).
att(892,1372).
att(1136,997).
att(1149,1168).
att(749,1847).
att(1662,21).
att(788,1961).
att(1662,56).
att(1670,43).
att(1668,52).
att(789,1957).
att(1134,1045).
att(859,1459).
att(1657,62).
att(756,1956).
att(1652,55).
att(1523,1776).
att(1484,1778).
att(1145,1175).
att(789,1874).
att(1136,1047).
att(1657,14).
att(859,1467).
att(752,1909).
att(747,1906).
att(1658,62).
att(854,1469).
att(1521,1776).
att(888,1561).
att(1435,1885).
att(1510,1968).
att(787,1467).
att(754,1498).
att(960,1281).
att(1670,1842).
att(1515,1994).
att(1689,2001).
att(895,1030).
att(1665,1832).
att(760,1372).
att(888,1002).
att(788,1555).
att(1505,2020).
att(758,1465).
att(762,1298).
att(1515,1987).
att(763,1289).
att(787,1557).
att(952,1321).
att(760,1537).
att(952,1326).
att(1652,1905).
att(756,1567).
att(1654,1899).
att(762,1311).
att(952,1282).
att(1665,1877).
att(1665,1870).
att(954,1278).
att(1654,1957).
att(838,1824).
att(1480,2022).
att(1668,1936).
att(835,1824).
att(1670,1928).
att(762,1346).
att(835,1814).
att(836,1818).
att(1521,2023).
att(954,1366).
att(1509,1769).
att(962,1308).
att(1480,2038).
att(1482,2042).
att(1668,1958).
att(958,1300).
att(752,1463).
att(1663,1955).
att(1663,1960).
att(1484,2039).
att(752,1539).
att(960,1371).
att(1474,1879).
att(1476,1882).
att(1505,1805).
att(834,1813).
att(831,1846).
att(1511,1781).
att(1519,1792).
att(1523,1852).
att(952,1429).
att(1507,1780).
att(1484,1852).
att(1657,1983).
att(837,1815).
att(1509,1801).
att(1668,2001).
att(1517,1798).
att(1654,1910).
att(1668,1985).
att(762,1396).
att(1663,2007).
att(763,1391).
att(958,1427).
att(832,1813).
att(830,1827).
att(1486,1879).
att(832,1908).
att(962,1499).
att(762,1567).
att(834,1904).
att(917,1313).
att(762,1537).
att(835,1875).
att(836,1869).
att(960,1471).
att(954,1398).
att(962,1395).
att(915,1285).
att(972,1321).
att(836,1911).
att(954,1536).
att(971,1366).
att(962,1537).
att(835,1938).
att(968,1348).
att(810,1799).
att(839,1831).
att(919,1321).
att(971,1298).
att(962,1463).
att(765,1539).
att(921,1321).
att(837,1870).
att(765,1536).
att(917,1306).
att(839,1797).
att(970,1423).
att(830,1930).
att(921,1345).
att(1505,1879).
att(972,1428).
att(815,1829).
att(1509,1882).
att(971,1349).
att(833,1941).
att(915,1344).
att(972,1420).
att(832,1932).
att(836,2013).
att(831,1910).
att(808,1848).
att(911,1396).
att(1513,1884).
att(816,1836).
att(923,1287).
att(933,1313).
att(829,1984).
att(1549,1888).
att(971,1396).
att(966,1473).
att(809,1849).
att(966,1472).
att(968,1501).
att(911,1424).
att(968,1472).
att(839,1834).
att(972,1503).
att(808,1368).
att(1445,1543).
att(970,973).
att(928,716).
att(1445,1541).
att(1324,1879).
att(816,1347).
att(809,1347).
att(1226,1802).
att(1449,1541).
att(1322,1884).
att(1445,1335).
att(839,1349).
att(1451,1360).
att(968,979).
att(970,869).
att(808,1428).
att(970,1005).
att(884,790).
att(1229,1999).
att(1228,1965).
att(1261,1373).
att(1256,1381).
att(1229,1986).
att(878,767).
att(1227,2024).
att(1262,1379).
att(878,775).
att(1230,1963).
att(1264,1387).
att(1437,1260).
att(814,1501).
att(808,1344).
att(811,1342).
att(928,790).
att(1228,1986).
att(1447,1387).
att(812,1346).
att(1435,1524).
att(1443,1495).
att(880,792).
att(915,909).
att(808,1341).
att(1227,2019).
att(932,771).
att(1493,1263).
att(810,1469).
att(808,1499).
att(1316,2016).
att(818,1300).
att(1318,1991).
att(923,822).
att(1327,1993).
att(878,828).
att(783,1296).
att(1316,2038).
att(784,1287).
att(810,1501).
att(808,1395).
att(1312,2039).
att(919,1024).
att(1320,2036).
att(782,1317).
att(1315,1866).
att(923,825).
att(1320,2038).
att(817,1323).
att(813,1431).
att(817,1311).
att(1689,1787).
att(1689,1800).
att(785,1365).
att(1310,1810).
att(896,715).
att(1264,1512).
att(1679,1799).
att(882,824).
att(1225,1806).
att(1314,1886).
att(1262,1551).
att(1447,1516).
att(811,1465).
att(812,1565).
att(1226,1805).
att(1262,1542).
att(812,1563).
att(1227,1806).
att(1315,1890).
att(1227,1807).
att(1264,1545).
att(1310,1803).
att(1315,1880).
att(779,1429).
att(1439,1356).
att(1488,1331).
att(882,975).
att(859,720).
att(895,767).
att(933,1026).
att(1439,1355).
att(1477,1267).
att(1238,1995).
att(1441,1358).
att(1486,1273).
att(1435,1385).
att(782,1391).
att(888,774).
att(888,776).
att(1480,1277).
att(783,1392).
att(779,1422).
att(779,1349).
att(1682,1789).
att(1493,1355).
att(1241,1995).
att(884,868).
att(1691,1825).
att(781,1344).
att(928,906).
att(923,935).
att(923,943).
att(890,715).
att(1687,1816).
att(778,1348).
att(783,1422).
att(1223,2019).
att(1486,1258).
att(1441,1373).
att(1443,1379).
att(1695,1813).
att(890,716).
att(890,844).
att(1233,1774).
att(789,1323).
att(1482,1489).
att(787,1313).
att(1233,1773).
att(859,770).
att(754,1279).
att(780,1398).
att(892,847).
att(1241,1991).
att(1241,2017).
att(1222,2039).
att(856,843).
att(1441,1400).
att(1221,2041).
att(1679,1836).
att(789,1279).
att(1687,1841).
att(1239,2036).
att(1242,2022).
att(1488,1404).
att(892,768).
att(789,1287).
att(927,1008).
att(780,1422).
att(1240,2021).
att(888,848).
att(1480,1520).
att(1223,1852).
att(1493,1404).
att(1679,1847).
att(890,774).
att(758,1306).
att(1229,2044).
att(752,1317).
att(1434,1485).
att(1435,1522).
att(1434,1481).
att(1447,1404).
att(1691,1955).
att(1221,1784).
att(1449,1401).
att(758,1321).
att(897,902).
att(1682,1838).
att(1228,2038).
att(1684,1899).
att(859,826).
att(1229,1857).
att(1223,1809).
att(854,823).
att(1223,1808).
att(1229,1852).
att(1309,1878).
att(779,1463).
att(1230,2038).
att(788,1307).
att(1443,1506).
att(758,1347).
att(1240,1770).
att(1224,1892).
att(1240,1790).
att(890,976).
att(1231,1857).
att(1490,1548).
att(1228,1853).
att(1225,1880).
att(897,907).
att(1663,1831).
att(1689,1935).
att(1435,1361).
att(854,973).
att(1493,1548).
att(1691,1984).
att(1433,1334).
att(747,1349).
att(856,974).
att(1684,1911).
att(1687,2001).
att(1695,1934).
att(1680,1961).
att(892,870).
att(760,1370).
att(859,905).
att(1241,1781).
att(1684,1956).
att(747,1369).
att(1441,1333).
att(787,1426).
att(754,1348).
att(1239,1974).
att(854,850).
att(888,977).
att(1221,1999).
att(1493,1340).
att(1654,1797).
att(1232,2017).
att(1668,1307).
att(1255,1999).
att(859,280).
att(895,342).
att(1523,1373).
att(1682,1469).
att(752,826).
att(1235,2044).
att(756,900).
att(756,901).
att(1480,1381).
att(1521,1383).
att(1521,1387).
att(1670,1323).
att(1233,2036).
att(1680,1472).
att(1682,1394).
att(760,846).
att(1695,1430).
att(1663,1282).
att(1249,1772).
att(1252,2045).
att(1248,1768).
att(1697,1536).
att(1658,1328).
att(756,824).
att(1685,1467).
att(749,844).
att(766,721).
att(1507,1547).
att(1663,1348).
att(1517,1475).
att(1245,1796).
att(1235,1853).
att(788,873).
att(896,406).
att(1247,1806).
att(1509,1541).
att(1233,1880).
att(1243,1808).
att(1248,1796).
att(1505,1541).
att(1658,1369).
att(747,899).
att(1684,1565).
att(1652,1307).
att(1249,1782).
att(1252,1853).
att(1652,1306).
att(747,874).
att(888,404).
att(1253,1858).
att(1255,1779).
att(1255,1771).
att(1662,1428).
att(964,806).
att(1477,1541).
att(1222,1884).
att(1658,1390).
att(747,947).
att(754,1024).
att(1235,1780).
att(1474,1546).
att(1480,1541).
att(756,909).
att(1482,1541).
att(760,943).
att(1658,1420).
att(1658,1429).
att(1242,1892).
att(1509,1246).
att(765,826).
att(962,844).
att(1654,1500).
att(1668,1471).
att(766,822).
att(762,819).
att(964,844).
att(1240,1884).
att(1234,1966).
att(1662,1430).
att(952,841).
att(1507,1244).
att(1658,1459).
att(830,1284).
att(1652,1502).
att(1232,1987).
att(1654,1393).
att(1482,1356).
att(1505,1450).
att(1233,1990).
att(1255,1968).
att(1477,1359).
att(1519,1265).
att(1253,1994).
att(1507,1260).
att(1253,1962).
att(837,1363).
att(837,1362).
att(964,871).
att(1243,1854).
att(1549,1406).
att(1517,1406).
att(972,721).
att(1657,1565).
att(835,1300).
att(1243,1858).
att(1275,2038).
att(829,1325).
att(765,894).
att(832,1429).
att(919,728).
att(954,950).
att(1261,1807).
att(1266,1856).
att(958,947).
att(762,1024).
att(1249,1882).
att(972,771).
att(835,1420).
att(917,715).
att(1449,1782).
att(1264,1802).
att(952,871).
att(958,948).
att(960,974).
att(1445,1805).
att(1270,1878).
att(832,1500).
att(1275,1798).
att(830,1396).
att(1275,1788).
att(1249,1973).
att(917,842).
att(915,848).
att(1272,1781).
att(917,847).
att(1507,1355).
att(1254,1880).
att(966,768).
att(838,1394).
att(1549,1545).
att(1510,1353).
att(1505,1373).
att(1766,1762).
att(958,1019).
att(1767,1760).
att(1513,1360).
att(1513,1353).
att(1513,1351).
att(1247,1986).
att(971,903).
att(915,820).
att(1268,1965).
att(1275,1802).
att(1243,2017).
att(1275,1962).
att(809,1308).
att(1519,1353).
att(836,1536).
att(839,1308).
att(970,827).
att(816,1321).
att(830,1472).
att(921,844).
att(921,826).
att(834,1469).
att(834,1432).
att(917,823).
att(1249,2017).
att(2020,1538).
att(1790,819).
att(1991,1321).
att(2224,983).
att(2254,1613).
att(2026,1308).
att(1792,905).
att(2225,1156).
att(2263,1666).
att(2226,982).
att(2223,989).
att(1990,1323).
att(2261,1696).
att(1991,1283).
att(2224,1009).
att(2227,987).
att(2259,1696).
att(1782,1019).
att(1991,1285).
att(2018,1393).
att(2266,1661).
att(2044,1555).
att(2263,1696).
att(2251,1738).
att(1884,1785).
att(1788,866).
att(1775,728).
att(1776,720).
att(1885,1799).
att(1886,1826).
att(2262,1692).
att(1886,1821).
att(1777,714).
att(2226,1038).
att(2024,1429).
att(1769,850).
att(1794,907).
att(2264,1693).
att(2256,1750).
att(2026,1362).
att(2221,1056).
att(1779,718).
att(2226,1062).
att(2219,1187).
att(1770,904).
att(2264,1713).
att(2261,1731).
att(2142,1753).
att(2025,1391).
att(2025,1395).
att(2142,1748).
att(2214,1053).
att(1775,773).
att(2215,1044).
att(2251,1708).
att(2215,1040).
att(1769,935).
att(2252,1729).
att(2145,1748).
att(1999,1285).
att(1882,1850).
att(2249,1729).
att(2210,1199).
att(2253,1722).
att(1774,726).
att(1790,975).
att(2254,1724).
att(2258,1709).
att(1792,943).
att(1885,1818).
att(1882,1816).
att(1772,806).
att(2249,1575).
att(2220,1132).
att(2254,1578).
att(1965,1281).
att(1966,1284).
att(2026,1459).
att(2251,1578).
att(1884,1841).
att(1885,1832).
att(2251,1574).
att(2023,1461).
att(1886,1901).
att(1992,1308).
att(1768,842).
att(1993,1306).
att(1886,1870).
att(2213,1198).
att(1989,1467).
att(2220,982).
att(2249,1615).
att(2221,992).
att(2217,1194).
att(1995,1282).
att(1788,1003).
att(1990,1397).
att(2222,1165).
att(2215,1198).
att(2023,1467).
att(1988,1498).
att(2023,1465).
att(2023,1430).
att(1986,1398).
att(2252,1615).
att(1768,772).
att(1986,1397).
att(1769,1008).
att(2209,1213).
att(2272,1696).
att(1864,1789).
att(2261,1742).
att(2268,1618).
att(1892,1954).
att(2270,1693).
att(1892,1955).
att(1990,1538).
att(1884,1874).
att(2270,1688).
att(1858,1830).
att(2262,1740).
att(2278,1661).
att(2236,1006).
att(2263,1739).
att(2271,1690).
att(1773,901).
att(1879,1869).
att(2276,1694).
att(1884,1901).
att(2231,1041).
att(1995,1304).
att(1884,1909).
att(1992,1296).
att(2238,1061).
att(1963,1323).
att(2265,1743).
att(1892,1871).
att(2268,1635).
att(1892,1876).
att(1991,1469).
att(2265,1738).
att(1991,1563).
att(2277,1692).
att(1768,823).
att(1882,1868).
att(1880,1876).
att(2230,1063).
att(1879,1934).
att(1882,2013).
att(2275,1706).
att(1856,1822).
att(1778,935).
att(1890,2013).
att(1965,1350).
att(2234,1056).
att(2265,1752).
att(1864,1818).
att(1775,935).
att(2235,1042).
att(2277,1707).
att(2117,1378).
att(1854,1816).
att(1896,1842).
att(1852,1827).
att(1779,1028).
att(1888,1985).
att(1890,1934).
att(2276,1727).
att(2234,1184).
att(2248,1137).
att(1857,1785).
att(1858,1822).
att(2269,1571).
att(2248,1127).
att(2109,1411).
att(1886,2005).
att(1853,1831).
att(1993,1422).
att(2278,1730).
att(2240,1137).
att(1779,909).
att(2118,1382).
att(1974,1325).
att(1999,1430).
att(1967,1279).
att(2228,1193).
att(1966,1397).
att(1995,1473).
att(1966,1501).
att(1992,1467).
att(2263,1579).
att(1860,1901).
att(1992,1465).
att(1973,1321).
att(2219,1196).
att(1973,1325).
att(1879,2011).
att(1879,2013).
att(1879,1984).
att(2259,1594).
att(2238,1154).
att(1964,1390).
att(2263,1591).
att(1854,1843).
att(2234,1158).
att(2227,1198).
att(2238,986).
att(1804,1325).
att(2235,1131).
att(2225,1199).
att(2268,1592).
att(2041,1789).
att(2221,1211).
att(2222,1217).
att(1801,1308).
att(2225,1203).
att(2263,1618).
att(1858,1941).
att(1860,1956).
att(2229,983).
att(1973,1371).
att(1964,1430).
att(2272,1664).
att(2224,1219).
att(1999,1536).
att(1856,1836).
att(2231,982).
att(2225,1209).
att(2270,1692).
att(1853,1900).
att(2236,986).
att(2266,1620).
att(2266,1610).
att(2230,1016).
att(1964,1471).
att(1803,1284).
att(1999,1555).
att(1856,1425).
att(2118,2199).
att(2284,1694).
att(2247,1055).
att(1965,908).
att(2241,1038).
att(2106,2066).
att(2119,2201).
att(2285,1708).
att(1802,768).
att(2041,1282).
att(2117,2065).
att(1973,841).
att(2109,2080).
att(1860,1500).
att(1803,786).
att(1962,978).
att(2275,1757).
att(1854,1429).
att(2111,2086).
att(1862,1422).
att(2118,2060).
att(1992,1030).
att(2147,1384).
att(2106,2099).
att(2142,1418).
att(1854,1421).
att(2109,2099).
att(1803,721).
att(1993,1001).
att(2149,1418).
att(1862,1463).
att(1896,1539).
att(2149,1382).
att(2106,2112).
att(1857,1498).
att(2109,2141).
att(2036,1317).
att(2246,1206).
att(1969,820).
att(1802,828).
att(1973,905).
att(2042,1311).
att(2142,2159).
att(2283,1598).
att(2042,1285).
att(2143,2157).
att(1867,1329).
att(1801,770).
att(1804,771).
att(1801,840).
att(2284,1590).
att(2036,1281).
att(2288,1580).
att(2142,2183).
att(2243,1198).
att(1973,828).
att(2243,1196).
att(1802,847).
att(2042,1363).
att(2244,1133).
att(2276,1578).
att(2113,2156).
att(2231,1200).
att(2043,1368).
att(1852,1537).
att(2043,1366).
att(2242,1129).
att(1970,948).
att(2238,1211).
att(2239,1158).
att(2270,1610).
att(2239,1156).
att(2271,1595).
att(1802,867).
att(2275,1574).
att(1969,900).
att(1973,872).
att(2230,1217).
att(1973,870).
att(1970,901).
att(2038,1326).
att(1852,1430).
att(2234,1201).
att(2115,2161).
att(2109,2198).
att(1857,1565).
att(2273,1615).
att(2240,991).
att(2244,992).
att(1854,1555).
att(1808,793).
att(2038,1343).
att(2119,2180).
att(2234,1215).
att(2234,1216).
att(1969,908).
att(2106,2194).
att(2109,2195).
att(2235,1217).
att(2036,1423).
att(1967,1008).
att(1801,941).
att(2117,2192).
att(2236,1216).
att(2271,1639).
att(2036,1428).
att(1866,1423).
att(1969,977).
att(1973,908).
att(1970,975).
att(2285,1701).
att(2115,2196).
att(2273,1744).
att(2036,1345).
att(1807,715).
att(2283,1698).
att(2041,1431).
att(2022,1286).
att(2251,1378).
att(1780,846).
att(2043,1465).
att(2043,1432).
att(1780,843).
att(2020,1317).
att(2150,2065).
att(2288,1755).
att(2021,1278).
att(2134,2129).
att(2134,2132).
att(2042,1391).
att(2044,1287).
att(2251,1408).
att(2044,1325).
att(2137,2139).
att(1780,773).
att(2137,2132).
att(2249,2161).
att(2039,1372).
att(2040,1473).
att(1806,849).
att(2210,1599).
att(2257,1419).
att(2257,1405).
att(2254,2157).
att(2215,1578).
att(2149,2110).
att(2143,2129).
att(2039,1555).
att(2019,1366).
att(2249,2180).
att(2249,2181).
att(2145,2132).
att(2017,1306).
att(2147,2129).
att(2228,1666).
att(1808,823).
att(2255,2161).
att(2251,2177).
att(2219,1659).
att(2249,2190).
att(2118,2141).
att(2121,2129).
att(2280,1613).
att(1786,792).
att(2281,1635).
att(2209,1659).
att(2147,2172).
att(2245,1203).
att(2239,1213).
att(1792,715).
att(2046,1343).
att(2244,1215).
att(2018,1289).
att(2283,1629).
att(2284,1622).
att(1805,869).
att(1782,905).
att(2038,1561).
att(2209,1699).
att(2140,2208).
att(2209,1715).
att(1786,716).
att(2017,1365).
att(2134,2203).
att(1796,716).
att(2288,1614).
att(2286,1641).
att(2134,2062).
att(2017,1372).
att(2021,1396).
att(2149,2196).
att(1784,768).
att(1808,1024).
att(2216,1693).
att(1769,772).
att(1769,771).
att(2281,1748).
att(2210,1710).
att(2045,1391).
att(2142,2063).
att(2021,1428).
att(2046,1396).
att(2137,2064).
att(2215,1686).
att(1786,767).
att(2150,2203).
att(1788,792).
att(2017,872).
att(2249,1053).
att(2224,326).
att(2024,794).
att(2019,973).
att(2019,949).
att(2252,1053).
att(1796,186).
att(2210,544).
att(2220,383).
att(2227,337).
att(1798,187).
att(1808,342).
att(2221,366).
att(2251,1063).
att(1782,373).
att(2226,340).
att(1808,415).
att(1786,184).
att(2252,1185).
att(2216,527).
att(2252,1184).
att(2223,356).
att(1990,792).
att(2025,773).
att(2227,370).
att(2221,396).
att(2224,383).
att(2258,1061).
att(2222,395).
att(2225,386).
att(2255,1189).
att(1989,770).
att(2263,1127).
att(2255,1181).
att(2226,383).
att(2260,1127).
att(1796,236).
att(2217,544).
att(2257,1181).
att(1991,728).
att(1782,427).
att(1986,714).
att(2255,1199).
att(2255,1194).
att(2223,420).
att(1770,254).
att(1796,229).
att(1770,258).
att(1884,1280).
att(1884,1283).
att(1798,377).
att(1884,1286).
att(2251,1125).
att(1790,347).
att(1784,374).
att(2253,1166).
att(1777,123).
att(2142,1210).
att(2142,1208).
att(2017,1003).
att(2142,1202).
att(1798,263).
att(1886,1284).
att(2255,1135).
att(1892,1285).
att(1880,1286).
att(2256,1158).
att(1989,845).
att(1986,771).
att(2024,828).
att(2216,561).
att(1770,316).
att(2213,563).
att(2147,1203).
att(1796,427).
att(1892,1368).
att(1775,185).
att(1790,321).
att(2149,1216).
att(2255,986).
att(1992,722).
att(2252,1012).
att(2255,985).
att(2024,974).
att(1986,905).
att(1999,720).
att(2212,580).
att(2024,976).
att(1880,1370).
att(1988,850).
att(1987,899).
att(2228,340).
att(1778,202).
att(1796,343).
att(2025,898).
att(1798,342).
att(1890,1306).
att(1890,1308).
att(2218,579).
att(1986,820).
att(1988,899).
att(1784,321).
att(1989,900).
att(1777,205).
att(2213,586).
att(2260,1183).
att(2260,1184).
att(1990,974).
att(2227,604).
att(2237,388).
att(1990,948).
att(2238,386).
att(2026,1002).
att(2263,1187).
att(1779,313).
att(2233,368).
att(1988,907).
att(2260,1189).
att(2229,388).
att(1880,1426).
att(2267,1182).
att(1890,1347).
att(1879,1371).
att(2223,540).
att(1995,728).
att(1774,186).
att(2262,1187).
att(1886,1428).
att(2263,1194).
att(1777,256).
att(2024,943).
att(1777,255).
att(2264,1190).
att(1995,841).
att(1990,1030).
att(2237,565).
att(2269,1162).
att(1990,1003).
att(2238,565).
att(1775,283).
att(2262,1198).
att(2266,1194).
att(2278,1131).
att(1772,283).
att(1986,1005).
att(2260,1209).
att(2275,1129).
att(1880,1472).
att(2234,565).
att(1773,237).
att(1987,909).
att(1995,774).
att(2234,562).
att(2025,1003).
att(1966,795).
att(1775,310).
att(1892,1392).
att(1991,937).
att(2270,988).
att(2274,1164).
att(1858,1287).
att(2265,1212).
att(2266,1208).
att(1776,283).
att(1779,280).
att(2233,565).
att(1879,1420).
att(1962,825).
att(2264,1150).
att(2249,1214).
att(2257,1200).
att(2254,1210).
att(1884,1459).
att(2221,571).
att(1885,1567).
att(2226,564).
att(1885,1537).
att(1964,899).
att(1852,1321).
att(1964,904).
att(1777,346).
att(1852,1286).
att(1768,261).
att(1864,1311).
att(1890,1461).
att(1995,819).
att(1864,1313).
att(2220,581).
att(1995,826).
att(1857,1286).
att(1992,898).
att(1775,319).
att(1768,285).
att(1999,905).
att(2264,987).
att(1896,1424).
att(2224,589).
att(2265,1015).
att(1856,1369).
att(2228,603).
att(2225,579).
att(1967,795).
att(2225,580).
att(1963,976).
att(1802,724).
att(2219,603).
att(2223,602).
att(2234,334).
att(2264,1037).
att(2223,601).
att(2220,525).
att(1962,874).
att(1994,850).
att(1966,904).
att(2227,582).
att(2238,388).
att(2266,1038).
att(1853,1371).
att(1993,977).
att(2260,1062).
att(1852,1296).
att(1962,284).
att(2283,1129).
att(2271,1192).
att(1974,211).
att(2118,1727).
att(2247,423).
att(2272,1198).
att(2113,1575).
att(2113,1571).
att(1864,827).
att(2245,369).
att(2245,397).
att(2281,1160).
att(1966,351).
att(2235,538).
att(2274,1199).
att(1963,374).
att(2282,1129).
att(1962,280).
att(2121,1573).
att(2240,561).
att(1862,844).
att(2283,1156).
att(1862,848).
att(2119,1574).
att(2247,561).
att(1864,844).
att(2269,1208).
att(1857,773).
att(2241,408).
att(2248,566).
att(1992,377).
att(2248,572).
att(2273,1208).
att(2270,1217).
att(2120,1574).
att(2279,987).
att(2109,1613).
att(2239,563).
att(2246,571).
att(1962,313).
att(2282,1156).
att(1852,767).
att(1896,824).
att(1862,867).
att(2283,985).
att(1857,866).
att(1864,977).
att(2242,573).
att(2279,1012).
att(1858,948).
att(2245,560).
att(2121,1596).
att(2283,988).
att(2111,1641).
att(2244,574).
att(1965,372).
att(1970,211).
att(1999,412).
att(2115,1639).
att(1966,321).
att(2109,1742).
att(2120,1613).
att(2267,1211).
att(2267,1220).
att(1970,235).
att(1804,254).
att(2265,1213).
att(2270,1015).
att(2040,793).
att(2039,797).
att(2246,330).
att(2278,989).
att(2266,1213).
att(1853,945).
att(2271,1011).
att(2233,574).
att(2234,589).
att(1896,945).
att(1867,799).
att(1862,978).
att(2237,603).
att(2269,1040).
att(2235,586).
att(2274,1043).
att(2231,598).
att(2238,525).
att(2246,356).
att(2037,715).
att(1857,948).
att(1968,239).
att(2118,1701).
att(2238,528).
att(2273,1040).
att(2043,826).
att(2036,846).
att(1968,373).
att(2238,555).
att(2245,326).
att(1802,287).
att(2240,383).
att(1969,314).
att(2276,1057).
att(2040,770).
att(1801,313).
att(1967,279).
att(2281,1125).
att(2120,1714).
att(2041,840).
att(2036,773).
att(2111,1734).
att(2134,1610).
att(2287,1192).
att(2287,1193).
att(2040,869).
att(2284,1208).
att(2280,1212).
att(1967,406).
att(2134,1618).
att(2134,1636).
att(2038,841).
att(2148,1593).
att(2038,845).
att(2280,1219).
att(1974,327).
att(2215,1156).
att(2039,822).
att(1801,377).
att(2209,1012).
att(2284,1212).
att(2040,902).
att(2288,1209).
att(1781,112).
att(2210,1015).
att(2250,1686).
att(2218,985).
att(2044,801).
att(2149,1636).
att(1805,237).
att(2213,1015).
att(2253,1659).
att(2142,1747).
att(2148,1638).
att(2134,1751).
att(2210,1056).
att(2250,1709).
att(2046,726).
att(1782,204).
att(2044,714).
att(2215,1016).
att(1780,203).
att(2137,1749).
att(2140,1756).
att(2252,1709).
att(2140,1755).
att(2145,1740).
att(2213,1041).
att(1810,255).
att(2257,1700).
att(1781,287).
att(2283,1039).
att(2241,600).
att(2248,527).
att(2281,1059).
att(2019,845).
att(2016,774).
att(2288,1011).
att(2017,773).
att(2134,1709).
att(2286,1015).
att(1810,279).
att(2286,1013).
att(2239,517).
att(2021,793).
att(2244,606).
att(2113,1757).
att(1808,239).
att(2147,1712).
att(2115,1753).
att(2285,1060).
att(2245,604).
att(2039,906).
att(1780,236).
att(2147,1709).
att(1807,373).
att(2282,1182).
att(1811,342).
att(1810,318).
att(1782,281).
att(2283,1182).
att(2241,528).
att(2247,543).
att(1786,201).
att(1794,185).
att(2019,874).
att(2147,1729).
att(2017,848).
att(1792,111).
att(2244,545).
att(1794,99).
att(1808,284).
att(1792,112).
att(1782,262).
att(2280,1201).
att(1786,114).
att(2147,1574).
att(1788,1930).
att(1790,1940).
att(2238,1378).
att(2266,1915).
att(1886,689).
att(1414,1585).
att(1401,1531).
att(1777,1813).
att(1542,1109).
att(1988,66).
att(2226,2066).
att(2024,156).
att(1882,685).
att(1888,670).
att(1773,1827).
att(1879,621).
att(2231,1417).
att(1884,649).
att(2237,1413).
att(2227,2068).
att(1885,637).
att(2259,459).
att(1407,1553).
att(2222,2085).
att(1340,1071).
att(1886,693).
att(1880,611).
att(1792,1983).
att(1888,678).
att(2225,2083).
att(2236,1386).
att(1399,1558).
att(2025,74).
att(1544,1109).
att(2234,1388).
att(2265,465).
att(1339,1139).
att(2261,485).
att(2026,117).
att(2237,2159).
att(2228,2133).
att(2232,2165).
att(1775,1838).
att(1963,3).
att(1546,1114).
att(2263,488).
att(1340,1178).
att(1514,1017).
att(1888,694).
att(1542,1144).
att(1401,1584).
att(1882,707).
att(1402,1642).
att(1512,1023).
att(1777,1834).
att(1777,1839).
att(1506,940).
att(2234,1411).
att(1995,7).
att(2224,2141).
att(2231,2183).
att(2237,2175).
att(1774,1821).
att(1339,1143).
att(2262,487).
att(2268,464).
att(1340,1168).
att(1886,667).
att(2227,2099).
att(2227,2097).
att(1546,1091).
att(1988,65).
att(2225,2139).
att(1547,1004).
att(1888,708).
att(1999,30).
att(1409,1644).
att(1964,9).
att(2024,124).
att(1409,1630).
att(1879,680).
att(1540,1171).
att(1550,1066).
att(1516,995).
att(1775,1869).
att(1886,729).
att(1518,1052).
att(1878,697).
att(1994,58).
att(1399,1623).
att(2224,2160).
att(1550,994).
att(2025,218).
att(1995,14).
att(1773,1840).
att(1404,1616).
att(1775,1905).
att(1885,708).
att(2225,2157).
att(2255,489).
att(2252,339).
att(1991,189).
att(1546,1177).
att(1993,59).
att(1962,38).
att(1964,19).
att(1409,1702).
att(2219,2188).
att(1514,999).
att(1404,1623).
att(1514,1094).
att(2261,1914).
att(1404,1720).
att(2268,1859).
att(1374,1562).
att(1385,1528).
att(1385,1533).
att(1404,1726).
att(1323,1767).
att(1400,1653).
att(1387,1605).
att(1771,1936).
att(1406,1723).
att(1319,1762).
att(1381,1589).
att(1776,1984).
att(1768,1957).
att(1993,72).
att(2261,1951).
att(1402,1718).
att(2265,1922).
att(2227,2194).
att(1778,1954).
att(1884,740).
att(1963,54).
att(2228,2063).
att(1864,651).
att(2225,2190).
att(1547,1111).
att(1775,1911).
att(1854,608).
att(1964,43).
att(2263,1943).
att(1380,1560).
att(1776,1935).
att(1878,736).
att(2255,357).
att(2226,2200).
att(2256,361).
att(1878,741).
att(1407,1655).
att(1854,643).
att(1326,1761).
att(1862,666).
att(2233,2082).
att(2248,2166).
att(1966,65).
att(1385,1585).
att(1773,1984).
att(2119,289).
att(2117,102).
att(2246,2163).
att(1479,936).
att(1973,30).
att(2236,2086).
att(2239,1405).
att(2229,2110).
att(2233,2088).
att(2271,461).
att(2272,488).
att(2234,2110).
att(1773,1936).
att(1516,1111).
att(2234,2108).
att(1857,611).
att(2106,138).
att(1551,1073).
att(2120,105).
att(2239,2164).
att(2274,487).
att(1518,1073).
att(2270,506).
att(2239,2160).
att(2245,1405).
att(2120,87).
att(1381,1586).
att(1993,153).
att(2118,146).
att(1862,695).
att(2271,503).
att(2113,168).
att(2118,127).
att(1383,1681).
att(1965,113).
att(2269,508).
att(2247,2172).
att(2276,485).
att(1804,42).
att(1516,1114).
att(2109,200).
att(2248,2178).
att(1864,703).
att(2120,145).
att(1801,20).
att(1858,741).
att(2117,199).
att(1802,12).
att(2239,2179).
att(2239,2182).
att(1858,743).
att(1973,53).
att(2243,2160).
att(2270,320).
att(1854,696).
att(1969,12).
att(1973,56).
att(1479,980).
att(1481,999).
att(1862,707).
att(1974,20).
att(2280,1889).
att(2241,2179).
att(1965,156).
att(2269,329).
att(2106,194).
att(2245,2182).
att(1380,1647).
att(1992,216).
att(2115,190).
att(1860,697).
att(2117,198).
att(1547,1172).
att(1964,117).
att(1964,119).
att(1993,218).
att(2117,193).
att(1993,214).
att(2244,2180).
att(1969,42).
att(1527,993).
att(1374,1703).
att(2040,641).
att(2265,501).
att(2274,1894).
att(2235,2159).
att(2259,328).
att(2274,1861).
att(1385,1723).
att(2271,1919).
att(2233,2198).
att(2275,1898).
att(1353,1552).
att(1351,1452).
att(1375,1683).
att(2230,2200).
att(2260,355).
att(1856,697).
att(2260,350).
att(2272,1914).
att(1506,1179).
att(1974,48).
att(1857,697).
att(2232,2195).
att(1967,60).
att(2278,1902).
att(1858,737).
att(1968,47).
att(2036,595).
att(2274,1913).
att(1381,1673).
att(1381,1674).
att(1353,1455).
att(1357,1558).
att(2263,350).
att(1803,74).
att(1527,1170).
att(1852,805).
att(2276,1917).
att(1281,1763).
att(1527,1151).
att(1286,1767).
att(1359,1601).
att(1359,1606).
att(2117,301).
att(2236,2208).
att(1489,946).
att(1811,4).
att(2271,1942).
att(2272,448).
att(1481,1090).
att(1353,1534).
att(2038,637).
att(2247,1386).
att(1803,50).
att(1974,71).
att(2043,619).
att(1377,1726).
att(2115,306).
att(2270,469).
att(2248,1378).
att(1355,1558).
att(1359,1534).
att(2274,443).
att(2117,295).
att(1857,804).
att(1479,1109).
att(1801,81).
att(2236,2061).
att(1522,1090).
att(2111,104).
att(1380,1725).
att(2229,2080).
att(1380,1723).
att(2113,105).
att(1809,1789).
att(1867,43).
att(1803,1904).
att(1867,45).
att(2137,177).
att(1803,1907).
att(2149,87).
att(2287,457).
att(1374,1172).
att(2140,173).
att(1801,1871).
att(2036,62).
att(1810,1787).
att(1968,1955).
att(2142,176).
att(1352,1068).
att(2041,49).
att(1357,1049).
att(2286,467).
att(2142,166).
att(1867,54).
att(2212,1894).
att(1970,1907).
att(2134,1087).
att(1853,210).
att(1853,214).
att(2143,200).
att(2211,1902).
att(1866,68).
att(2215,1897).
att(2215,1865).
att(1967,1930).
att(1967,1932).
att(1358,1077).
att(2288,508).
att(1866,64).
att(1389,1111).
att(2214,1912).
att(1353,1033).
att(1389,1110).
att(2280,365).
att(2280,357).
att(2140,1084).
att(2145,1080).
att(1359,1094).
att(1801,1955).
att(2145,1082).
att(2252,271).
att(1355,1050).
att(2041,79).
att(1355,1032).
att(2250,301).
att(1802,1955).
att(2142,1086).
att(1808,1789).
att(2244,2192).
att(1811,1840).
att(1808,1850).
att(1782,1815).
att(2247,2201).
att(1358,1143).
att(1358,1118).
att(1805,1841).
att(2248,2063).
att(1330,931).
att(1355,1168).
att(2036,152).
att(2285,1912).
att(1781,1843).
att(2134,273).
att(1363,1764).
att(2286,1881).
att(1866,151).
att(1803,1934).
att(1357,1148).
att(2276,361).
att(1809,1845).
att(1867,152).
att(2284,1916).
att(2044,1).
att(2276,354).
att(1361,944).
att(1780,1823).
att(2020,3).
att(2045,21).
att(2279,441).
att(2134,289).
att(2239,2062).
att(2045,60).
att(2148,271).
att(1331,997).
att(1811,1872).
att(2037,189).
att(1809,1875).
att(1337,1067).
att(2140,97).
att(1806,1868).
att(2248,2097).
att(2115,1117).
att(1355,1177).
att(2148,305).
att(2240,2085).
att(2143,93).
att(1352,1116).
att(1360,981).
att(2119,1134).
att(1808,1837).
att(2140,145).
att(1780,1837).
att(2020,11).
att(2248,2136).
att(2281,481).
att(2150,105).
att(2285,464).
att(1334,997).
att(2120,1117).
att(2142,97).
att(2117,1142).
att(2021,46).
att(2257,138).
att(2250,190).
att(1811,1940).
att(2044,78).
att(1784,1799).
att(1786,1785).
att(2255,162).
att(2256,199).
att(2020,76).
att(2257,162).
att(1332,993).
att(2222,1887).
att(1332,997).
att(2223,1891).
att(2224,1919).
att(2223,1881).
att(1798,1785).
att(2250,1105).
att(1330,1071).
att(2217,324).
att(2221,1951).
att(2257,194).
att(1336,1089).
att(1782,1938).
att(1361,1112).
att(1794,1838).
att(2260,306).
att(1333,1073).
att(1333,1074).
att(2020,151).
att(1781,2003).
att(2224,1915).
att(2261,267).
att(1334,1148).
att(2217,329).
att(1792,1813).
att(1807,1911).
att(1808,1932).
att(2218,359).
att(1784,1822).
att(1782,1956).
att(1794,1813).
att(2226,1916).
att(1337,1089).
att(1337,1073).
att(1361,1151).
att(1334,1091).
att(2016,78).
att(2220,444).
att(1788,1826).
att(2256,1099).
att(1781,1936).
att(2020,70).
att(2254,269).
att(2251,301).
att(1331,1112).
att(1331,1113).
att(1792,1901).
att(2026,20).
att(2215,1951).
att(2211,1945).
att(2024,12).
att(1409,1460).
att(2252,289).
att(1338,1054).
att(1338,1067).
att(1540,1021).
att(2210,469).
att(2250,110).
att(2140,1123).
att(2147,1103).
att(1540,1025).
att(2217,1916).
att(1544,998).
att(2148,1097).
att(1360,1138).
att(2258,271).
att(1332,1089).
att(1361,1138).
att(2255,273).
att(2255,271).
att(1336,1116).
att(1988,41).
att(1989,28).
att(2210,468).
att(2254,110).
att(2016,153).
att(1541,1070).
att(1788,1877).
att(2143,1149).
att(2255,295).
att(2023,82).
att(1988,44).
att(1338,1110).
att(2209,489).
att(1882,641).
att(2145,1149).
att(2253,146).
att(1541,1000).
att(1990,16).
att(2148,1163).
att(1886,593).
att(1340,1069).
att(1414,1464).
att(2018,107).
att(2211,481).
att(1886,590).
att(2215,464).
att(2212,507).
att(1989,54).
att(1989,57).
att(1338,1033).
att(1989,56).
att(1544,1066).
att(1888,651).
att(2249,162).
att(1298,1759).
att(2217,467).
att(1778,1281).
att(2223,1573).
att(1429,1762).
att(1775,1279).
att(1892,30).
att(2228,1599).
att(1775,1278).
att(2221,1578).
att(2265,1403).
att(2257,2083).
att(1988,1842).
att(2225,1729).
att(1784,1501).
att(1427,1761).
att(1428,1760).
att(1769,1396).
att(1987,1849).
att(1879,5).
att(2264,1403).
att(1788,1424).
att(1990,1816).
att(1796,1372).
att(1892,2).
att(2265,2157).
att(2259,2181).
att(2022,2001).
att(1986,1823).
att(1988,1850).
att(2024,1834).
att(1404,930).
att(2267,2158).
att(1987,1908).
att(1773,1325).
att(1798,1567).
att(2262,2177).
att(1407,1064).
att(1988,1870).
att(1772,1304).
att(1999,1783).
att(1769,1431).
att(2025,1869).
att(1400,1018).
att(2025,1908).
att(2224,1637).
att(2231,1661).
att(1425,1765).
att(1892,18).
att(1986,1834).
att(2236,1664).
att(1769,1501).
att(1784,1431).
att(1777,1321).
att(2226,1637).
att(1779,1308).
att(1878,41).
att(2234,1701).
att(1987,1838).
att(2260,2200).
att(2261,2206).
att(1989,1907).
att(2253,2193).
att(1882,82).
att(2253,2189).
att(1966,1783).
att(2214,1640).
att(1966,1785).
att(2218,1618).
att(1778,1350).
att(1771,1364).
att(1775,1350).
att(2222,1666).
att(2218,1610).
att(2255,2182).
att(1964,1824).
att(1407,1111).
att(1776,1423).
att(1409,1091).
att(1888,64).
att(1880,77).
att(1779,1428).
att(2217,1619).
att(1399,1049).
att(1777,1370).
att(1987,1875).
att(1992,1789).
att(1884,57).
att(1890,48).
att(1992,1787).
att(1991,1868).
att(2218,1635).
att(2214,1738).
att(2211,1743).
att(2252,2069).
att(1993,1825).
att(1779,1347).
att(1987,1872).
att(2216,1738).
att(2223,1692).
att(2228,1732).
att(2257,2207).
att(1882,153).
att(2259,1418).
att(1775,1390).
att(2225,1698).
att(1412,1151).
att(1858,42).
att(1380,936).
att(1992,1840).
att(2252,2085).
att(1414,1112).
att(1772,1392).
att(2223,1714).
att(1962,1814).
att(1862,3).
att(1888,120).
att(1778,1425).
att(2228,1579).
att(2228,1574).
att(1412,1091).
att(2221,1734).
att(1884,82).
att(1771,1429).
att(1993,1845).
att(1387,942).
att(1414,1169).
att(1381,938).
att(1993,1850).
att(2267,1378).
att(1401,1108).
att(2264,1419).
att(1779,1398).
att(1779,1537).
att(1994,1905).
att(2272,2176).
att(2276,2161).
att(1862,20).
att(1385,994).
att(1385,1000).
att(2273,2161).
att(2109,1898).
att(1771,1497).
att(1860,53).
att(1772,1463).
att(1854,13).
att(1381,1064).
att(1779,1567).
att(1852,28).
att(1768,1502).
att(1373,1018).
att(2271,2172).
att(1777,1501).
att(1409,1175).
att(1882,120).
att(1995,1835).
att(2247,1669).
att(1400,1170).
att(1856,6).
att(1778,1503).
att(1778,1501).
att(2235,1595).
att(2109,1921).
att(2238,1640).
att(2268,2139).
att(1992,1903).
att(1852,21).
att(1878,148).
att(1964,1838).
att(2118,1893).
att(1377,1050).
att(1773,1555).
att(2119,1922).
att(1374,1069).
att(2247,1688).
att(2248,1694).
att(2276,2189).
att(2237,1743).
att(1347,1762).
att(2120,1893).
att(1963,1956).
att(2121,1920).
att(1860,75).
att(1962,1869).
att(1962,1872).
att(1345,1760).
att(1970,1787).
att(1373,1069).
att(1374,995).
att(1994,1872).
att(1399,1172).
att(2244,1692).
att(1399,1178).
att(2242,1716).
att(1864,62).
att(1406,1180).
att(2238,1753).
att(1968,1795).
att(1992,1961).
att(2120,1915).
att(2245,1688).
att(2243,1716).
att(1853,60).
att(2277,2201).
att(1349,1758).
att(1373,995).
att(1964,1877).
att(2118,1951).
att(2271,2066).
att(1375,1051).
att(2244,1693).
att(1374,1111).
att(1864,71).
att(2228,1751).
att(1968,1846).
att(2221,1748).
att(2229,1712).
att(2262,2063).
att(2229,1714).
att(1853,63).
att(1381,1170).
att(2233,1698).
att(1853,71).
att(1962,1934).
att(1964,2013).
att(1862,74).
att(1994,1932).
att(1965,1956).
att(1965,1961).
att(1967,1823).
att(2227,1742).
att(2231,1710).
att(1387,1107).
att(2225,1747).
att(2232,1713).
att(2238,1571).
att(2274,1388).
att(2236,1709).
att(2229,1724).
att(1375,1095).
att(1973,1819).
att(1375,1120).
att(1856,148).
att(2235,1735).
att(2036,21).
att(1864,122).
att(1355,1020).
att(2041,11).
att(1356,995).
att(1857,121).
att(1853,117).
att(1352,1029).
att(1860,218).
att(1357,997).
att(1381,1176).
att(1389,996).
att(2260,2102).
att(1962,2007).
att(1970,1847).
att(1379,1090).
att(2040,6).
att(2278,2166).
att(2041,26).
att(1968,1833).
att(1858,113).
att(1357,1017).
att(2037,1).
att(2041,36).
att(1353,934).
att(2042,1827).
att(1973,1426).
att(2118,504).
att(1969,1348).
att(2287,2181).
att(2149,1861).
att(2149,1855).
att(1970,1349).
att(2106,329).
att(2119,503).
att(1864,2007).
att(2284,2189).
att(1967,1422).
att(2036,1826).
att(2279,2206).
att(2140,1914).
att(2282,2195).
att(2246,1739).
att(2121,505).
att(2121,507).
att(1854,1930).
att(1866,1830).
att(2145,1921).
att(1864,1961).
att(1857,1960).
att(2279,2068).
att(1853,1955).
att(2041,1825).
att(2117,361).
att(2282,2204).
att(2286,2204).
att(1969,1391).
att(2038,1815).
att(2137,447).
att(2247,1752).
att(2212,1376).
att(2284,2062).
att(2242,1755).
att(2036,1847).
att(2279,2081).
att(2245,1739).
att(2279,2077).
att(1973,1395).
att(2244,1752).
att(1804,1345).
att(1864,2003).
att(2213,1416).
att(2147,441).
att(2150,1948).
att(2275,2060).
att(2280,1378).
att(1782,1285).
att(2277,2206).
att(2248,1729).
att(1430,1758).
att(2282,1416).
att(2239,1734).
att(2236,1756).
att(2245,1706).
att(2279,1403).
att(2121,1949).
att(1802,1461).
att(2111,464).
att(1969,1503).
att(2284,1386).
att(2246,1599).
att(2242,1577).
att(2277,2087).
att(1801,1498).
att(1801,1496).
att(2246,1596).
att(2270,2136).
att(2041,1910).
att(1811,1347).
att(1811,1345).
att(2272,2133).
att(1803,1565).
att(2276,2102).
att(2245,1580).
att(2273,2139).
att(2245,1571).
att(2282,2163).
att(2045,1825).
att(1811,1366).
att(1969,1539).
att(1805,1300).
att(2280,2175).
att(2241,1596).
att(2106,507).
att(2115,489).
att(2281,2181).
att(1781,1289).
att(2020,1785).
att(2036,1868).
att(1781,1294).
att(2134,1893).
att(1802,1557).
att(1810,1396).
att(2045,1851).
att(1808,1428).
att(1782,1347).
att(2044,1845).
att(1394,1765).
att(1782,1349).
att(2016,1824).
att(2212,2064).
att(2252,1944).
att(1780,1426).
att(2209,2061).
att(1807,1421).
att(2142,361).
att(1866,2003).
att(2150,353).
att(2254,447).
att(1866,2007).
att(1809,1420).
att(2043,1932).
att(2149,353).
att(2255,1918).
att(2043,1940).
att(2212,2083).
att(2213,2068).
att(2253,447).
att(2250,469).
att(2228,1416).
att(1395,1764).
att(2257,1949).
att(2214,2085).
att(2250,459).
att(2258,1946).
att(1811,1432).
att(2019,1835).
att(2018,1849).
att(2219,1416).
att(2219,2166).
att(2219,2165).
att(2209,2108).
att(2253,439).
att(1810,1500).
att(2021,1848).
att(2218,2088).
att(2254,467).
att(2018,1812).
att(2022,1843).
att(1794,1283).
att(2226,1419).
att(2226,1384).
att(2219,2183).
att(1806,1501).
att(2142,463).
att(2218,1382).
att(2286,2083).
att(2215,1418).
att(2215,1388).
att(2280,2105).
att(2216,1415).
att(1786,1362).
att(2018,1876).
att(1988,1799).
att(1782,1537).
att(2018,1875).
att(2288,2087).
att(1798,1296).
att(2021,1901).
att(2022,1901).
att(1811,1563).
att(2021,1908).
att(2024,1799).
att(2145,481).
att(1796,1300).
att(2217,2166).
att(1790,1343).
att(2143,509).
att(1790,1341).
att(2211,2180).
att(2218,2162).
att(2045,1983).
att(2287,2144).
att(2023,1812).
att(1794,1420).
att(1792,1372).
att(1988,1819).
att(2140,331).
att(1888,7).
att(1987,1824).
att(2145,503).
att(2216,2172).
att(2249,1887).
att(2020,2005).
att(2288,2139).
att(2214,2179).
att(1770,1348).
att(1790,1369).
att(2211,2196).
att(2211,2190).
att(1792,1346).
att(2023,1827).
att(2215,2181).
att(1792,1344).
att(2044,1930).
att(1782,1567).
att(1769,1362).
att(1770,1364).
att(1794,1429).
att(2256,1893).
att(1987,1791).
att(2134,361).
att(2213,2193).
att(2213,2188).
att(2254,1922).
att(1400,284).
att(1385,123).
att(1771,706).
att(1518,2053).
att(1768,704).
att(1273,1675).
att(1776,744).
att(1779,739).
att(1773,712).
att(1404,285).
att(1775,707).
att(1541,2104).
att(1779,697).
att(1273,1611).
att(1244,1570).
att(1274,1611).
att(1267,1632).
att(1550,1972).
att(1777,732).
att(1412,429).
att(1271,1704).
att(1387,183).
att(1277,1651).
att(1273,1720).
att(1375,187).
att(1377,181).
att(1508,2028).
att(1516,2049).
att(1385,215).
att(2277,1760).
att(1380,205).
att(1771,744).
att(1776,729).
att(1274,1673).
att(1383,184).
att(1506,2048).
att(1401,351).
att(1404,342).
att(1508,2074).
att(1374,254).
att(1246,1721).
att(1551,2154).
att(1520,1925).
att(2273,1765).
att(1380,251).
att(1518,2071).
att(1551,2153).
att(1479,1939).
att(1547,2101).
att(1383,313).
att(1244,1726).
att(1550,2071).
att(1385,256).
att(1516,2093).
att(1269,1650).
att(1385,259).
att(1778,804).
att(1380,178).
att(2270,1764).
att(1512,2075).
att(1265,1719).
att(1768,719).
att(1373,183).
att(1383,238).
att(1383,236).
att(1374,287).
att(1387,347).
att(1527,2055).
att(1483,1939).
att(1520,2004).
att(1522,1972).
att(1518,2104).
att(1506,2155).
att(1373,233).
att(1475,1933).
att(1506,2128).
att(1506,2130).
att(1512,2104).
att(1389,187).
att(1479,2030).
att(1520,2093).
att(1389,179).
att(1351,111).
att(1383,321).
att(1359,99).
att(1359,116).
att(1475,1977).
att(1527,2131).
att(1525,2075).
att(1485,2094).
att(1359,260).
att(2267,1758).
att(1485,2056).
att(1479,2073).
att(2267,1764).
att(1494,1923).
att(1481,2072).
att(1495,1926).
att(2264,1762).
att(1358,178).
att(1475,2032).
att(1527,2058).
att(1374,322).
att(1355,203).
att(1359,184).
att(2262,1766).
att(1387,427).
att(1385,400).
att(1353,316).
att(1491,2002).
att(1389,285).
att(1351,233).
att(1481,2098).
att(1494,1979).
att(2261,1763).
att(1389,284).
att(1495,1981).
att(1483,2151).
att(1567,1767).
att(1354,239).
att(1525,2168).
att(1491,1996).
att(1475,2075).
att(1524,2151).
att(1389,314).
att(1539,1763).
att(1485,2130).
att(1489,2000).
att(1494,1998).
att(1495,2030).
att(1389,344).
att(1475,2169).
att(1492,2047).
att(1351,285).
att(1357,327).
att(1483,2186).
att(1359,376).
att(1352,377).
att(1352,374).
att(1357,352).
att(1525,2187).
att(1485,2167).
att(1352,280).
att(1555,1764).
att(1360,108).
att(1494,1570).
att(1353,2130).
att(2224,1767).
att(1442,1526).
att(1440,1534).
att(1354,2070).
att(1334,1996).
att(1359,2107).
att(1357,2125).
att(1335,2008).
att(1361,1929).
att(1483,1651).
att(1970,803).
att(1524,1725).
att(1483,1656).
att(1525,1720).
att(1781,619).
att(1357,2151).
att(1802,796).
att(1491,1645).
att(1336,1980).
att(1782,664).
att(1442,1582).
att(1442,1587).
att(2117,2120).
att(1807,670).
att(1808,658).
att(2113,2145).
att(2106,2148).
att(1354,2131).
att(2115,2118).
att(1442,1584).
att(1806,708).
att(1359,2169).
att(2106,2249).
att(1330,1998).
att(1806,706).
att(1781,667).
att(1487,1628).
att(1491,1704).
att(1453,1556).
att(1805,736).
att(1332,2053).
att(1495,1649).
att(1794,649).
att(1780,696).
att(1770,593).
att(1487,1672).
att(1806,725).
att(1796,645).
att(1335,2090).
att(1438,1705).
att(1335,2014).
att(1361,2029).
att(1351,2186).
att(1495,1702).
att(1491,1611).
att(1794,590).
att(1805,701).
att(1453,1466).
att(1492,1612).
att(1780,698).
att(1798,593).
att(1331,2051).
att(1798,691).
att(1331,2056).
att(1448,1532).
att(1338,1924).
att(1332,2089).
att(1337,2075).
att(1770,617).
att(1781,798).
att(1494,1717).
att(1457,1533).
att(1808,725).
att(1336,2092).
att(1794,621).
att(1338,1937).
att(1489,1736).
att(1489,1719).
att(1448,1582).
att(1340,1975).
att(2118,2281).
att(1542,1923).
att(2119,2284).
att(1786,656).
att(2113,2220).
att(1794,698).
att(1786,713).
att(1456,1642).
att(1260,1588).
att(1788,692).
att(1335,2104).
att(1798,670).
att(1360,2122).
att(1336,2131).
att(1453,1583).
att(1338,2006).
att(2113,2219).
att(1260,1601).
att(1778,594).
att(1796,742).
att(2109,2246).
att(1775,591).
att(1260,1616).
att(1273,1458).
att(2113,2232).
att(2137,2143).
att(1777,593).
att(2147,2148).
att(1276,1464).
att(2109,2247).
att(1331,2187).
att(1798,695).
att(1412,118).
att(2142,2252).
att(1545,1981).
att(2140,2265).
att(1258,1633).
att(1444,1608).
att(2115,2239).
att(2134,2266).
att(1456,1717).
att(1448,1656).
att(1772,608).
att(1769,737).
att(2120,2150).
att(1407,260).
att(1263,1648).
att(1401,181).
att(1779,689).
att(1399,179).
att(1246,1553).
att(1267,1535).
att(1246,1562).
att(1276,1564).
att(1412,180).
att(1412,183).
att(2119,2255).
att(1457,1650).
att(1407,204).
att(1786,719).
att(1401,207).
att(1453,1717).
att(1246,1452).
att(1779,629).
att(1542,2015).
att(1773,597).
att(1404,181).
att(2118,2264).
att(2118,2261).
att(1273,1582).
att(1771,669).
att(1546,2098).
att(1779,710).
att(2120,2262).
att(1540,2131).
att(1276,1583).
att(2121,2265).
att(1544,2131).
att(1277,1601).
att(1277,1607).
att(1545,2072).
att(1547,1923).
att(1273,1570).
att(1776,671).
att(1274,1581).
att(1274,1586).
att(1402,238).
att(1990,736).
att(1775,46).
att(1551,1556).
att(1545,1653).
att(1988,729).
att(1340,1721).
att(2024,798).
att(1540,1705).
att(2024,807).
att(1244,1051).
att(1768,60).
att(1399,2027).
att(1404,2032).
att(1269,999).
att(1990,703).
att(2023,735).
att(1776,55).
att(1991,742).
att(1401,2050).
att(1244,995).
att(1779,43).
att(1993,651).
att(1265,1052).
att(1987,701).
att(1989,744).
att(1516,1531).
att(1774,75).
att(1508,1533).
att(1773,77).
att(1387,1925).
att(2244,1767).
att(1271,1110).
att(1966,628).
att(1991,796).
att(1992,693).
att(1265,1091).
att(1406,2126).
att(1779,150).
att(1965,617).
att(1779,154).
att(1409,2096).
att(1965,615).
att(2240,1765).
att(1778,73).
att(1987,730).
att(2025,807).
att(1269,1047).
att(1771,47).
att(1774,49).
att(1992,611).
att(2248,1763).
att(1775,78).
att(1271,1050).
att(1412,2057).
att(1412,2058).
att(1414,2074).
att(1414,2075).
att(1273,1072).
att(1407,2075).
att(1542,1673).
att(1994,617).
att(1777,74).
att(1543,1736).
att(1244,1032).
att(1773,47).
att(1508,1558).
att(1989,803).
att(1514,1632).
att(1995,708).
att(1404,2174).
att(1379,2000).
att(1775,113).
att(1551,1632).
att(1992,703).
att(1518,1632).
att(1964,704).
att(1551,1616).
att(1999,697).
att(1267,1139).
att(1506,1586).
att(1267,1114).
att(1514,1646).
att(1999,700).
att(1276,1144).
att(1379,1925).
att(1966,685).
att(1412,2096).
att(1381,1978).
att(1271,1141).
att(1992,709).
att(1518,1568).
att(1265,1146).
att(1506,1606).
att(1777,147).
att(1244,1078).
att(1992,736).
att(1381,2091).
att(1479,1466).
att(1383,2091).
att(1993,731).
att(1777,216).
att(1773,113).
att(1516,1647).
att(1966,707).
att(1269,1116).
att(1271,1171).
att(1520,1458).
att(1772,210).
att(1518,1616).
att(1963,702).
att(1265,1171).
att(1527,1452).
att(1401,2168).
att(1962,709).
att(1377,2074).
att(1970,621).
att(1374,2078).
att(1966,727).
att(2236,1759).
att(1485,1533).
att(1801,619).
att(1380,2072).
att(1964,791).
att(1964,800).
att(2233,1761).
att(1970,615).
att(1804,630).
att(1508,1705).
att(1514,1648).
att(1804,597).
att(1970,651).
att(1374,2014).
att(1518,1704).
att(2229,1760).
att(1479,1556).
att(1380,2092).
att(1969,637).
att(1383,2070).
att(2230,1763).
att(1974,705).
att(1353,2012).
att(1359,1997).
att(1483,1604).
att(1525,1570).
att(1968,707).
att(1962,805).
att(1804,628).
att(1379,2073).
att(1802,693).
att(1522,1569).
att(1969,689).
att(1483,1645).
att(1524,1616).
att(1524,1608).
att(1970,703).
att(1968,740).
att(1973,741).
att(1385,2187).
att(1380,2174).
att(1522,1611).
att(1351,2029).
att(1973,777).
att(1440,1462).
att(1527,1717).
att(1808,651).
att(1782,595).
att(1806,608).
att(1805,643).
att(1354,2076).
att(1485,1650).
att(1810,615).
att(1802,727).
att(1357,2074).
att(1811,645).
att(1351,2049).
att(1524,1703).
att(1809,651).
att(1804,699).
att(1522,1672).
att(1351,1583).
att(1809,14).
att(1782,9).
att(1780,6).
att(1780,7).
att(1487,993).
att(1354,1628).
att(1352,1645).
att(1866,710).
att(1357,1633).
att(1808,9).
att(1524,1141).
att(1492,936).
att(1781,1).
att(1485,1141).
att(2041,708).
att(1810,39).
att(2036,670).
att(2037,669).
att(1483,1174).
att(1495,1032).
att(2039,739).
att(1330,1455).
att(1780,61).
att(2017,592).
att(1333,1466).
att(1355,1677).
att(2041,727).
att(1810,46).
att(1810,52).
att(1782,30).
att(2042,701).
att(1809,57).
att(1361,1458).
att(1475,1120).
att(1442,997).
att(2040,735).
att(1804,189).
att(1489,1069).
att(2036,698).
att(2045,592).
att(1335,1460).
att(1811,54).
att(1360,1464).
att(1352,1726).
att(1438,1093).
att(2037,777).
att(1353,1717).
att(1782,44).
att(1809,72).
att(2018,643).
att(2038,731).
att(1780,43).
att(1495,1077).
att(1442,1108).
att(1442,1094).
att(1354,1721).
att(1810,64).
att(1436,1108).
att(2036,804).
att(2017,629).
att(1440,1066).
att(1782,58).
att(1358,1673).
att(1782,56).
att(1782,62).
att(1351,1683).
att(1354,1704).
att(1333,1462).
att(1354,1678).
att(1356,1737).
att(1489,1108).
att(1335,1534).
att(2022,666).
att(1494,1118).
att(1494,1116).
att(1796,32).
att(1438,1170).
att(1438,1073).
att(1335,1570).
att(1336,1601).
att(1440,1107).
att(2046,669).
att(1361,1587).
att(1351,1723).
att(1805,154).
att(1492,1151).
att(1780,70).
att(1330,1605).
att(1807,65).
att(2023,632).
att(1438,1177).
att(1784,13).
att(1808,208).
att(1457,1052).
att(1338,1462).
att(1337,1702).
att(1786,56).
att(1338,1560).
att(1333,1612).
att(1543,1468).
att(1330,1624).
att(1336,1642).
att(1491,1112).
att(1336,1630).
att(1332,1586).
att(1794,17).
att(1332,1570).
att(1491,1116).
att(2018,672).
att(1769,42).
att(1780,119).
att(2024,595).
att(1780,121).
att(1337,1616).
att(1545,1559).
att(1331,1673).
att(2026,629).
att(2046,805).
att(1338,1526).
att(1546,1564).
att(1450,1034).
att(2016,729).
att(1258,1034).
att(1333,1653).
att(1331,1678).
att(2022,737).
att(1340,1556).
att(1453,1046).
att(2023,651).
att(1361,1673).
att(1457,1032).
att(1336,1675).
att(1546,1470).
att(2044,804).
att(1543,1554).
att(2019,732).
att(2025,639).
att(2016,742).
att(1260,1068).
att(2025,670).
att(1541,1607).
att(1778,6).
att(1541,1604).
att(1400,1937).
att(1776,3).
att(1453,1169).
att(1542,1530).
att(1414,2012).
att(1409,1971).
att(1986,678).
att(1988,670).
att(1274,1027).
att(1543,1587).
att(1407,2008).
att(1339,1602).
att(1798,67).
att(1991,621).
att(1542,1552).
att(1988,621).
att(1542,1559).
att(1544,1603).
att(1330,1737).
att(1770,81).
att(1788,73).
att(2025,700).
att(1771,32).
att(1277,998).
att(1545,1646).
att(1339,1616).
att(1779,58).
att(1273,1052).
att(1784,189).
att(1409,2031).
att(1543,1616).
att(1276,1025).
att(1276,1027).
att(1260,1146).
att(2026,713).
att(1340,1645).
att(1274,996).
att(1792,188).
att(1267,1021).
att(1794,213).
att(1794,189).
att(1258,1141).
att(1786,121).
att(1990,658).
att(1514,949).
att(1374,1369).
att(1524,726).
att(1374,1367).
att(2142,541).
att(1551,974).
att(1271,424).
att(1387,1344).
att(1520,806).
att(2255,386).
att(1244,402).
att(1246,429).
att(2257,393).
att(1271,412).
att(1381,1345).
att(1383,1344).
att(1508,941).
att(1524,775).
att(1385,1398).
att(2214,2224).
att(1379,1426).
att(1387,1473).
att(1389,1283).
att(1508,935).
att(1524,795).
att(1379,1343).
att(2214,2233).
att(1387,1396).
att(2255,576).
att(1506,976).
att(2279,2239).
att(1379,1498).
att(2287,2225).
att(1385,1430).
att(2143,570).
att(1380,1467).
att(1358,1282).
att(2285,2246).
att(2286,2235).
att(1359,1283).
att(2148,574).
att(1520,842).
att(2280,2245).
att(1485,776).
att(1479,840).
att(2145,589).
att(2284,2245).
att(1522,824).
att(1475,769).
att(1373,1390).
att(1481,844).
att(2288,2236).
att(2249,332).
att(2250,337).
att(1524,873).
att(1475,874).
att(2148,584).
att(2286,2247).
att(1359,1367).
att(1489,728).
att(1373,1567).
att(1522,950).
att(1358,1365).
att(2253,336).
att(2257,337).
att(1377,1537).
att(2148,602).
att(2143,521).
att(2251,383).
att(2252,393).
att(2256,369).
att(1357,1370).
att(1524,901).
att(1358,1421).
att(1491,797).
att(1495,767).
att(1351,1349).
att(1483,973).
att(1525,937).
att(2268,393).
att(2228,2224).
att(1359,1372).
att(1357,1393).
att(1494,773).
att(1475,973).
att(2267,410).
att(2260,573).
att(1483,869).
att(2224,2227).
att(1358,1346).
att(2259,574).
att(1359,1427).
att(2266,560).
att(1353,1346).
att(1495,794).
att(2260,575).
att(1495,819).
att(1495,821).
att(1483,1019).
att(2224,2230).
att(1337,1285).
att(1436,768).
att(1442,775).
att(1334,1329).
att(2225,2231).
att(2262,580).
att(1494,822).
att(2219,2243).
att(1352,1472).
att(1524,1019).
att(1355,1420).
att(1355,1396).
att(2263,606).
att(2263,607).
att(2271,341).
att(1357,1498).
att(1360,1279).
att(2263,598).
att(2253,587).
att(2250,605).
att(2253,581).
att(2254,589).
att(1361,1369).
att(2254,585).
att(1354,1467).
att(2211,2243).
att(2251,600).
att(1351,1499).
att(2264,326).
att(2265,341).
att(1336,1317).
att(2217,2240).
att(2250,517).
att(1487,819).
att(2258,586).
att(2254,598).
att(1330,1321).
att(1436,821).
att(2267,336).
att(1489,905).
att(1356,1537).
att(1336,1313).
att(2249,540).
att(2257,604).
att(1450,724).
att(1453,790).
att(1334,1428).
att(1448,720).
att(1456,806).
att(1332,1300).
att(2261,421).
att(1453,718).
att(2268,364).
att(1487,979).
att(2111,984).
att(1457,202).
att(1360,898).
att(1457,211).
att(1336,826).
att(2237,2235).
att(2269,578).
att(1492,373).
att(2106,991).
att(2276,563).
att(1442,280).
att(2269,581).
att(2273,574).
att(1333,822).
att(1487,344).
att(1330,823).
att(434,1293).
att(1330,821).
att(1436,349).
att(2111,990).
att(1491,280).
att(1331,849).
att(2118,989).
att(1360,828).
att(1361,819).
att(1453,99).
att(2237,2244).
att(2106,1012).
att(1333,768).
att(2281,332).
att(1333,847).
att(2109,1039).
att(1335,823).
att(2111,1016).
att(1331,843).
att(1340,714).
att(1340,722).
att(2234,2241).
att(1338,718).
att(2281,341).
att(1336,850).
att(2269,521).
att(2235,2244).
att(2279,370).
att(1334,979).
att(2109,1058).
att(2109,1056).
att(2236,2240).
att(1360,867).
att(1489,412).
att(2271,525).
att(1440,373).
att(2118,1039).
att(1494,415).
att(2272,525).
att(2113,1057).
att(1450,217).
att(2277,606).
att(2117,1063).
att(1333,874).
att(1489,429).
att(1456,316).
att(2272,366).
att(1448,236).
att(1545,795).
att(1450,239).
att(1337,945).
att(2259,524).
att(1338,849).
att(2274,367).
att(1541,786).
att(2263,528).
att(2266,600).
att(1338,794).
att(1338,801).
att(1444,254).
att(2274,397).
att(2266,528).
att(1334,947).
att(2266,535).
att(2263,540).
att(2272,423).
att(1340,819).
att(2106,1133).
att(1332,1026).
att(1542,768).
att(2269,560).
att(2274,422).
att(1453,319).
att(2274,423).
att(2117,1125).
att(1545,772).
att(2113,1162).
att(2276,421).
att(1542,792).
att(1546,776).
att(2115,1133).
att(1543,846).
att(2121,1135).
att(2278,421).
att(2121,1132).
att(1541,767).
att(1541,768).
att(1448,313).
att(1448,346).
att(2143,1016).
att(1412,1371).
att(2148,982).
att(1457,424).
att(1546,901).
att(2137,1015).
att(2287,573).
att(2149,983).
att(1543,866).
att(1246,209).
att(2288,574).
att(1277,180).
att(1541,898).
att(2148,1014).
att(2214,338).
att(2288,580).
att(1277,211).
att(2286,584).
att(1414,1294).
att(2280,607).
att(2137,1041).
att(1267,203).
att(2140,1063).
att(1244,123).
att(1402,1302).
att(1260,373).
att(2134,1060).
att(1541,821).
att(2150,1011).
att(2142,1060).
att(2279,540).
att(2288,598).
att(1541,976).
att(2143,1063).
att(2137,1062).
att(1548,786).
att(2212,368).
att(1542,974).
att(2209,395).
att(2209,390).
att(2140,1184).
att(2285,523).
att(2279,545).
att(2210,390).
att(2214,390).
att(2283,541).
att(2149,1062).
att(1546,873).
att(1263,424).
att(1548,793).
att(1548,794).
att(2145,1190).
att(1548,806).
att(1404,1341).
att(2249,1129).
att(1258,415).
att(1404,1473).
att(1414,1498).
att(2276,527).
att(1277,263).
att(2113,1183).
att(1518,776).
att(1265,279).
att(1407,1502).
att(1244,310).
att(2285,392).
att(2120,1060).
att(2134,1132).
att(1540,1026).
att(2282,393).
att(1246,311).
att(2279,416).
att(1550,840).
att(2271,547).
att(1400,1425).
att(2111,1197).
att(2287,396).
att(1404,1372).
att(2118,1188).
att(1412,1391).
att(1545,907).
att(1542,943).
att(1540,937).
att(2120,1187).
att(2277,543).
att(2279,564).
att(2282,560).
att(2283,565).
att(1276,327).
att(1277,345).
att(1551,901).
att(1271,377).
att(2145,1135).
att(1414,1557).
att(1414,1567).
att(1407,1555).
att(2113,1220).
att(2281,575).
att(2150,1166).
att(1244,375).
att(2281,571).
att(2285,564).
att(1514,901).
att(1274,402).
att(1374,1323).
att(2121,1198).
att(1412,1461).
att(2283,572).
att(2145,1164).
att(2149,1150).
att(1518,825).
att(2140,1016).
att(1414,1563).
att(2119,1214).
att(1383,1298).
att(1401,1496).
att(1377,1321).
att(1373,1281).
att(1508,840).
att(2117,1219).
att(1244,262).
att(1402,1465).
att(2288,561).
att(1276,377).
att(2113,1760).
att(1550,286).
att(2142,2228).
att(1387,772).
att(1406,1003).
att(1265,2123).
att(1512,312).
att(1518,287).
att(1244,2155).
att(1512,316).
att(1385,770).
att(2147,2224).
att(1516,251).
att(2143,2235).
att(1551,238).
att(1407,937).
att(1414,1002).
att(1373,722).
att(1399,977).
att(2250,2264).
att(1516,280).
att(1481,108).
att(1514,373).
att(2147,2243).
att(1506,262).
att(1399,1001).
att(1271,2124).
att(1273,2186).
att(1271,2174).
att(2252,2273).
att(2249,2278).
att(1548,351).
att(1508,310).
att(2256,2259).
att(2134,2272).
att(1377,850).
att(1377,851).
att(1485,202).
att(1387,868).
att(2149,2253).
att(1387,976).
att(1387,950).
att(1475,202).
att(2147,2259).
att(1527,186).
att(1514,327).
att(1550,345).
att(1385,898).
att(2143,2275).
att(1550,319).
att(1551,346).
att(1380,905).
att(1381,870).
att(1514,342).
att(1389,771).
att(1387,1002).
att(1520,286).
att(1373,978).
att(1508,427).
att(1374,873).
att(1525,253).
att(1356,718).
att(1520,219).
att(1506,429).
att(1353,716).
att(1375,977).
att(1381,908).
att(2140,2219).
att(2252,2248).
att(1527,352).
att(2256,2238).
att(1354,772).
att(2254,2235).
att(1494,116).
att(1389,819).
att(2257,2230).
att(1387,1028).
att(1385,1001).
att(2255,2243).
att(2263,2265).
att(1352,775).
att(1475,234).
att(1358,898).
att(1359,894).
att(1359,900).
att(1525,412).
att(1436,217).
att(1522,429).
att(1440,111).
att(1481,344).
att(1524,374).
att(1358,827).
att(2265,2274).
att(2262,2280).
att(1489,211).
att(1479,352).
att(1353,823).
att(2263,2281).
att(1481,377).
att(1491,255).
att(1337,714).
att(1440,182).
att(1440,185).
att(1358,978).
att(1334,714).
att(1358,949).
att(2254,2270).
att(2251,2276).
att(2258,2260).
att(2255,2273).
att(1356,941).
att(1360,792).
att(1360,726).
att(1389,973).
att(1440,205).
att(2250,2213).
att(1361,722).
att(1358,872).
att(2250,2211).
att(1485,342).
att(1485,412).
att(2256,2288).
att(1489,260).
att(1494,256).
att(1360,844).
att(1495,280).
att(1440,232).
att(2258,2287).
att(2251,2217).
att(1487,312).
att(1330,769).
att(1335,842).
att(1352,1002).
att(2249,2225).
att(1352,906).
att(1354,974).
att(1389,1001).
att(1333,716).
att(1334,792).
att(1359,945).
att(1333,797).
att(1356,1019).
att(1438,233).
att(1336,794).
att(1353,935).
att(1331,797).
att(1494,310).
att(2264,2243).
att(1495,2075).
att(1332,217).
att(2265,2244).
att(2270,2272).
att(1357,412).
att(2272,2273).
att(2272,2271).
att(1351,351).
att(2269,2271).
att(1334,203).
att(1358,318).
att(2269,2280).
att(1333,217).
att(2256,1760).
att(1330,215).
att(2253,1758).
att(1331,207).
att(2271,2282).
att(2251,1758).
att(2254,1765).
att(1336,232).
att(1337,234).
att(1361,314).
att(2252,1758).
att(2273,2285).
att(1330,235).
att(2274,2287).
att(1446,2002).
att(2270,2211).
att(1489,2125).
att(2249,1761).
att(1436,2130).
att(2274,2280).
att(2121,356).
att(2121,388).
att(1351,427).
att(2272,2213).
att(2106,561).
att(2273,2209).
att(2117,421).
att(2270,2228).
att(1438,2075).
att(1335,237).
att(1263,1998).
att(1440,2098).
att(1260,1976).
att(1335,376).
att(1448,2002).
att(1491,2125).
att(2261,2228).
att(1492,2100).
att(2267,2217).
att(1456,1977).
att(2263,2228).
att(1360,429).
att(2260,2232).
att(1360,404).
att(1337,406).
att(2263,2234).
att(1335,322).
att(1541,123).
att(1545,109).
att(2264,2234).
att(1360,343).
att(2264,2237).
att(1332,351).
att(2268,2230).
att(1333,352).
att(1258,2052).
att(1334,343).
att(1334,319).
att(2113,521).
att(1402,715).
att(2106,528).
att(2106,545).
att(2140,394).
att(2140,390).
att(2281,2283).
att(1260,2072).
att(1448,2091).
att(2142,392).
att(1456,2072).
att(2283,2286).
att(2283,2287).
att(2113,547).
att(1444,2091).
att(1263,2093).
att(1333,427).
att(1333,424).
att(2285,2286).
att(2145,383).
att(2115,545).
att(2115,540).
att(1412,841).
att(2120,555).
att(1541,287).
att(1277,1981).
att(2148,388).
att(1277,1980).
att(2137,423).
att(1546,317).
att(1258,2124).
att(1543,262).
att(1456,2124).
att(1414,772).
att(1546,286).
att(1543,315).
att(1446,2123).
att(1269,2049).
att(2111,564).
att(1541,347).
att(1414,900).
att(1414,899).
att(2106,566).
att(1401,819).
att(1407,898).
att(1542,372).
att(1265,2031).
att(1401,827).
att(1402,900).
att(2117,567).
att(2109,573).
att(2117,566).
att(2278,2218).
att(1544,351).
att(1339,377).
att(1541,262).
att(2113,579).
att(2111,571).
att(1277,2053).
att(2106,576).
att(1401,840).
att(1414,902).
att(1409,894).
att(1265,2054).
att(1263,2167).
att(1512,123).
att(1276,2047).
att(2120,560).
att(1269,2095).
att(2275,2236).
att(1516,182).
att(1516,183).
att(2272,2243).
att(2113,588).
att(2118,572).
att(2118,570).
att(1518,181).
att(2276,2232).
att(1265,2091).
att(2106,602).
att(1547,236).
att(1514,251).
att(2273,2248).
att(1540,424).
att(2121,1765).
att(2278,2231).
att(1508,215).
att(1551,178).
att(2119,1760).
att(2143,338).
att(1339,406).
att(1269,2014).
att(1277,2076).
att(1547,182).
att(1274,2075).
att(1414,948).
att(2115,605).
att(1274,2072).
att(2106,517).
att(1402,873).
att(2111,1760).
att(2117,606).
att(1246,2027).
att(1540,345).
att(1246,2031).
att(679,1167).
att(916,416).
att(967,394).
att(247,1777).
att(501,185).
att(231,2022).
att(1948,2078).
att(1949,2090).
att(96,1487).
att(24,1864).
att(248,1772).
att(688,1127).
att(328,429).
att(913,560).
att(22,1882).
att(246,1770).
att(652,987).
att(324,342).
att(94,1512).
att(668,1200).
att(144,1485).
att(679,1156).
att(918,564).
att(325,377).
att(967,408).
att(503,201).
att(509,257).
att(920,567).
att(249,1788).
att(228,1860).
att(683,1156).
att(665,1203).
att(92,1540).
att(1952,1997).
att(1943,2126).
att(1918,1926).
att(668,1206).
att(506,237).
att(89,1543).
att(1948,2126).
att(681,1009).
att(663,1215).
att(1914,1937).
att(681,1007).
att(504,313).
att(969,571).
att(1946,2098).
att(684,991).
att(447,2131).
att(246,1803).
att(509,229).
att(144,1546).
att(230,1880).
att(126,1277).
att(967,570).
att(507,251).
att(1950,1923).
att(686,984).
att(502,181).
att(248,1970).
att(96,1335).
att(220,1987).
att(918,600).
att(1945,2072).
att(957,326).
att(913,601).
att(130,1265).
att(684,1012).
att(92,1361).
att(22,1962).
att(668,989).
att(1943,2187).
att(101,1339).
att(226,1970).
att(489,106).
att(40,1878).
att(1948,2170).
att(291,1336).
att(665,990).
att(1950,2050).
att(633,1043).
att(503,280).
att(503,284).
att(876,599).
att(1951,2047).
att(101,1335).
att(101,1334).
att(225,1995).
att(929,584).
att(501,317).
att(447,2170).
att(290,1373).
att(502,235).
att(657,1040).
att(90,1276).
att(509,284).
att(98,1276).
att(103,1351).
att(1944,2104).
att(922,338).
att(1946,2170).
att(660,1041).
att(661,1044).
att(499,316).
att(877,524).
att(294,1373).
att(230,1995).
att(877,557).
att(489,179).
att(101,1354).
att(1952,2095).
att(96,1271).
att(486,201).
att(969,336).
att(96,1269).
att(291,1383).
att(103,1373).
att(1950,2073).
att(86,1494).
att(665,1057).
att(22,2046).
att(488,202).
att(225,2016).
att(294,1399).
att(488,209).
att(657,1190).
att(916,383).
att(231,1988).
att(969,368).
att(90,1495).
att(654,1132).
att(1915,2030).
att(502,349).
att(481,99).
att(634,1199).
att(1912,2052).
att(1913,2058).
att(674,984).
att(1919,1926).
att(247,1896).
att(489,235).
att(1918,2070).
att(1952,2153).
att(679,1206).
att(1950,2125).
att(277,1784).
att(654,1219).
att(126,1330).
att(479,251).
att(865,1156).
att(863,1156).
att(683,1206).
att(481,184).
att(135,1546).
att(959,574).
att(861,983).
att(684,1214).
att(244,1807).
att(485,186).
att(1918,2095).
att(244,1801).
att(277,1782).
att(248,1890).
att(965,578).
att(503,404).
att(483,259).
att(959,585).
att(275,1804).
att(614,1693).
att(961,589).
att(750,326).
att(862,1012).
att(746,368).
att(245,1993).
att(1881,1997).
att(240,1986).
att(1920,2050).
att(753,334).
att(1915,2185).
att(141,1334).
att(275,1968).
att(1883,2004).
att(1915,2174).
att(483,261).
att(243,2026).
att(1916,2101).
att(158,1448).
att(1893,1925).
att(158,1444).
att(1891,1927).
att(489,310).
att(865,1016).
att(277,1973).
att(961,602).
att(244,1993).
att(137,1351).
att(240,1988).
att(620,1690).
att(167,1260).
att(751,362).
att(159,1436).
att(627,1715).
att(167,1258).
att(951,541).
att(1950,2169).
att(1914,2126).
att(133,1374).
att(482,219).
att(169,1246).
att(677,1059).
att(86,1374).
att(910,525).
att(910,535).
att(955,356).
att(220,1991).
att(653,1058).
att(488,321).
att(126,1444).
att(468,217).
att(1919,2095).
att(144,1351).
att(688,1041).
att(135,1273).
att(141,1265).
att(953,369).
att(965,338).
att(969,599).
att(953,364).
att(462,205).
att(920,600).
att(957,358).
att(914,540).
att(130,1491).
att(1891,1971).
att(94,1387).
att(222,2021).
att(1922,2054).
att(144,1357).
att(1893,1976).
att(1922,2053).
att(89,1406).
att(489,321).
att(681,1188).
att(489,319).
att(913,545).
att(133,1436).
att(141,1450).
att(128,1436).
att(654,1184).
att(483,375).
att(688,1056).
att(466,215).
att(484,372).
att(221,2045).
att(130,1485).
att(675,1167).
att(675,1131).
att(679,1181).
att(951,419).
att(676,1133).
att(223,2041).
att(461,251).
att(677,1135).
att(141,1487).
att(457,184).
att(683,1188).
att(482,402).
att(1902,1931).
att(354,716).
att(654,1193).
att(957,408).
att(1881,2078).
att(1902,1927).
att(483,412).
att(221,1852).
att(467,181).
att(126,1548).
att(961,423).
att(139,1487).
att(1893,2034).
att(686,1192).
att(126,1541).
att(681,1210).
att(278,1775).
att(1881,2028).
att(1887,2094).
att(248,2038).
att(893,987).
att(618,1636).
att(163,1332).
att(464,1971).
att(1891,1630).
att(858,1014).
att(468,2015).
att(609,1693).
att(308,591).
att(622,1634).
att(614,1743).
att(852,1037).
att(289,707).
att(893,990).
att(361,202).
att(479,2187).
att(853,1035).
att(484,2185).
att(748,607).
att(158,1389).
att(750,602).
att(463,2012).
att(488,2170).
att(750,601).
att(102,696).
att(293,712).
att(295,707).
att(1887,1647).
att(266,1987).
att(102,703).
att(264,2026).
att(457,2002).
att(307,1970).
att(648,1666).
att(479,2125).
att(759,580).
att(169,1334).
att(616,1742).
att(853,1058).
att(264,1990).
att(361,114).
att(459,2033).
att(626,1743).
att(303,608).
att(618,1748).
att(266,2024).
att(100,725).
att(644,1692).
att(355,205).
att(159,1404).
att(266,2046).
att(1919,1736).
att(359,253).
att(891,1040).
att(102,803).
att(159,1401).
att(466,2074).
att(616,1754).
att(110,807).
att(295,730).
att(348,123).
att(1902,1562).
att(350,111).
att(624,1754).
att(893,1059).
att(459,2054).
att(304,2024).
att(1883,1616).
att(750,545).
att(757,526).
att(877,1167).
att(292,1768).
att(464,2033).
att(357,211).
att(857,1192).
att(303,651).
att(266,2043).
att(1793,1760).
att(274,2022).
att(307,1990).
att(759,517).
att(110,727).
att(875,1131).
att(1897,1455).
att(759,521).
att(268,2045).
att(309,664).
att(271,629).
att(306,690).
att(130,1402).
att(158,1492).
att(864,1056).
att(965,519).
att(757,367).
att(243,2045).
att(618,1722).
att(626,1707).
att(363,229).
att(1863,1533).
att(446,1924).
att(959,523).
att(355,250).
att(467,2128).
att(959,517).
att(757,356).
att(746,423).
att(852,1125).
att(1865,1604).
att(303,662).
att(439,1925).
att(269,690).
att(676,1183).
att(1861,1601).
att(748,393).
att(748,394).
att(863,1057).
att(289,798).
att(469,1996).
att(104,798).
att(348,187).
att(361,239).
att(242,2043).
att(618,1574).
att(965,547).
att(141,1401).
att(761,383).
att(462,2058).
att(855,1125).
att(864,1183).
att(1891,1673).
att(620,1734).
att(675,1196).
att(299,803).
att(745,561).
att(746,569).
att(858,1133).
att(1859,1529).
att(359,235).
att(858,1125).
att(862,1191).
att(1895,1600).
att(241,1864).
att(464,2059).
att(157,1508).
att(461,2074).
att(764,555).
att(305,621).
att(466,2154).
att(466,2155).
att(864,1189).
att(104,802).
att(626,1575).
att(309,700).
att(626,1578).
att(441,1997).
att(445,1976).
att(354,285).
att(242,1856).
att(354,283).
att(158,1518).
att(614,1599).
att(674,1205).
att(852,1162).
att(443,1972).
att(266,1807).
att(446,2035).
att(745,575).
att(746,577).
att(365,352).
att(734,1617).
att(329,112).
att(616,1596).
att(245,1858).
att(305,708).
att(161,1516).
att(271,656).
att(305,705).
att(748,569).
att(863,1202).
att(755,569).
att(457,2138).
att(361,263).
att(350,232).
att(275,1862).
att(467,2124).
att(272,1792).
att(304,1770).
att(757,567).
att(745,578).
att(355,232).
att(357,312).
att(622,1613).
att(359,280).
att(614,1636).
att(308,706).
att(244,1879).
att(1861,1582).
att(268,1781).
att(361,281).
att(676,1213).
att(305,738).
att(879,1044).
att(1855,1625).
att(290,1986).
att(339,182).
att(440,2014).
att(361,406).
att(469,2079).
att(273,694).
att(320,123).
att(436,2035).
att(306,743).
att(363,346).
att(879,1036).
att(267,697).
att(333,215).
att(924,1006).
att(355,372).
att(446,2034).
att(659,1688).
att(1894,1651).
att(660,1694).
att(294,1986).
att(642,1753).
att(288,2018).
att(290,2020).
att(1897,1625).
att(309,739).
att(1897,1612).
att(350,280).
att(1897,1624).
att(273,705).
att(657,1706).
att(459,2167).
att(879,1056).
att(301,701).
att(644,1747).
att(335,118).
att(363,374).
att(650,1740).
att(303,737).
att(292,2017).
att(439,2049).
att(646,1751).
att(324,99).
att(292,2018).
att(300,1991).
att(646,1749).
att(308,739).
att(323,112).
att(661,1708).
att(271,708).
att(436,1972).
att(668,1713).
att(912,1137).
att(668,1708).
att(929,1057).
att(320,178).
att(324,260).
att(440,2059).
att(924,1057).
att(879,1184).
att(273,723).
att(325,182).
att(914,1167).
att(1865,1736).
att(633,1578).
att(665,1728).
att(1865,1718).
att(665,1724).
att(269,802).
att(634,1575).
att(86,1774).
att(444,2151).
att(1947,1929).
att(875,1200).
att(331,233).
att(929,1188).
att(309,800).
att(320,202).
att(354,427).
att(657,1574).
att(879,1197).
att(89,1773).
att(918,1133).
att(325,207).
att(333,185).
att(303,807).
att(1894,1717).
att(292,1853).
att(300,2043).
att(288,1854).
att(922,1127).
att(288,1853).
att(439,2076).
att(294,1866).
att(353,427).
att(634,1597).
att(323,286).
att(270,2043).
att(1945,1925).
att(320,237).
att(889,1190).
att(333,314).
att(889,1189).
att(609,1599).
att(646,1577).
att(298,1768).
att(265,1853).
att(885,1167).
att(609,1596).
att(307,2020).
att(875,1165).
att(891,1189).
att(858,1193).
att(885,1125).
att(101,1774).
att(879,1150).
att(436,2058).
att(441,2071).
att(883,1166).
att(298,1772).
att(445,2138).
att(883,1161).
att(609,1622).
att(328,232).
att(443,2123).
att(852,1217).
att(877,988).
att(331,310).
att(331,311).
att(447,2028).
att(855,1217).
att(855,1215).
att(1949,2051).
att(304,1853).
att(855,1212).
att(1946,2028).
att(926,982).
att(329,346).
att(1947,2030).
att(307,1862).
att(891,1206).
att(307,1858).
att(609,1631).
att(609,1629).
att(447,2049).
att(440,2185).
att(294,1803).
att(324,285).
att(339,372).
att(644,1618).
att(924,984).
att(291,1967).
att(650,1617).
att(304,1880).
att(638,1638).
att(660,1700).
att(335,376).
att(292,1995).
att(609,1747).
att(648,1619).
att(22,1336).
att(916,2149).
att(94,884).
att(661,570).
att(877,2248).
att(912,2255).
att(448,1581).
att(96,896).
att(324,2131).
att(225,1542).
att(290,1689).
att(320,2072).
att(881,2236).
att(506,1937).
att(1944,1532).
att(659,583).
att(659,588).
att(86,968).
att(90,919).
att(659,580).
att(90,921).
att(335,2101).
att(228,1544).
att(504,2000).
att(883,2235).
att(98,884).
att(910,2263).
att(929,2235).
att(222,1267).
att(885,2243).
att(88,952).
att(509,1923).
att(324,2059).
att(653,330).
att(103,1658).
att(1945,1552).
att(436,1653).
att(98,968).
att(89,952).
att(654,341).
att(90,954).
att(655,334).
att(1947,1603).
att(633,604).
att(665,584).
att(129,621).
att(329,2154).
att(1947,1612).
att(447,1627).
att(916,2263).
att(247,1276).
att(679,338).
att(657,604).
att(320,2122).
att(679,332).
att(84,752).
att(224,1274).
att(969,2253).
att(1949,1625).
att(913,2274).
att(25,1381).
att(1942,1633).
att(652,393).
att(329,2167).
att(22,1414).
att(448,1642).
att(324,2101).
att(657,527).
att(1944,1600).
att(1948,1584).
att(657,524).
att(1949,1587).
att(226,1399).
att(325,2122).
att(1945,1585).
att(328,2101).
att(1943,1583).
att(129,743).
att(290,782).
att(1951,1558).
att(230,1277).
att(101,765).
att(23,1438).
att(924,2262).
att(296,752).
att(659,369).
att(1949,1705).
att(926,2274).
att(140,731).
att(660,369).
att(1912,1462).
att(1916,1566).
att(27,1409).
att(142,595).
att(226,1438).
att(665,370).
att(447,1681).
att(663,360).
att(29,1404).
att(507,2027).
att(298,782).
att(660,396).
att(1915,1466).
att(288,839).
att(129,700).
att(136,744).
att(1946,1681).
att(668,393).
att(230,1438).
att(657,420).
att(879,2217).
att(294,811).
att(912,2109).
att(37,1414).
att(85,611).
att(486,1939).
att(487,2012).
att(1845,1766).
att(1914,1504).
att(1945,1718).
att(883,2216).
att(129,796).
att(660,416).
att(101,814).
att(101,813).
att(1943,1672).
att(631,575).
att(177,802).
att(1943,1655).
att(447,1726).
att(912,2143).
att(101,811).
att(447,1717).
att(1943,1653).
att(227,1527).
att(175,800).
att(1950,1600).
att(1944,1653).
att(1949,1725).
att(876,2231).
att(86,927).
att(503,2076).
att(1947,1736).
att(1913,1586).
att(674,336).
att(130,962).
att(240,1274).
att(922,2239).
att(97,664).
att(252,1340).
att(247,1335).
att(126,765).
att(489,1976).
att(1822,1759).
att(482,1926).
att(502,2151).
att(508,2167).
att(144,1679).
att(506,2168).
att(96,1695).
att(126,760).
att(487,2053).
att(681,603).
att(248,1331).
att(242,1244).
att(95,689).
att(95,693).
att(861,334).
att(240,1456).
att(125,760).
att(146,669).
att(139,972).
att(955,2276).
att(142,666).
att(489,2000).
att(144,1687).
att(241,1457).
att(252,1335).
att(1918,1584).
att(1914,1606).
att(85,691).
att(278,1246).
att(1912,1600).
att(223,1374).
att(677,367).
att(130,787).
att(503,2126).
att(224,1375).
att(1913,1627).
att(1913,1624).
att(481,2054).
att(861,364).
att(1913,1611).
att(146,741).
att(481,2053).
att(1917,1625).
att(1913,1616).
att(486,2047).
att(482,2051).
att(223,1407).
att(673,410).
att(241,1479).
att(482,2055).
att(1950,1656).
att(681,540).
att(688,525).
att(479,2050).
att(965,2276).
att(965,2282).
att(861,393).
att(246,1402).
att(276,1436).
att(244,1494).
att(489,2050).
att(130,808).
att(674,410).
att(501,2173).
att(955,2212).
att(1952,1611).
att(252,1402).
att(865,394).
att(951,2223).
att(489,2014).
att(865,396).
att(157,856).
att(91,698).
att(133,810).
att(673,562).
att(1915,1624).
att(688,557).
att(661,547).
att(916,2287).
att(299,643).
att(967,2273).
att(89,785).
att(84,811).
att(653,408).
att(84,810).
att(485,2079).
att(967,2272).
att(485,2058).
att(1917,1725).
att(289,608).
att(466,1923).
att(466,1924).
att(227,1407).
att(1915,1720).
att(683,393).
att(665,557).
att(655,413).
att(92,810).
att(246,1481).
att(105,637).
att(95,735).
att(297,594).
att(481,2033).
att(230,1409).
att(125,888).
att(481,2014).
att(1922,1556).
att(88,833).
att(144,817).
att(144,778).
att(248,1495).
att(686,386).
att(84,833).
att(1920,1526).
att(1881,1455).
att(91,733).
att(1918,1648).
att(681,562).
att(913,2225).
att(1914,1677).
att(90,830).
att(221,1547).
att(482,2032).
att(483,2089).
att(913,2222).
att(479,2034).
att(221,1512).
att(1883,1458).
att(1921,1587).
att(246,1550).
att(955,2147).
att(137,859).
att(652,575).
att(481,2153).
att(220,1340).
att(222,1540).
att(131,890).
att(1891,1589).
att(681,565).
att(961,2113).
att(688,568).
att(96,837).
att(248,1550).
att(464,2010).
att(489,2169).
att(461,1998).
att(951,2252).
att(486,2100).
att(98,835).
att(1889,1581).
att(96,829).
att(459,1925).
att(655,577).
att(922,2225).
att(104,672).
att(221,1331).
att(125,972).
att(1912,1723).
att(137,884).
att(95,805).
att(222,1331).
att(1917,1736).
att(465,1925).
att(102,666).
att(956,2254).
att(89,1687).
att(133,966).
att(96,1665).
att(483,2155).
att(1881,1534).
att(92,1665).
att(128,921).
att(104,685).
att(483,1656).
att(626,1044).
att(855,366).
att(864,604).
att(748,2275).
att(483,1655).
att(242,1374).
att(626,1042).
att(755,2259).
att(275,1355).
att(674,535).
att(100,49).
att(293,56).
att(465,1553).
att(852,393).
att(1086,777).
att(489,1717).
att(241,1414).
att(264,1494).
att(192,649).
att(1075,735).
att(1083,803).
att(1919,1092).
att(268,1260).
att(487,1717).
att(193,630).
att(887,370).
att(748,2286).
att(1076,698).
att(467,1460).
att(481,1625).
att(100,56).
att(275,1380).
att(97,212).
att(1086,738).
att(1082,700).
att(272,1444).
att(614,1194).
att(751,2287).
att(1922,1032).
att(612,1191).
att(274,1495).
att(293,61).
att(461,1455).
att(759,2275).
att(891,368).
att(264,1481).
att(277,1380).
att(85,214).
att(167,778).
att(169,789).
att(487,1655).
att(624,1062).
att(1076,798).
att(198,678).
att(1903,1761).
att(265,1527).
att(1889,1078).
att(165,785).
att(191,617).
att(852,423).
att(1921,1077).
att(275,1401).
att(620,1188).
att(100,156).
att(1907,1762).
att(33,1776).
att(299,70).
att(365,2010).
att(33,1772).
att(464,1605).
att(858,408).
att(192,690).
att(865,538).
att(1881,1109).
att(1902,939).
att(1087,656).
att(1887,1073).
att(110,150).
att(309,1).
att(642,1129).
att(863,545).
att(1920,1078).
att(268,1518).
att(194,608).
att(887,422).
att(194,637).
att(265,1550).
att(100,74).
att(163,833).
att(750,2225).
att(855,562).
att(463,1564).
att(165,813).
att(745,2229).
att(102,69).
att(167,832).
att(1079,798).
att(31,1769).
att(465,1589).
att(622,1201).
att(1087,682).
att(746,2233).
att(650,1167).
att(759,2210).
att(297,47).
att(243,1547).
att(459,1583).
att(130,838).
att(295,83).
att(289,154).
att(137,816).
att(137,839).
att(674,566).
att(750,2115).
att(864,408).
att(750,2109).
att(467,1633).
att(363,1980).
att(126,836).
att(191,658).
att(303,26).
att(194,672).
att(745,2140).
att(1919,1180).
att(139,810).
att(1861,1017).
att(241,1546).
att(676,568).
att(353,1971).
att(278,1520).
att(734,983).
att(1895,998).
att(1920,1171).
att(306,2).
att(354,2006).
att(463,1603).
att(755,2111).
att(612,989).
att(125,1670).
att(363,2004).
att(1883,1078).
att(137,837).
att(953,2230).
att(1922,1168).
att(1922,1169).
att(745,2249).
att(240,1331).
att(269,1).
att(464,1587).
att(464,1569).
att(753,2148).
att(748,2150).
att(289,63).
att(361,1971).
att(465,1630).
att(174,859).
att(104,148).
att(190,690).
att(242,1543).
att(1087,707).
att(1861,946).
att(289,66).
att(354,1996).
att(200,637).
att(963,2238).
att(309,48).
att(173,591).
att(193,696).
att(242,1332).
att(626,984).
att(165,928).
att(168,592).
att(467,1677).
att(961,2242).
att(852,332).
att(240,1352).
att(463,1681).
att(308,47).
att(464,1678).
att(759,2147).
att(271,12).
att(169,928).
att(353,2032).
att(1902,1050).
att(196,731).
att(616,1009).
att(674,605).
att(750,2264).
att(965,2247).
att(1898,996).
att(612,1037).
att(861,586).
att(165,968).
att(620,1015).
att(626,1006).
att(757,2255).
att(365,2047).
att(139,1697).
att(734,1063).
att(355,2035).
att(170,591).
att(269,12).
att(443,1462).
att(1893,1171).
att(161,762).
att(622,1035).
att(357,2054).
att(264,1456).
att(192,694).
att(860,341).
att(734,1058).
att(1887,1173).
att(271,28).
att(308,61).
att(353,2048).
att(1861,997).
att(305,14).
att(677,606).
att(436,1558).
att(469,1601).
att(339,1933).
att(339,1929).
att(436,1562).
att(459,1673).
att(173,619).
att(1897,1094).
att(893,517).
att(37,1991).
att(1863,1031).
att(446,1604).
att(883,395).
att(887,557).
att(463,1726).
att(634,1167).
att(464,1737).
att(877,422).
att(170,691).
att(172,615).
att(461,1736).
att(1861,1111).
att(609,1193).
att(469,1530).
att(172,643).
att(1087,796).
att(631,1154).
att(296,1483).
att(166,594).
att(446,1554).
att(463,1704).
att(160,591).
att(887,544).
att(644,1188).
att(467,1723).
att(170,611).
att(633,1164).
att(644,1194).
att(638,1207).
att(22,1792).
att(634,1162).
att(661,1133).
att(1855,1066).
att(23,1798).
att(469,1645).
att(929,410).
att(226,1790).
att(230,1773).
att(290,1541).
att(35,2037).
att(306,149).
att(650,1192).
att(29,1896).
att(306,156).
att(1902,1116).
att(168,664).
att(291,1512).
att(659,983).
att(267,151).
att(1865,1144).
att(633,985).
att(634,991).
att(331,1972).
att(365,2174).
att(172,658).
att(631,990).
att(661,1162).
att(31,1852).
att(634,984).
att(348,2075).
att(172,689).
att(271,75).
att(200,666).
att(27,1880).
att(290,1333).
att(885,571).
att(290,1331).
att(348,2056).
att(459,1718).
att(650,1205).
att(194,791).
att(665,1165).
att(459,1723).
att(659,1009).
att(37,1885).
att(442,1604).
att(443,1581).
att(355,2138).
att(162,680).
att(660,991).
att(162,685).
att(1895,1169).
att(225,1806).
att(23,1974).
att(271,76).
att(660,982).
att(331,2002).
att(761,2224).
att(177,596).
att(271,107).
att(200,736).
att(172,703).
att(855,570).
att(1838,1767).
att(306,218).
att(638,990).
att(441,1646).
att(620,1208).
att(889,565).
att(301,210).
att(442,1623).
att(1949,1466).
att(620,1215).
att(136,596).
att(165,1657).
att(168,744).
att(335,2032).
att(335,2014).
att(33,1811).
att(323,2051).
att(1859,1174).
att(307,1514).
att(170,738).
att(33,1808).
att(174,838).
att(443,1677).
att(746,2247).
att(164,658).
att(1895,1177).
att(162,713).
att(444,1608).
att(353,2169).
att(302,1541).
att(1897,1139).
att(324,1979).
att(325,1997).
att(333,1976).
att(354,2170).
att(169,1657).
att(354,2168).
att(301,119).
att(757,2235).
att(288,1274).
att(165,1679).
att(446,1616).
att(160,713).
att(264,1357).
att(170,699).
att(274,1332).
att(853,600).
att(1861,1139).
att(875,356).
att(439,1648).
att(893,585).
att(172,729).
att(879,330).
att(644,1012).
att(887,585).
att(335,2091).
att(638,1041).
att(288,1444).
att(640,1039).
att(891,587).
att(877,356).
att(274,1356).
att(860,607).
att(199,791).
att(296,1274).
att(296,1450).
att(27,2026).
att(140,592).
att(885,358).
att(1943,1466).
att(271,208).
att(1948,1462).
att(320,2048).
att(893,602).
att(924,332).
att(270,1373).
att(1949,1468).
att(136,639).
att(889,527).
att(292,1438).
att(889,528).
att(1946,1556).
att(288,1495).
att(138,593).
att(443,1650).
att(444,1674).
att(290,1492).
att(296,1457).
att(640,1056).
att(875,394).
att(652,2203).
att(959,1669).
att(951,1694).
att(487,1284).
att(1944,943).
att(1961,1760).
att(681,2193).
att(957,1694).
att(502,1372).
att(1950,826).
att(509,1432).
att(654,2206).
att(920,1637).
att(1912,776).
att(959,1699).
att(488,1278).
att(1941,1761).
att(501,1423).
att(956,1696).
att(1912,786).
att(764,1690).
att(1949,1001).
att(481,1328).
att(959,1708).
att(674,1388).
att(1917,822).
att(501,1431).
att(764,1694).
att(951,1731).
att(673,1382).
att(686,2063).
att(1950,871).
att(486,1308).
att(920,1756).
att(1916,894).
att(483,1302).
att(655,2085).
att(499,1471).
att(920,1750).
att(959,1711).
att(965,1706).
att(1916,902).
att(655,2087).
att(920,1748).
att(1951,894).
att(675,2164).
att(861,1388).
att(959,1729).
att(483,1279).
att(487,1319).
att(951,1574).
att(967,1754).
att(1912,843).
att(965,1729).
att(484,1329).
att(864,1388).
att(929,1753).
att(485,1362).
att(665,2084).
att(969,1724).
att(1920,799).
att(654,1405).
att(1912,871).
att(910,1575).
att(914,1573).
att(757,1761).
att(686,1419).
att(485,1304).
att(686,1378).
att(501,1536).
att(489,1371).
att(1915,867).
att(753,1763).
att(914,1594).
att(634,2135).
att(655,2156).
att(910,1610).
att(652,2178).
att(488,1395).
att(679,2158).
att(1881,786).
att(665,2127).
att(660,2144).
att(914,1614).
att(1881,795).
att(1915,1024).
att(1912,943).
att(655,2172).
att(1917,975).
att(1893,720).
att(489,1421).
att(486,1347).
att(1915,947).
att(920,1619).
att(1950,1008).
att(864,2204).
att(864,2202).
att(674,2068).
att(468,1323).
att(1893,845).
att(489,1459).
att(759,1700).
att(1887,824).
att(734,443).
att(852,1376).
att(862,2061).
att(734,440).
att(1889,820).
att(459,1280).
att(482,1500).
att(462,1319).
att(963,1739).
att(467,1282).
att(467,1283).
att(1891,774).
att(626,1945).
att(674,2086).
att(757,1710).
att(961,1757).
att(1922,848).
att(1893,771).
att(675,2083).
att(486,1394).
att(489,1432).
att(627,1945).
att(612,466).
att(1889,850).
att(677,2102).
att(626,441).
att(887,1388).
att(674,2105).
att(1872,1766).
att(1873,1764).
att(465,1363).
att(1922,850).
att(465,1364).
att(746,1595).
att(891,1418).
att(734,487).
att(673,2136).
att(616,466).
att(627,445).
att(1920,979).
att(746,1593).
att(361,1830).
att(616,457).
att(1920,948).
att(463,1319).
att(481,1469).
att(864,2105).
att(467,1302).
att(1870,1760).
att(620,468).
att(745,1596).
att(861,2097).
att(764,1760).
att(620,463).
att(1876,1766).
att(853,2180).
att(1919,866).
att(963,1765).
att(616,488).
att(761,1575).
att(610,1865).
att(361,1800).
att(459,1317).
att(748,1598).
att(354,1820).
att(959,1763).
att(684,2108).
att(956,1759).
att(463,1344).
att(764,1730).
att(956,1579).
att(673,2161).
att(464,1429).
att(457,1345).
att(348,1825).
att(674,2160).
att(361,1847).
att(1921,979).
att(350,1793).
att(467,1345).
att(612,1863).
att(365,1828).
att(951,1766).
att(955,1614).
att(464,1349).
att(865,2162).
att(764,1592).
att(1887,977).
att(461,1350).
att(677,2172).
att(462,1502).
att(1902,827).
att(459,1395).
att(861,2182).
att(1883,1008).
att(614,1881).
att(363,1840).
att(443,1329).
att(443,1317).
att(753,1667).
att(348,1845).
att(1895,826).
att(750,1699).
att(361,1840).
att(1883,945).
att(750,1715).
att(467,1390).
att(757,1666).
att(612,1917).
att(355,1821).
att(675,2207).
att(1891,909).
att(463,1427).
att(951,1745).
att(627,1887).
att(734,1948).
att(357,1848).
att(348,1813).
att(1861,767).
att(618,1951).
att(863,2193).
att(469,1280).
att(677,2203).
att(1855,794).
att(457,1423).
att(957,1747).
att(466,1502).
att(748,1688).
att(624,1881).
att(361,1428).
att(462,976).
att(1902,236).
att(350,1368).
att(1883,400).
att(355,1369).
att(363,1348).
att(443,721).
att(467,949).
att(877,1415).
att(852,2097).
att(1855,215).
att(860,2102).
att(1889,400).
att(855,2116).
att(468,976).
att(646,464).
att(1893,406).
att(1855,201).
att(640,459).
att(885,1408).
att(361,1503).
att(354,1391).
att(348,1428).
att(1863,229).
att(446,769).
att(650,461).
att(881,2157).
att(442,799).
att(926,1405).
att(329,1278).
att(464,1030).
att(646,484).
att(1865,287).
att(329,1285).
att(444,841).
att(885,2157).
att(877,2178).
att(1895,262).
att(1895,261).
att(1855,260).
att(445,801).
att(1863,256).
att(354,1423).
att(445,797).
att(459,950).
att(443,794).
att(442,806).
att(883,2178).
att(883,2176).
att(610,331).
att(444,771).
att(885,2179).
att(466,1024).
att(363,1461).
att(620,481).
att(355,1503).
att(363,1432).
att(365,1463).
att(757,1591).
att(1865,374).
att(357,1461).
att(442,826).
att(359,1567).
att(1861,376).
att(642,1859).
att(333,1280).
att(755,1622).
att(459,1028).
att(626,507).
att(446,840).
att(644,1863).
att(612,328).
att(365,1465).
att(1861,281).
att(323,1281).
att(616,329).
att(440,846).
att(331,1325).
att(734,348).
att(1855,311).
att(324,1369).
att(748,1747).
att(755,1629).
att(441,905).
att(638,1951).
att(355,1557).
att(446,866).
att(745,1747).
att(745,1745).
att(446,976).
att(335,1349).
att(442,871).
att(640,1916).
att(746,1754).
att(640,1912).
att(1861,427).
att(753,1739).
att(1863,377).
att(445,902).
att(750,1754).
att(442,898).
att(329,1362).
att(439,900).
att(751,1750).
att(444,866).
att(875,1376).
att(918,2164).
att(910,2159).
att(324,1423).
att(447,775).
att(918,1411).
att(441,978).
att(335,1391).
att(633,488).
att(1942,792).
att(876,2141).
att(913,2156).
att(329,1393).
att(660,463).
att(1947,774).
att(323,1423).
att(967,1417).
att(879,2141).
att(967,2165).
att(929,2105).
att(324,1350).
att(333,1348).
att(663,457).
att(633,509).
att(883,2139).
att(652,1894).
att(447,786).
att(652,1861).
att(668,488).
att(331,1471).
att(506,1284).
att(323,1472).
att(508,1325).
att(912,2189).
att(1945,767).
att(663,479).
att(325,1473).
att(329,1463).
att(329,1471).
att(505,1323).
att(655,1893).
att(501,1282).
att(916,2198).
att(652,1912).
att(339,1499).
att(509,1278).
att(436,947).
att(1948,773).
att(440,1001).
att(445,1030).
att(918,2195).
att(325,1425).
att(1945,794).
att(688,1859).
att(441,909).
att(441,1008).
att(642,333).
att(657,1887).
att(1943,905).
att(879,2197).
att(324,1567).
att(881,2188).
att(876,2196).
att(509,1371).
att(877,2206).
att(328,1561).
att(883,2189).
att(631,1916).
att(1943,900).
att(634,1914).
att(1949,820).
att(650,328).
att(876,2207).
att(636,355).
att(504,1300).
att(876,2067).
att(335,1567).
att(646,361).
att(1949,874).
att(501,1311).
att(646,355).
att(912,1376).
att(502,1365).
att(2001,1760).
att(1950,794).
att(659,447).
att(1950,792).
att(1918,728).
att(914,1418).
att(665,1948).
att(1942,974).
att(1916,792).
att(1913,728).
att(1947,947).
att(929,2206).
att(885,2082).
att(924,2068).
att(508,1348).
att(1984,1758).
att(502,1306).
att(665,1947).
att(1946,949).
att(916,1418).
att(661,1754).
att(679,1713).
att(657,1753).
att(94,1987).
att(502,840).
att(1918,114).
att(502,843).
att(503,820).
att(96,1986).
att(655,1729).
att(1913,114).
att(88,2043).
att(955,1132).
att(679,1730).
att(447,347).
att(653,1575).
att(502,773).
att(653,1576).
att(668,1751).
att(913,1198).
att(96,2020).
att(918,1195).
att(499,842).
att(953,1129).
att(1917,179).
att(1951,255).
att(961,1167).
att(1943,402).
att(84,1853).
att(502,871).
att(969,1194).
att(957,1158).
att(969,1195).
att(483,726).
att(504,979).
att(90,1857).
att(914,1209).
att(1951,251).
att(491,31).
att(1913,182).
att(961,1164).
att(961,1160).
att(131,1788).
att(144,2036).
att(144,2039).
att(507,901).
att(912,1213).
att(967,1195).
att(1950,260).
att(681,1617).
att(89,1882).
att(688,1598).
att(1949,415).
att(920,1207).
att(130,1808).
att(920,1202).
att(953,987).
att(1951,184).
att(98,1857).
att(505,1028).
att(290,1892).
att(916,1154).
att(916,1156).
att(290,1879).
att(924,1195).
att(1950,279).
att(876,1215).
att(881,1212).
att(300,1858).
att(885,1210).
att(481,792).
att(488,801).
att(631,1635).
att(1951,237).
att(1951,219).
att(489,794).
att(916,985).
att(1918,250).
att(296,1885).
att(485,722).
att(502,866).
att(103,1878).
att(90,1970).
att(86,1967).
att(914,1011).
att(92,1805).
att(655,1671).
att(661,1619).
att(914,1009).
att(633,1629).
att(1951,375).
att(1913,261).
att(631,1739).
att(918,1010).
att(924,1213).
att(487,902).
att(1916,373).
att(679,1699).
att(88,1988).
att(94,1992).
att(94,1995).
att(634,1752).
att(499,1001).
att(653,1735).
att(94,1964).
att(688,1699).
att(488,848).
att(486,769).
att(663,1641).
att(912,1056).
att(483,842).
att(1914,315).
att(86,2026).
att(1915,261).
att(92,1963).
att(633,1750).
att(660,1743).
att(1916,282).
att(660,1741).
att(914,1055).
att(959,1189).
att(612,2165).
att(675,1578).
att(620,1378).
att(1893,211).
att(1919,180).
att(1952,424).
att(488,850).
att(1952,406).
att(466,714).
att(745,1150).
att(624,1418).
att(141,2021).
att(677,1579).
att(624,1386).
att(864,1576).
att(1912,347).
att(750,1154).
att(485,824).
att(165,1775).
att(481,826).
att(159,1796).
att(961,1200).
att(165,1771).
att(627,1416).
att(489,904).
att(753,992).
att(865,1574).
att(862,1593).
att(157,1811).
att(1920,178).
att(751,1160).
att(865,1575).
att(963,1199).
att(126,1880).
att(157,1808).
att(482,827).
att(1881,114).
att(133,1864).
att(482,825).
att(1915,343).
att(141,2038).
att(128,1864).
att(128,1879).
att(748,983).
att(130,1888).
att(484,907).
att(965,1201).
att(468,790).
att(757,1160).
att(1922,232).
att(614,2182).
att(612,2178).
att(464,721).
att(174,1796).
att(139,1862).
att(759,1162).
att(1887,239).
att(963,1210).
att(461,797).
att(1887,219).
att(1889,234).
att(487,1002).
att(484,935).
att(626,2179).
att(963,1220).
att(618,2193).
att(1891,182).
att(137,1892).
att(626,2172).
att(612,2197).
att(757,987).
att(468,718).
att(861,1613).
att(468,726).
att(961,1215).
att(139,1892).
att(764,1216).
att(467,715).
att(959,988).
att(467,844).
att(94,1880).
att(967,1208).
att(141,1810).
att(465,819).
att(468,826).
att(676,1669).
att(133,1801).
att(135,1806).
att(462,842).
att(957,1006).
att(965,984).
att(1902,112).
att(462,775).
att(1889,286).
att(953,1038).
att(655,1741).
att(463,793).
att(137,1969).
att(137,1802).
att(955,1038).
att(653,1747).
att(131,1968).
att(686,1613).
att(961,1006).
att(1893,238).
att(673,1693).
att(359,1284).
att(679,1740).
att(139,1801).
att(466,846).
att(683,1638).
att(957,1036).
att(467,770).
att(683,1738).
att(363,1306).
att(468,898).
att(862,1686).
att(357,1321).
att(956,1056).
att(1861,204).
att(133,1988).
att(353,1296).
att(965,1043).
att(1887,327).
att(655,1757).
att(1921,373).
att(137,1986).
att(764,1043).
att(464,840).
att(614,1386).
att(951,1194).
att(686,1748).
att(746,1129).
att(1859,106).
att(1922,319).
att(686,1755).
att(862,1729).
att(616,1416).
att(1893,352).
att(963,1059).
att(141,1989).
att(957,1188).
att(688,1754).
att(1897,118).
att(457,848).
att(612,2141).
att(1897,2010).
att(363,774).
att(644,2165).
att(1865,1926).
att(1922,2125).
att(620,2103).
att(1865,1927).
att(355,799).
att(1893,2154).
att(610,2180).
att(1902,1972).
att(642,2184).
att(157,1879).
att(853,1615).
att(1881,2131).
att(650,2164).
att(626,2144).
att(467,237).
att(165,1896).
att(857,1621).
att(1898,1937).
att(620,2144).
att(1894,2012).
att(464,236).
att(1881,2070).
att(466,310).
att(761,1207).
att(1889,2155).
att(761,1215).
att(855,1636).
att(446,114).
att(858,1640).
att(359,905).
att(1895,2033).
att(875,1686).
att(466,351).
att(891,1631).
att(875,1709).
att(1897,1980).
att(1898,1977).
att(467,279).
att(467,263).
att(1865,2010).
att(638,2203).
att(468,351).
att(638,2062).
att(858,1745).
att(461,279).
att(1861,1975).
att(348,769).
att(860,1746).
att(171,1973).
att(339,728).
att(1902,2072).
att(750,1038).
att(441,217).
att(622,2202).
att(335,724).
att(464,427).
att(865,1634).
att(862,1740).
att(852,1706).
att(616,2205).
att(627,2189).
att(863,1638).
att(444,260).
att(626,2207).
att(445,203).
att(348,825).
att(171,1994).
att(864,1744).
att(1897,2014).
att(864,1738).
att(622,2208).
att(674,1751).
att(750,1056).
att(443,203).
att(750,1053).
att(857,1706).
att(357,902).
att(440,204).
att(759,1037).
att(469,179).
att(444,187).
att(436,255).
att(348,950).
att(325,720).
att(750,1182).
att(325,726).
att(861,1748).
att(858,1730).
att(1859,2154).
att(443,287).
att(891,1708).
att(457,406).
att(893,1729).
att(644,1416).
att(893,1724).
att(1902,2152).
att(618,2099).
att(755,1181).
att(887,1724).
att(445,259).
att(158,2038).
att(363,908).
att(1898,2128).
att(1865,2059).
att(853,1598).
att(622,2097).
att(858,1573).
att(650,1418).
att(1855,2091).
att(320,770).
att(631,2188).
att(657,2175).
att(448,116).
att(668,2156).
att(650,2136).
att(448,123).
att(650,2127).
att(335,827).
att(1865,2174).
att(1947,112).
att(879,1638).
att(354,1028).
att(436,239).
att(355,937).
att(926,1622).
att(335,774).
att(350,907).
att(1865,2123).
att(634,2206).
att(331,873).
att(448,179).
att(929,1634).
att(969,1667).
att(446,346).
att(442,342).
att(446,406).
att(661,2066).
att(324,827).
att(967,1688).
att(631,2086).
att(325,825).
att(922,1735).
att(439,372).
att(323,826).
att(439,351).
att(924,1716).
att(879,1713).
att(436,429).
att(650,2200).
att(436,424).
att(881,1712).
att(855,1749).
att(320,870).
att(1944,186).
att(644,2063).
att(335,943).
att(883,1707).
att(889,1749).
att(634,1382).
att(505,799).
att(891,1750).
att(440,424).
att(650,2063).
att(659,1376).
att(634,2164).
att(329,975).
att(634,1410).
att(642,2085).
att(885,1727).
att(1944,235).
att(875,1592).
att(506,772).
att(1944,237).
att(1949,316).
att(638,2112).
att(504,844).
att(503,776).
att(660,1408).
att(648,2088).
att(499,773).
att(657,2160).
att(508,767).
att(1948,229).
att(447,316).
att(631,2177).
att(448,314).
att(636,2129).
att(320,950).
att(339,1003).
att(876,1621).
att(503,806).
att(328,908).
att(296,2184).
att(40,459).
att(274,2132).
att(1922,1800).
att(103,1415).
att(1950,1953).
att(1915,1869).
att(298,2163).
att(2062,1068).
att(304,2135).
att(479,58).
att(24,1855).
att(25,1894).
att(2063,1069).
att(1912,1872).
att(1915,1941).
att(272,2136).
att(484,47).
att(300,2163).
att(33,489).
att(2065,1046).
att(485,11).
att(501,216).
att(501,214).
att(2080,1177).
att(1917,1907).
att(24,1902).
att(27,499).
att(24,1898).
att(29,504).
att(1918,1903).
att(2067,996).
att(2067,1065).
att(1912,1906).
att(31,508).
att(2077,1179).
att(31,505).
att(484,55).
att(626,1758).
att(499,210).
att(2083,1174).
att(2060,999).
att(2064,1052).
att(230,1895).
att(481,79).
att(33,329).
att(1913,1910).
att(1917,1940).
att(1922,1821).
att(1922,1818).
att(1914,1956).
att(2069,1091).
att(1919,1847).
att(298,2195).
att(616,1761).
att(2062,1095).
att(2062,1108).
att(31,331).
att(292,2202).
att(1913,1930).
att(2060,1110).
att(1922,1822).
att(1922,1827).
att(2061,1046).
att(101,2190).
att(612,1758).
att(2068,1110).
att(1918,1957).
att(614,1760).
att(1915,1932).
att(2067,1111).
att(227,1917).
att(1920,1818).
att(1913,1953).
att(2060,1050).
att(157,1748).
att(302,2194).
att(268,2208).
att(307,2190).
att(485,148).
att(163,1740).
att(489,122).
att(29,1913).
att(165,1746).
att(1887,1837).
att(2205,1027).
att(466,16).
att(482,155).
att(31,1915).
att(2064,1139).
att(266,2060).
att(484,113).
att(1922,1842).
att(2060,1074).
att(1891,1814).
att(163,1756).
att(486,65).
att(2066,1090).
att(163,1754).
att(1881,1817).
att(1920,1835).
att(1881,1819).
att(165,1752).
att(165,1751).
att(1883,1817).
att(167,1754).
att(33,1943).
att(459,19).
att(307,2064).
att(296,1418).
att(2204,995).
att(2144,1470).
att(1893,1906).
att(2061,1172).
att(37,1947).
att(10,466).
att(2208,1033).
att(29,459).
att(1919,1960).
att(300,1384).
att(461,60).
att(2139,1468).
att(2201,999).
att(479,212).
att(2062,1176).
att(462,58).
att(1902,1795).
att(1902,1799).
att(2203,1000).
att(2061,1112).
att(37,446).
att(465,15).
att(270,2136).
att(31,467).
att(2066,1177).
att(288,2161).
att(274,2114).
att(1883,1941).
att(222,1889).
att(101,2135).
att(220,1922).
att(1865,1791).
att(84,2192).
att(247,1863).
att(357,628).
att(465,67).
att(2132,1552).
att(227,506).
att(2206,1077).
att(25,355).
att(222,1915).
att(2135,1566).
att(221,1914).
att(465,47).
att(252,1881).
att(457,54).
att(2146,1535).
att(248,1891).
att(224,1950).
att(361,611).
att(1861,1791).
att(348,592).
att(2205,1032).
att(466,77).
att(467,148).
att(1891,2013).
att(88,2060).
att(222,1943).
att(1859,1817).
att(1894,1849).
att(464,149).
att(2207,1120).
att(231,361).
att(348,680).
att(2190,938).
att(2199,1090).
att(467,64).
att(2135,1602).
att(363,678).
att(1921,2001).
att(88,2084).
att(2199,1098).
att(1883,1911).
att(86,2083).
att(94,2068).
att(84,2087).
att(465,65).
att(2208,1091).
att(2197,940).
att(2208,1143).
att(444,2).
att(1861,1815).
att(2139,1607).
att(1895,1851).
att(225,447).
att(2189,1020).
att(1863,1838).
att(1865,1835).
att(443,13).
att(468,212).
att(226,1943).
att(1894,1905).
att(2204,1138).
att(331,592).
att(444,61).
att(2205,1172).
att(359,742).
att(298,2060).
att(2132,1644).
att(350,704).
att(1863,1845).
att(288,2099).
att(355,658).
att(363,710).
att(468,107).
att(2196,1023).
att(1895,1901).
att(298,2088).
att(98,1384).
att(444,17).
att(1897,1833).
att(348,671).
att(2189,931).
att(225,466).
att(2189,1066).
att(436,62).
att(363,719).
att(1863,1872).
att(94,1411).
att(2099,1468).
att(328,592).
att(290,2135).
att(296,2108).
att(291,2146).
att(357,723).
att(96,1403).
att(291,2133).
att(2110,1530).
att(1861,1956).
att(2188,1066).
att(440,50).
att(2139,1649).
att(2191,1045).
att(320,591).
att(22,505).
att(436,20).
att(339,643).
att(101,2110).
att(335,632).
att(335,593).
att(230,462).
att(2135,1677).
att(463,210).
att(335,597).
att(294,2132).
att(1859,1901).
att(2192,997).
att(224,1895).
att(23,320).
att(1894,1960).
att(298,2144).
att(1859,1876).
att(2132,1623).
att(1895,1958).
att(24,499).
att(457,210).
att(1895,1959).
att(2102,1458).
att(2146,1653).
att(2102,1466).
att(275,1889).
att(224,353).
att(2141,1175).
att(224,348).
att(1897,1473).
att(328,21).
att(130,2204).
att(137,2188).
att(2144,1115).
att(125,2061).
att(442,1841).
att(126,2060).
att(278,1919).
att(126,2063).
att(361,210).
att(278,1912).
att(1863,1425).
att(137,2207).
att(1898,1398).
att(240,439).
att(277,1916).
att(1859,1397).
att(440,1845).
att(440,1843).
att(436,1817).
att(2139,1148).
att(354,148).
att(444,1941).
att(2110,1031).
att(130,2084).
att(163,1376).
att(436,1907).
att(2114,1069).
att(442,1905).
att(443,1957).
att(240,463).
att(323,54).
att(2105,1054).
att(125,2102).
att(161,1388).
att(469,1875).
att(350,119).
att(128,2108).
att(275,442).
att(355,115).
att(2135,1178).
att(130,2099).
att(365,212).
att(1898,1432).
att(335,59).
att(2116,1064).
att(131,2108).
att(329,62).
att(2136,1173).
att(125,2129).
att(1859,1467).
att(329,59).
att(444,1870).
att(353,210).
att(157,2159).
att(277,436).
att(2102,1108).
att(1944,1793).
att(2099,1050).
att(84,2139).
att(660,1759).
att(2116,1090).
att(2114,1071).
att(96,2086).
att(2110,1089).
att(2116,1077).
att(221,465).
att(324,76).
att(1944,1789).
att(1855,1565).
att(440,1958).
att(1948,1791).
att(135,1408).
att(92,2108).
att(137,1405).
att(2099,1068).
att(131,1411).
att(131,2159).
att(139,1411).
att(335,82).
att(89,2139).
att(89,2136).
att(133,2157).
att(659,1767).
att(439,1955).
att(90,2144).
att(329,82).
att(2102,1050).
att(86,2141).
att(444,1936).
att(634,1763).
att(631,1767).
att(436,2003).
att(2097,1090).
att(92,2135).
att(436,2007).
att(131,2183).
att(333,151).
att(2086,938).
att(137,2158).
att(504,2).
att(2083,931).
att(1942,1850).
att(2116,1139).
att(126,2190).
att(329,121).
att(128,2181).
att(128,2188).
att(447,1847).
att(2097,1108).
att(222,329).
att(320,81).
att(1949,1814).
att(247,504).
att(2099,1077).
att(245,1893).
att(324,65).
att(329,153).
att(248,499).
att(508,56).
att(447,1872).
att(158,2069).
att(2099,1138).
att(2077,1025).
att(276,365).
att(2087,1064).
att(157,2088).
att(33,267).
att(161,2068).
att(27,295).
att(502,21).
att(37,301).
att(37,303).
att(1945,1844).
att(158,2085).
att(163,2082).
att(171,2082).
att(499,28).
att(2105,1115).
att(10,91).
att(505,13).
att(2087,998).
att(2083,1029).
att(2084,1000).
att(266,459).
att(2084,993).
att(266,461).
att(167,2082).
att(323,113).
att(307,441).
att(501,51).
att(1917,1795).
att(1918,1789).
att(35,295).
att(2085,1095).
att(502,58).
att(302,441).
att(507,50).
att(1945,1872).
att(272,468).
att(1949,1935).
att(2082,1048).
att(2087,1092).
att(505,73).
att(505,79).
att(505,78).
att(161,2135).
att(268,479).
att(169,2105).
att(503,11).
att(1950,1791).
att(29,138).
att(171,2136).
att(1946,1954).
att(640,1767).
att(40,146).
att(135,2114).
att(135,2099).
att(243,483).
att(137,2112).
att(2085,1146).
att(506,70).
att(1950,1841).
att(610,1758).
att(483,7).
att(503,69).
att(2086,1146).
att(2064,942).
att(504,155).
att(488,1).
att(506,74).
att(508,68).
att(502,47).
att(1914,1787).
att(169,2158).
att(135,2129).
att(502,46).
att(1914,1785).
att(2077,1050).
att(448,2011).
att(509,69).
att(2088,1146).
att(1912,1827).
att(503,81).
att(504,72).
att(2083,1095).
att(268,1898).
att(1947,2007).
att(1951,1904).
att(1951,1903).
att(2084,1179).
att(163,2188).
att(265,1920).
att(1950,1900).
att(2062,939).
att(506,121).
att(2081,1118).
att(504,218).
att(161,2194).
att(504,206).
att(274,1887).
att(2087,1178).
att(488,12).
att(307,1865).
att(2087,1179).
att(501,155).
att(2088,1139).
att(487,28).
att(508,83).
att(2077,1072).
att(158,2062).
att(2062,944).
att(2082,1144).
att(272,1915).
att(276,354).
att(159,2066).
att(483,34).
att(2083,1170).
att(159,2067).
att(504,117).
att(2087,1120).
att(264,1943).
att(245,359).
att(488,39).
att(1917,1343).
att(1952,1422).
att(268,1637).
att(487,1843).
att(487,1847).
att(507,1984).
att(858,1761).
att(37,2189).
att(266,1746).
att(272,1637).
att(288,1694).
att(504,2013).
att(266,1743).
att(294,1700).
att(268,1745).
att(290,1710).
att(268,1746).
att(501,1959).
att(35,2189).
att(272,1741).
att(484,1841).
att(485,1842).
att(488,1837).
att(268,1756).
att(488,1840).
att(1951,1472).
att(1920,1278).
att(302,1751).
att(487,1905).
att(272,1752).
att(300,1706).
att(1913,1392).
att(225,1384).
att(27,2081).
att(1952,1398).
att(291,1733).
att(304,1757).
att(483,1842).
att(502,1985).
att(479,1816).
att(483,1849).
att(294,1731).
att(161,1185).
att(488,1872).
att(1951,1539).
att(483,1868).
att(479,1900).
att(35,1416).
att(169,1186).
att(161,1194).
att(485,1839).
att(1922,1329).
att(158,1200).
att(31,1413).
att(1915,1432).
att(1915,1430).
att(167,1192).
att(268,1578).
att(1883,1287).
att(479,1941).
att(174,1192).
att(270,1597).
att(1919,1347).
att(171,1201).
att(158,1211).
att(265,1614).
att(486,1911).
att(1883,1362).
att(31,2156).
att(33,2163).
att(1891,1296).
att(484,1961).
att(27,2175).
att(468,1795).
att(268,1610).
att(37,2161).
att(1920,1343).
att(677,1758).
att(37,2177).
att(483,1955).
att(10,2190).
att(165,1212).
att(483,1959).
att(466,1829).
att(307,1598).
att(296,1746).
att(359,38).
att(291,1754).
att(462,1842).
att(466,1839).
att(482,2009).
att(227,2201).
att(361,42).
att(298,1738).
att(467,1816).
att(221,1388).
att(222,1417).
att(479,1910).
att(144,1693).
att(1922,1422).
att(296,1757).
att(222,1378).
att(231,2206).
att(226,2068).
att(231,2068).
att(84,1571).
att(2141,936).
att(462,1813).
att(483,2005).
att(24,2082).
att(300,1756).
att(298,1749).
att(1897,1326).
att(246,1382).
att(1897,1325).
att(228,2082).
att(247,1416).
att(355,26).
att(23,2110).
att(2135,981).
att(2136,1022).
att(465,1901).
att(2144,1052).
att(357,18).
att(249,1418).
att(1861,1328).
att(1887,1432).
att(96,1722).
att(354,12).
att(348,42).
att(2141,1067).
att(249,1388).
att(1883,1397).
att(246,1403).
att(23,2146).
att(230,2088).
att(252,1388).
att(2139,1017).
att(220,2177).
att(1920,1463).
att(248,1413).
att(231,2103).
att(353,38).
att(361,15).
att(1920,1431).
att(86,1594).
att(227,2103).
att(1897,1368).
att(462,1958).
att(2135,1045).
att(363,43).
att(27,2110).
att(445,1799).
att(1865,1296).
att(296,1575).
att(1891,1561).
att(296,1571).
att(24,2165).
att(1859,1289).
att(298,1579).
att(468,1910).
att(353,43).
att(300,1579).
att(440,1797).
att(288,1620).
att(101,1574).
att(363,57).
att(1921,1565).
att(1883,1430).
att(226,2160).
att(103,1579).
att(231,2165).
att(1895,1289).
att(2146,1045).
att(361,43).
att(469,1789).
att(688,1765).
att(457,1906).
att(1895,1370).
att(444,1800).
att(300,1591).
att(2132,998).
att(1902,1397).
att(441,1825).
att(1898,1422).
att(442,1823).
att(2127,1092).
att(2135,1077).
att(1859,1342).
att(103,1617).
att(291,1640).
att(329,9).
att(681,1766).
att(298,1620).
att(291,1634).
att(331,7).
att(331,5).
att(227,2175).
att(436,1828).
att(469,1819).
att(653,1759).
att(2133,1093).
att(22,2207).
att(350,45).
att(290,1747).
att(363,80).
att(459,1958).
att(23,2207).
att(2144,1109).
att(363,81).
att(96,1667).
att(103,1640).
att(296,1739).
att(227,2197).
att(359,63).
att(348,45).
att(457,1955).
att(2139,1095).
att(292,1743).
att(300,1641).
att(350,1906).
att(92,1756).
att(350,1904).
att(1865,819).
att(131,1712).
att(244,1388).
att(144,1754).
att(98,1756).
att(242,1382).
att(1855,821).
att(1897,823).
att(354,1903).
att(436,1285).
att(276,1416).
att(135,1730).
att(441,1281).
att(468,1463).
att(125,1577).
att(464,1499).
att(1865,849).
att(247,2114).
att(126,1599).
att(252,2080).
att(465,1567).
att(252,2083).
att(443,1302).
att(361,1872).
att(128,1592).
att(1897,949).
att(442,1344).
att(240,2175).
att(252,2112).
att(329,1816).
att(1894,941).
att(126,1618).
att(365,1984).
att(1895,935).
att(126,1615).
att(357,1936).
att(245,2160).
att(439,1348).
att(339,1813).
att(278,1405).
att(353,1928).
att(324,1826).
att(457,1561).
att(1855,905).
att(333,1783).
att(469,1344).
att(137,1590).
att(252,2141).
att(1894,979).
att(446,1348).
att(1865,871).
att(157,1666).
att(443,1344).
att(278,2162).
att(436,1300).
att(1897,869).
att(1902,973).
att(92,1596).
att(1897,1024).
att(350,2011).
att(441,1427).
att(335,1850).
att(329,1839).
att(442,1396).
att(227,2146).
att(331,1834).
att(444,1497).
att(331,1838).
att(227,2133).
att(1897,937).
att(86,1634).
att(1855,949).
att(333,1820).
att(329,1846).
att(329,1847).
att(320,1824).
att(1902,1019).
att(130,1694).
att(88,1747).
att(1949,1313).
att(1949,1321).
att(126,1708).
att(446,1563).
att(139,1666).
att(323,1900).
att(144,1631).
att(248,2193).
att(331,1869).
att(444,1567).
att(323,1908).
att(221,2065).
att(469,1471).
att(130,1710).
att(1855,1001).
att(1949,1283).
att(339,1907).
att(92,1744).
att(1865,1019).
att(446,1502).
att(247,2203).
att(247,2062).
att(220,2080).
att(248,2204).
att(1943,1287).
att(249,2206).
att(440,1496).
att(161,1577).
att(508,1831).
att(278,2087).
att(163,1577).
att(508,1830).
att(171,1732).
att(1949,1365).
att(509,1826).
att(448,1349).
att(1944,1308).
att(441,1555).
att(171,1724).
att(243,2103).
att(274,2165).
att(499,1797).
att(268,2164).
att(264,2183).
att(278,2103).
att(448,1364).
att(161,1592).
att(1944,1326).
att(243,2146).
att(436,1430).
att(304,1408).
att(325,1874).
att(442,1567).
att(244,2135).
att(157,1621).
att(508,1783).
att(1943,1304).
att(161,1614).
att(1944,1343).
att(876,1760).
att(507,1814).
att(163,1615).
att(509,1851).
att(272,2177).
att(499,1812).
att(159,1638).
att(272,2176).
att(33,1863).
att(1947,1396).
att(174,1613).
att(307,2175).
att(304,2179).
att(339,2009).
att(270,2188).
att(1946,1423).
att(10,1915).
att(266,2206).
att(329,2003).
att(31,1887).
att(307,2181).
att(40,1898).
att(135,1618).
att(1944,1390).
att(1950,1326).
att(139,1622).
att(240,2203).
att(167,1669).
att(1946,1459).
att(240,2200).
att(1951,1323).
att(501,1835).
att(275,2195).
att(447,1498).
att(171,1666).
att(242,2200).
att(135,1634).
att(165,1701).
att(506,1849).
att(135,1637).
att(130,1738).
att(1950,1281).
att(130,1743).
att(1945,1391).
att(130,1750).
att(1915,1285).
att(245,2207).
att(1916,1287).
att(174,1666).
att(133,1747).
att(245,2204).
att(163,1711).
att(171,1716).
att(499,1874).
att(505,1958).
att(242,2060).
att(1952,1363).
att(502,1901).
att(1949,1565).
att(1914,1304).
att(174,1716).
att(504,1959).
att(278,2207).
att(488,1797).
att(1913,1304).
att(141,1754).
att(1918,1311).
att(502,1907).
att(244,2084).
att(240,2099).
att(1951,1307).
att(2060,2131).
att(230,972).
att(294,1085).
att(296,1086).
att(650,2240).
att(2062,2075).
att(35,1689).
att(2062,2154).
att(2206,1971).
att(659,2273).
att(228,763).
att(659,2272).
att(634,2277).
att(2064,2101).
att(288,1100).
att(1891,621).
att(288,1128).
att(631,2286).
att(631,2280).
att(668,2263).
att(2066,2075).
att(663,2268).
att(1408,1552).
att(227,789).
att(291,1130).
att(1408,1528).
att(2208,2008).
att(291,1126).
att(663,2272).
att(1920,670).
att(2202,1931).
att(1411,1603).
att(2064,2153).
att(1921,687).
att(634,2288).
att(1405,1529).
att(2135,114).
att(1891,711).
att(226,785).
att(144,271).
att(90,145).
att(1895,597).
att(1902,593).
att(1889,696).
att(300,1134).
att(86,95).
att(94,146).
att(2165,1647).
att(2200,2010).
att(103,1136).
att(84,136).
att(94,87).
att(96,105).
att(1415,1582).
att(2205,1997).
att(2208,1976).
att(2066,2167).
att(2202,1971).
att(2067,2169).
att(2201,2010).
att(2206,2054).
att(227,812).
att(655,2119).
att(665,2214).
att(1411,1642).
att(1410,1632).
att(2063,2098).
att(1865,593).
att(642,2214).
att(1865,591).
att(1405,1676).
att(2129,207).
att(2207,2089).
att(103,299).
att(2165,1650).
att(1919,729).
att(302,1121).
att(1382,1552).
att(1895,621).
att(2166,1723).
att(1376,1462).
att(2202,2091).
att(1378,1455).
att(1855,597).
att(307,1134).
att(640,2214).
att(1418,1559).
att(1898,590).
att(296,177).
att(661,2106).
att(610,2236).
att(1891,701).
att(2200,2049).
att(2139,99).
att(1919,735).
att(37,839).
att(1895,590).
att(650,2209).
att(1887,696).
att(298,140).
att(291,164).
att(1859,594).
att(1384,1455).
att(1897,632).
att(2139,205).
att(25,880).
att(1415,1676).
att(634,2145).
att(2141,185).
att(634,2143).
att(2127,114).
att(1883,699).
att(1897,691).
att(2196,1924).
att(226,923).
att(636,2235).
att(1898,691).
att(290,193).
att(648,2228).
att(636,2234).
att(2146,317).
att(2190,1923).
att(292,195).
att(644,2230).
att(633,2250).
att(2195,2006).
att(2141,315).
att(609,2239).
att(2202,2131).
att(634,2251).
att(2191,1933).
att(661,2150).
att(2135,229).
att(2206,2104).
att(230,933).
att(668,2148).
att(1865,641).
att(225,919).
att(650,2234).
att(2200,2078).
att(2144,260).
att(668,2134).
att(650,2230).
att(1416,1600).
att(644,2247).
att(1895,692).
att(2132,179).
att(2199,2095).
att(2206,2126).
att(292,1075).
att(1883,723).
att(2203,2071).
att(1898,704).
att(221,778).
att(655,2285).
att(1898,708).
att(137,271).
att(653,2287).
att(131,289).
att(2136,263).
att(248,787).
att(96,1103).
att(1895,699).
att(224,784).
att(2205,2168).
att(96,1097).
att(141,267).
att(654,2284).
att(2201,2100).
att(98,1106).
att(2132,314).
att(221,815).
att(2127,236).
att(130,95).
att(655,2212).
att(247,782).
att(2135,286).
att(139,308).
att(2144,312).
att(679,2287).
att(2144,315).
att(84,1157).
att(144,1103).
att(94,1119).
att(1859,672).
att(128,143).
att(1902,706).
att(96,1121).
att(128,146).
att(2127,229).
att(2189,1923).
att(86,1163).
att(655,2217).
att(246,814).
att(1863,695).
att(674,2117).
att(2188,2052).
att(1863,701).
att(243,854).
att(1863,699).
att(1378,1608).
att(252,818).
att(1865,698).
att(252,783).
att(2105,112).
att(2144,415).
att(654,2227).
att(223,831).
att(2102,203).
att(2146,402).
att(1417,1650).
att(2141,424).
att(2103,201).
att(275,856).
att(1378,1644).
att(2196,2051).
att(137,134).
att(2135,376).
att(674,2140).
att(137,176).
att(276,896).
att(2114,106).
att(1898,698).
att(125,172).
att(222,1654).
att(2136,279).
att(252,829).
att(1861,697).
att(220,1680).
att(2103,108).
att(247,892).
att(94,176).
att(2099,187).
att(634,2238).
att(220,884).
att(681,2117).
att(1386,1650).
att(1859,719).
att(663,2221).
att(659,2229).
att(2110,229).
att(1859,803).
att(1855,717).
att(246,888).
att(652,2150).
att(1855,723).
att(1376,1683).
att(1384,1649).
att(222,915).
att(652,2252).
att(2191,2076).
att(653,2258).
att(653,2255).
att(1894,717).
att(1388,1672).
att(1419,1726).
att(688,2140).
att(90,198).
att(688,2137).
att(1416,1723).
att(224,921).
att(227,1657).
att(2188,2033).
att(92,192).
att(228,1689).
att(660,2240).
att(86,1082).
att(684,2253).
att(661,2241).
att(2177,1925).
att(220,766).
att(2182,1996).
att(252,928).
att(2099,237).
att(230,1654).
att(231,1665).
att(126,267).
att(144,190).
att(220,747).
att(652,2278).
att(684,2262).
att(222,754).
att(2192,2071).
att(1386,1736).
att(248,952).
att(1944,592).
att(135,1136).
att(2190,1655).
att(2103,2094).
att(158,145).
att(275,778).
att(163,95).
att(441,735).
att(2189,1703).
att(158,97).
att(275,780).
att(1945,597).
att(131,1136).
att(2099,2015).
att(167,146).
att(443,800).
att(2197,1720).
att(865,2282).
att(277,781).
att(161,146).
att(169,293).
att(1944,593).
att(141,1130).
att(169,95).
att(441,699).
att(243,837).
att(2114,2076).
att(244,835).
att(266,882).
att(443,733).
att(274,856).
att(139,1152).
att(439,738).
att(676,2226).
att(616,564).
att(618,577).
att(2081,1931).
att(169,140).
att(863,2222).
att(2198,1585).
att(626,568).
att(2097,2058).
att(2198,1568).
att(266,925).
att(1949,691).
att(2087,1924).
att(861,2229).
att(675,2241).
att(274,923).
att(622,577).
att(2083,1937).
att(2179,1585).
att(891,2113).
att(245,1665).
att(1943,687).
att(1947,670).
att(863,2224).
att(2081,1926).
att(627,562).
att(2176,1600).
att(242,1685).
att(887,2150).
att(860,2249).
att(270,915).
att(1945,639).
att(158,198).
att(171,160).
att(626,573).
att(2196,1720).
att(864,2229).
att(2114,2070).
att(240,1697).
att(614,589).
att(165,172).
att(857,2254).
att(2099,2076).
att(1947,682).
att(852,2265).
att(891,2142).
att(307,882).
att(249,1654).
att(2081,1976).
att(2103,2187).
att(249,1652).
att(683,2238).
att(2081,1980).
att(1949,705).
att(2099,2125).
att(674,2249).
att(222,1679).
att(686,2226).
att(2086,1979).
att(2087,1978).
att(277,927).
att(252,1660).
att(673,2261).
att(681,2241).
att(2084,2050).
att(2179,1624).
att(275,923).
att(864,2148).
att(2081,2012).
att(2172,1589).
att(276,919).
att(2114,2101).
att(137,190).
att(244,964).
att(622,330).
att(2182,1645).
att(2087,1982).
att(676,2264).
att(863,2255).
att(2175,1586).
att(2085,1977).
att(2176,1583).
att(2081,1997).
att(276,762).
att(864,2259).
att(1944,699).
att(1948,743).
att(448,732).
att(2181,1676).
att(131,1084).
att(1916,632).
att(865,2267).
att(1942,741).
att(2083,2028).
att(2179,1673).
att(1916,645).
att(677,2277).
att(2083,2032).
att(2161,1554).
att(2085,2091).
att(275,789).
att(863,2269).
att(171,267).
att(159,110).
att(620,364).
att(2088,2031).
att(276,747).
att(131,1105).
att(627,367).
att(2177,1616).
att(126,1149).
att(126,1145).
att(676,2284).
att(2161,1458).
att(677,2287).
att(676,2281).
att(2157,1532).
att(169,1159).
att(1918,623).
att(2069,1925).
att(291,888).
att(1945,717).
att(638,565).
att(636,561).
att(876,2120).
att(2088,2138).
att(2172,1653).
att(2067,1927).
att(2064,1924).
att(1942,802).
att(294,895).
att(1913,611).
att(1942,798).
att(642,569).
att(648,417).
att(264,1658).
att(294,854).
att(1917,615).
att(2172,1704).
att(2176,1648).
att(875,2250).
att(1948,723).
att(926,2118).
att(29,1339).
att(448,805).
att(2184,1534).
att(2087,2091).
att(1915,629).
att(2161,1530).
att(307,836).
att(609,585).
att(31,1540).
att(300,884).
att(290,971).
att(264,1697).
att(2161,1532).
att(33,1546).
att(929,2143).
att(40,1546).
att(891,2232).
att(893,2231).
att(1952,706).
att(2061,2012).
att(2081,2100).
att(2158,1602).
att(302,1663).
att(2066,2000).
att(2162,1584).
att(2184,1645).
att(2077,2126).
att(2159,1581).
att(10,1358).
att(291,952).
att(2069,2035).
att(877,2266).
att(300,915).
att(274,1697).
att(33,1331).
att(290,766).
att(858,2242).
att(657,341).
att(661,336).
att(879,2262).
att(2068,2002).
att(642,600).
att(2066,1925).
att(23,1448).
att(296,960).
att(636,604).
att(2172,1719).
att(2172,1720).
att(302,1689).
att(1918,693).
att(35,1333).
att(298,964).
att(638,527).
att(2163,1585).
att(638,528).
att(2087,2123).
att(876,2273).
att(298,952).
att(300,766).
att(31,1353).
att(22,1260).
att(661,338).
att(2061,1925).
att(642,326).
att(2156,1608).
att(268,964).
att(860,2263).
att(1919,632).
att(163,1084).
att(1922,595).
att(1917,703).
att(887,2258).
att(10,1276).
att(1952,743).
att(2077,2169).
att(614,606).
att(2158,1616).
att(33,1267).
att(1889,594).
att(858,2267).
att(2060,2051).
att(274,958).
att(307,966).
att(853,2278).
att(614,535).
att(268,960).
att(2064,2031).
att(1922,592).
att(302,958).
att(893,2262).
att(627,599).
att(163,1099).
att(2069,2050).
att(2184,1626).
att(2062,2004).
att(638,368).
att(1920,594).
att(2163,1612).
att(852,2284).
att(2159,1632).
att(174,1080).
att(891,2260).
att(268,789).
att(2065,2074).
att(650,370).
att(2060,2076).
att(2157,1672).
att(2061,2090).
att(887,2277).
att(893,2269).
att(855,2286).
att(171,1103).
att(1919,623).
att(31,1456).
att(1918,725).
att(10,1489).
att(270,780).
att(2164,1529).
att(165,1104).
att(1887,647).
att(609,422).
att(857,2212).
att(2206,1933).
att(2062,2079).
att(2066,2056).
att(2160,1718).
att(1883,651).
att(648,364).
att(1405,1556).
att(290,859).
att(169,1136).
att(161,1142).
att(1413,1466).
att(855,2212).
att(2066,2034).
att(2158,1625).
att(2183,1655).
att(304,779).
att(165,1159).
att(638,561).
att(2164,1528).
att(887,2209).
att(1408,1468).
att(2164,1533).
att(2067,2092).
att(2062,2014).
att(2064,2091).
att(33,1481).
att(609,562).
att(167,1153).
att(272,808).
att(646,410).
att(167,1159).
att(294,440).
att(1891,36).
att(1891,42).
att(2061,1642).
att(2065,1608).
att(2162,1138).
att(1415,1020).
att(1920,12).
att(466,597).
att(479,705).
att(292,464).
att(1891,28).
att(294,461).
att(2160,1116).
att(22,138).
att(488,705).
att(23,136).
att(27,1163).
att(2061,1585).
att(1918,149).
att(227,146).
att(482,671).
att(103,459).
att(37,1145).
att(1408,940).
att(1889,38).
att(31,1159).
att(31,1157).
att(479,670).
att(2064,1645).
att(228,87).
att(1922,30).
att(481,741).
att(2200,1458).
att(485,737).
att(485,741).
att(1887,54).
att(24,176).
att(90,1861).
att(483,719).
att(231,129).
att(487,800).
att(1889,46).
att(2164,1095).
att(2062,1677).
att(2199,1454).
att(1921,43).
att(467,635).
att(290,335).
att(296,509).
att(485,700).
att(2061,1612).
att(101,486).
att(84,1887).
att(2208,1468).
att(466,632).
att(1920,44).
att(1403,996).
att(2206,1566).
att(92,1895).
att(484,735).
att(292,320).
att(92,1897).
att(1411,1071).
att(1891,78).
att(174,2132).
att(291,1895).
att(21,1765).
att(2204,1534).
att(10,198).
att(2201,1526).
att(1895,5).
att(1920,147).
att(2146,2010).
att(1920,148).
att(457,625).
att(1889,65).
att(2062,1718).
att(2202,1603).
att(272,506).
att(2205,1588).
att(31,166).
att(33,199).
att(2,1765).
att(2199,1530).
att(481,791).
att(2063,1726).
att(33,191).
att(266,348).
att(268,339).
att(296,1920).
att(264,350).
att(307,502).
att(488,798).
att(302,508).
att(2061,1673).
att(1413,1048).
att(2165,1094).
att(298,1897).
att(465,611).
att(270,333).
att(298,1894).
att(7,1763).
att(1919,66).
att(482,725).
att(1881,50).
att(265,350).
att(1410,1094).
att(33,192).
att(2064,1718).
att(1403,1146).
att(2127,2008).
att(467,713).
att(1419,1022).
att(1891,149).
att(291,1952).
att(468,705).
att(291,1943).
att(1895,15).
att(300,1951).
att(292,1943).
att(2132,2000).
att(461,709).
att(2133,1976).
att(2201,1569).
att(466,699).
att(1417,981).
att(1883,150).
att(1891,65).
att(101,1952).
att(1898,8).
att(1418,942).
att(29,1104).
att(463,691).
att(1922,149).
att(29,1106).
att(40,1075).
att(103,1951).
att(2144,2012).
att(29,1105).
att(35,1081).
att(465,666).
att(2208,1587).
att(103,1944).
att(1895,36).
att(2146,1982).
att(1919,83).
att(1417,1018).
att(288,443).
att(2199,1607).
att(467,741).
att(1865,11).
att(247,97).
att(1894,53).
att(2197,1454).
att(230,1119).
att(1413,1173).
att(2204,1626).
att(465,717).
att(465,725).
att(2208,1651).
att(2201,1623).
att(439,594).
att(2204,1681).
att(2190,1470).
att(1902,51).
att(440,595).
att(2195,1556).
att(86,484).
att(1403,1174).
att(1417,1033).
att(457,698).
att(469,651).
att(467,701).
att(92,488).
att(1859,32).
att(1894,17).
att(1893,117).
att(2204,1645).
att(1895,11).
att(84,504).
att(252,127).
att(144,485).
att(126,1893).
att(144,481).
att(1887,210).
att(2139,2051).
att(1415,1172).
att(1861,14).
att(2195,1452).
att(249,175).
att(1881,122).
att(462,701).
att(84,339).
att(2200,1648).
att(137,1855).
att(2207,1719).
att(144,499).
att(1895,63).
att(2194,1601).
att(126,1918).
att(1861,75).
att(89,323).
att(249,199).
att(459,719).
att(462,798).
att(2191,1529).
att(462,733).
att(1378,1070).
att(2196,1559).
att(221,1085).
att(1378,1052).
att(2200,1703).
att(137,1891).
att(1386,1052).
att(1388,1065).
att(2197,1556).
att(222,1081).
att(1895,43).
att(144,323).
att(89,361).
att(247,1081).
att(461,717).
att(2146,2058).
att(2194,1533).
att(89,353).
att(220,1096).
att(1902,74).
att(2132,2028).
att(2191,1552).
att(2103,2006).
att(228,191).
att(88,1914).
att(1378,1074).
att(288,357).
att(441,693).
att(84,1950).
att(441,691).
att(2114,2002).
att(96,1902).
att(2144,2124).
att(296,348).
att(2136,2124).
att(89,1913).
att(231,192).
att(1859,151).
att(2146,2169).
att(228,1087).
att(298,324).
att(2188,1602).
att(440,672).
att(2195,1647).
att(2133,2124).
att(2114,1926).
att(2189,1528).
att(445,692).
att(2114,1925).
att(1863,77).
att(89,1952).
att(1865,73).
att(2192,1529).
att(2129,2075).
att(2192,1528).
att(2193,1530).
att(439,690).
att(2194,1568).
att(440,692).
att(2103,1926).
att(2112,2033).
att(2132,2173).
att(1863,124).
att(89,447).
att(103,365).
att(1894,210).
att(248,305).
att(2196,1681).
att(224,104).
att(248,271).
att(444,735).
att(249,305).
att(227,1101).
att(2102,2048).
att(25,1130).
att(86,457).
att(1902,216).
att(222,143).
att(225,1126).
att(446,704).
att(1418,1139).
att(2196,1642).
att(2114,1982).
att(2127,2104).
att(442,662).
att(1865,149).
att(2192,1585).
att(2196,1630).
att(442,671).
att(96,444).
att(1388,1116).
att(2194,1612).
att(436,666).
att(1895,188).
att(2097,2006).
att(98,436).
att(1861,120).
att(246,110).
att(448,1).
att(626,2115).
att(325,615).
att(333,689).
att(1897,1985).
att(333,691).
att(2196,1089).
att(2192,1111).
att(620,2109).
att(2129,1720).
att(158,1855).
att(2192,1078).
att(622,2137).
att(444,151).
att(133,507).
att(436,73).
att(169,1855).
att(1855,1961).
att(1855,1958).
att(339,685).
att(325,649).
att(275,172).
att(626,2142).
att(2103,1533).
att(441,50).
att(135,503).
att(2105,1559).
att(243,192).
att(2196,1092).
att(328,621).
att(357,800).
att(277,172).
att(167,1887).
att(443,70).
att(277,168).
att(169,1895).
att(734,2261).
att(174,1865).
att(1861,1930).
att(133,325).
att(436,47).
att(333,708).
att(2099,1582).
att(1949,36).
att(620,2258).
att(622,2267).
att(1942,39).
att(277,198).
att(2116,1624).
att(161,1950).
att(2179,993).
att(331,697).
att(443,213).
att(277,192).
att(277,191).
att(161,1912).
att(2103,1583).
att(2191,1170).
att(618,2273).
att(163,1942).
att(135,350).
att(243,1100).
att(265,306).
att(442,65).
att(2114,1587).
att(158,1946).
att(2105,1602).
att(2182,944).
att(167,447).
att(2178,934).
att(2197,1138).
att(329,707).
att(244,1103).
att(2116,1644).
att(614,2279).
att(2180,1017).
att(16,1766).
att(439,149).
att(2116,1630).
att(2180,1029).
att(2110,1648).
att(246,1079).
att(2112,1651).
att(130,1948).
att(2099,1623).
att(2172,981).
att(2099,1608).
att(325,743).
att(126,443).
att(96,365).
att(252,1075).
att(499,590).
att(2083,1468).
att(96,355).
att(1943,58).
att(223,1096).
att(249,1083).
att(224,1103).
att(135,1948).
att(448,55).
att(2191,1174).
att(2177,1017).
att(2181,993).
att(2189,1114).
att(2188,1116).
att(1949,19).
att(126,469).
att(244,306).
att(1945,34).
att(2178,1017).
att(2182,993).
att(2182,994).
att(2182,1052).
att(2182,1054).
att(442,188).
att(2178,980).
att(2084,1462).
att(224,1126).
att(224,1128).
att(59,1758).
att(2175,1092).
att(135,446).
att(2102,1718).
att(2172,1045).
att(128,463).
att(508,691).
att(243,95).
att(333,805).
att(2087,1601).
att(447,78).
att(1949,43).
att(2181,1045).
att(448,77).
att(2114,1674).
att(325,744).
att(2105,1673).
att(2082,1564).
att(335,805).
att(2087,1534).
att(616,2118).
att(1943,46).
att(508,617).
att(2085,1530).
att(618,2115).
att(616,2106).
att(40,882).
att(27,915).
att(505,713).
att(163,339).
att(2180,1118).
att(163,323).
att(304,173).
att(1950,26).
att(158,335).
att(265,198).
att(2086,1585).
att(2198,1118).
att(1949,150).
att(2198,1116).
att(2182,1112).
att(1945,154).
att(646,2254).
att(158,348).
att(159,350).
att(1942,155).
att(1951,36).
att(642,2255).
att(27,766).
att(2175,1077).
att(161,355).
att(447,153).
att(650,2253).
att(1950,3).
att(2176,1078).
att(2177,1111).
att(2099,1719).
att(2077,1504).
att(503,625).
att(646,2267).
att(2082,1604).
att(272,1082).
att(165,355).
att(272,1081).
att(2082,1588).
att(2179,1141).
att(2179,1143).
att(1943,66).
att(290,293).
att(505,742).
att(35,960).
att(28,1763).
att(35,958).
att(307,1075).
att(2068,1466).
att(169,348).
att(2081,1609).
att(502,709).
att(2163,1000).
att(265,1130).
att(487,651).
att(2088,1653).
att(300,301).
att(1913,11).
att(646,2270).
att(499,699).
att(36,1761).
att(2156,999).
att(2156,981).
att(2084,1677).
att(2084,1616).
att(103,309).
att(447,210).
att(1947,189).
att(506,708).
att(294,297).
att(508,694).
att(35,754).
att(636,2288).
att(40,747).
att(29,785).
att(644,2273).
att(304,1128).
att(1915,18).
att(2163,980).
att(1915,19).
att(1943,107).
att(1947,218).
att(1947,213).
att(171,448).
att(488,629).
att(1952,73).
att(2061,1564).
att(2068,1529).
att(1952,79).
att(2157,1032).
att(2183,1108).
att(165,448).
att(489,619).
att(482,592).
att(2068,1532).
att(612,2280).
att(2158,1054).
att(240,1157).
att(2159,1049).
att(2158,1031).
att(2064,1531).
att(1913,43).
att(2063,1564).
att(2083,1674).
att(507,777).
att(2087,1718).
att(2161,1108).
att(278,1128).
att(616,2212).
att(1951,48).
att(1952,47).
att(489,647).
att(2085,1649).
att(626,2280).
att(270,95).
att(2088,1649).
att(2172,1177).
att(171,441).
att(272,102).
att(159,488).
att(507,732).
att(1912,56).
att(2087,1650).
att(165,457).
att(2082,1675).
att(264,136).
att(167,461).
att(1951,43).
att(616,2219).
att(161,486).
att(610,2140).
att(488,662).
att(1951,155).
att(270,176).
att(1950,148).
att(636,2113).
att(2163,1168).
att(10,882).
att(265,164).
att(2158,1073).
att(2158,1078).
att(159,509).
att(2067,1587).
att(165,482).
att(33,890).
att(161,487).
att(167,486).
att(622,2221).
att(157,501).
att(1916,154).
att(169,481).
att(644,2120).
att(270,173).
att(1918,76).
att(272,177).
att(483,617).
att(612,2232).
att(265,191).
att(479,615).
att(1920,6).
att(159,324).
att(1915,70).
att(481,615).
att(264,191).
att(499,796).
att(627,2224).
att(734,2241).
att(1075,1720).
att(785,682).
att(1266,1735).
att(1509,1187).
att(781,617).
att(1253,1755).
att(1250,1753).
att(1159,1925).
att(1509,1188).
att(923,69).
att(884,78).
att(1291,2087).
att(1250,1755).
att(198,1585).
att(878,67).
att(1153,1996).
att(1517,1062).
att(1517,1055).
att(880,70).
att(748,2039).
att(1507,1199).
att(1163,1929).
att(1290,2112).
att(1080,1720).
att(110,1078).
att(1272,1722).
att(193,1552).
att(1507,1195).
att(745,2041).
att(47,1767).
att(1314,1405).
att(1268,1571).
att(1297,2110).
att(46,1762).
att(1510,1194).
att(1082,1737).
att(100,1072).
att(45,1763).
att(761,2022).
att(46,1759).
att(1292,2108).
att(1511,1192).
att(1517,1181).
att(293,1116).
att(932,216).
att(892,38).
att(110,1178).
att(1266,1580).
att(1301,2116).
att(781,666).
att(1087,1616).
att(882,153).
att(1303,2088).
att(888,16).
att(1549,1197).
att(878,115).
att(1247,1610).
att(105,1176).
att(761,2037).
att(748,1896).
att(308,995).
att(192,1642).
att(817,701).
att(1142,1925).
att(197,1581).
att(1087,1630).
att(818,710).
att(928,150).
att(1509,1217).
att(193,1605).
att(923,152).
att(1247,1613).
att(198,1586).
att(878,65).
att(1515,1207).
att(1247,1629).
att(1257,1669).
att(878,154).
att(1305,2133).
att(299,1146).
att(890,8).
att(102,1114).
att(890,7).
att(1299,2144).
att(890,9).
att(1315,2172).
att(1290,2180).
att(892,54).
att(817,733).
att(289,1173).
att(1515,1161).
att(787,637).
att(306,1065).
att(1291,2182).
att(759,1775).
att(785,741).
att(1517,1166).
att(193,1676).
att(854,55).
att(1297,2178).
att(761,1788).
att(1255,1590).
att(193,1681).
att(198,1655).
att(198,1653).
att(303,1050).
att(191,1703).
att(963,1852).
att(1484,1203).
att(758,590).
att(295,1173).
att(199,1462).
att(1155,2014).
att(745,1969).
att(780,707).
att(1480,1218).
att(959,1885).
att(1253,1617).
att(1303,2183).
att(1303,2163).
att(301,995).
att(1159,2051).
att(1251,1634).
att(301,1068).
att(782,744).
att(267,993).
att(299,1177).
att(1248,1661).
att(168,1468).
att(779,696).
att(880,210).
att(878,213).
att(783,739).
att(890,15).
att(1507,1013).
att(1519,982).
att(305,996).
att(890,20).
att(788,691).
att(162,1535).
att(1134,1925).
att(760,617).
att(1145,2058).
att(1253,1631).
att(897,71).
att(1268,1671).
att(200,1607).
att(164,1562).
att(1233,1744).
att(1505,1040).
att(1521,1214).
att(197,1726).
att(1149,2073).
att(273,1094).
att(888,63).
att(1305,2195).
att(761,1969).
att(778,791).
att(1511,1041).
att(761,1967).
att(747,628).
att(301,1078).
att(301,1071).
att(162,1529).
att(1507,1044).
att(1513,1041).
att(758,647).
att(760,637).
att(164,1464).
att(897,81).
att(1155,2056).
att(1163,2070).
att(1515,1042).
att(1163,2074).
att(785,729).
att(785,723).
att(1250,1743).
att(198,1736).
att(753,1989).
att(194,1674).
att(1254,1740).
att(1251,1749).
att(1252,1746).
att(1292,2066).
att(1249,1711).
att(1299,2202).
att(1451,1727).
att(305,1169).
att(1145,2096).
att(1324,2081).
att(859,68).
att(1142,2152).
att(1445,1730).
att(1147,2104).
att(1314,2110).
att(57,1763).
att(309,1176).
att(166,1587).
att(1124,1977).
att(1309,2156).
att(1327,2085).
att(856,152).
att(1152,2101).
att(1315,2108).
att(1451,1733).
att(1259,1578).
att(1322,2086).
att(269,1168).
att(896,124).
att(1257,1590).
att(1145,2124).
att(1128,1924).
att(305,1090).
att(1134,2010).
att(1136,2002).
att(886,67).
att(1228,1408).
att(1324,2097).
att(301,1169).
att(888,150).
att(1262,1594).
att(59,1766).
att(1126,2004).
att(199,1705).
att(1126,2031).
att(1134,2030).
att(762,593).
att(1134,2032).
att(177,1470).
att(789,744).
att(305,1177).
att(175,1566).
att(1309,2197).
att(958,594).
att(1256,1640).
att(1123,2051).
att(1449,1599).
att(1230,2163).
att(1433,1667).
att(747,698).
att(1117,2047).
att(1226,2177).
att(267,1173).
att(1230,2160).
att(1231,2183).
att(162,1623).
att(1117,2053).
att(1126,2027).
att(890,122).
att(305,1138).
att(752,666).
att(164,1585).
att(309,1177).
att(1261,1635).
att(1229,2190).
att(1309,2207).
att(1225,2200).
att(747,709).
att(749,708).
att(1309,2199).
att(168,1616).
att(788,798).
att(1119,2089).
att(755,1890).
att(1134,2075).
att(138,1562).
att(762,621).
att(175,1531).
att(763,611).
att(1314,2191).
att(164,1649).
att(958,619).
att(173,1720).
att(1517,1219).
att(1288,2201).
att(1322,2182).
att(1248,1634).
att(1288,2199).
att(1248,1631).
att(1124,2058).
att(1315,2188).
att(1322,2175).
att(1249,1743).
att(1117,2031).
att(1117,2014).
att(788,731).
att(760,737).
att(958,630).
att(1247,1747).
att(1256,1715).
att(1445,1664).
att(789,733).
att(958,597).
att(754,736).
att(760,731).
att(1130,2090).
att(763,621).
att(754,731).
att(1257,1707).
att(129,1458).
att(749,738).
att(136,1570).
att(1126,2101).
att(766,670).
att(50,1766).
att(164,1737).
att(50,1759).
att(132,1600).
att(1121,2154).
att(958,670).
att(1288,2087).
att(140,1568).
att(1309,1378).
att(1270,1747).
att(1288,2082).
att(1315,2066).
att(1130,2107).
att(1119,2070).
att(1324,2069).
att(1312,2085).
att(1259,1722).
att(1259,1730).
att(1224,1386).
att(1324,2063).
att(134,1605).
att(1256,1571).
att(1257,1580).
att(1264,1733).
att(960,693).
att(1264,1728).
att(1227,1416).
att(1257,1577).
att(1654,741).
att(833,597).
att(1105,1552).
att(1443,1593).
att(1439,1599).
att(1117,1681).
att(834,590).
att(1224,2133).
att(1224,2129).
att(1102,1468).
att(1237,2162).
att(1106,1532).
att(1134,1723).
att(1670,804).
att(1228,2139).
att(1241,2157).
att(836,623).
att(1657,739).
att(1652,740).
att(1435,1615).
att(1652,744).
att(1221,2191).
att(1236,2179).
att(1474,1664).
att(758,208).
att(1117,1616).
att(1240,2161).
att(758,214).
att(1126,1681).
att(1237,2178).
att(175,1045).
att(134,1069).
att(832,597).
att(1136,1653).
att(1242,2183).
att(1435,1631).
att(749,208).
att(149,1758).
att(833,621).
att(964,73).
att(1477,1686).
att(132,1094).
att(140,1078).
att(829,629).
att(1657,803).
att(830,617).
att(832,693).
att(1435,1741).
att(1493,1635).
att(1660,803).
att(1474,1709).
att(1488,1638).
att(1521,1659).
att(1433,1750).
att(1488,1637).
att(831,629).
att(1241,2201).
att(1478,1708).
att(1477,1706).
att(836,692).
att(1238,2205).
att(1123,1650).
att(1101,1646).
att(1231,2196).
att(145,1027).
att(966,36).
att(1231,2188).
att(1439,1688).
att(1225,2207).
att(1447,1741).
att(97,1025).
att(835,700).
att(964,83).
att(1229,2199).
att(1309,2067).
att(143,999).
att(831,709).
att(148,1761).
att(1310,2066).
att(832,712).
att(960,124).
att(1449,1636).
att(1433,1729).
att(837,670).
att(1101,1570).
att(1439,1710).
att(834,693).
att(1259,1750).
att(143,1017).
att(151,1764).
att(952,63).
att(1262,1755).
att(952,70).
att(954,63).
att(1493,1693).
att(95,996).
att(93,1051).
att(815,594).
att(1437,1733).
att(830,703).
att(1437,1722).
att(146,1064).
att(964,210).
att(146,1067).
att(814,630).
att(1228,2066).
att(1222,1411).
att(831,737).
att(1238,1388).
att(839,635).
att(911,19).
att(1443,1724).
att(919,17).
att(815,590).
att(919,38).
att(962,117).
att(1228,2084).
att(1439,1575).
att(766,214).
att(1222,2165).
att(177,1174).
att(1222,2164).
att(1225,2133).
att(1222,2162).
att(1106,1683).
att(831,703).
att(954,107).
att(87,1020).
att(837,791).
att(1096,1648).
att(833,731).
att(833,732).
att(1297,1897).
att(1082,1535).
att(808,639).
att(1075,1559).
att(1299,1861).
att(1083,1588).
att(1507,1659).
att(1474,1741).
att(1076,1458).
att(87,1068).
att(87,1054).
att(921,54).
att(1232,2199).
att(1096,1681).
att(837,732).
att(1291,1918).
att(1510,1667).
att(1255,2193).
att(1083,1530).
att(1079,1559).
att(1519,1700).
att(1523,1629).
att(1507,1688).
att(919,58).
att(1084,1632).
att(1478,1750).
att(815,662).
att(812,682).
att(1301,1914).
att(1082,1602).
att(1297,1951).
att(95,1148).
att(1251,2061).
att(925,41).
att(1255,2199).
att(915,155).
att(808,682).
att(1507,1712).
att(1511,1709).
att(932,42).
att(143,1139).
att(839,706).
att(839,707).
att(1293,1943).
att(91,1146).
att(1301,1946).
att(93,1078).
att(1505,1728).
att(813,689).
att(833,803).
att(1297,1947).
att(1305,447).
att(146,1151).
att(966,155).
att(1233,2099).
att(810,689).
att(1084,1583).
att(917,69).
att(1249,1382).
att(1084,1582).
att(145,1180).
att(878,32).
att(1439,1757).
att(1482,1713).
att(921,113).
att(878,26).
att(1237,2067).
att(923,18).
att(1482,1706).
att(1222,2088).
att(1523,1709).
att(814,737).
att(783,597).
att(196,1452).
att(295,996).
att(289,1017).
att(1486,1711).
att(808,705).
att(911,113).
att(1084,1702).
att(928,28).
att(297,930).
att(919,147).
att(1076,1586).
att(93,1122).
att(66,1759).
att(145,1115).
att(1076,1568).
att(1493,1751).
att(1085,1630).
att(1236,2077).
att(878,42).
att(70,1766).
att(932,17).
att(1235,2164).
att(809,711).
att(1086,1616).
att(1478,1572).
att(839,697).
att(1486,1734).
att(839,701).
att(1474,1590).
att(933,79).
att(1080,1673).
att(1236,2110).
att(1080,1648).
att(1474,1593).
att(1521,1734).
att(105,1045).
att(782,641).
att(1255,1416).
att(1476,1590).
att(816,723).
att(923,51).
att(1237,2116).
att(925,43).
att(195,1531).
att(782,629).
att(198,1533).
att(779,639).
att(195,1528).
att(1241,2108).
att(1241,2097).
att(1083,1736).
att(817,611).
att(1478,1590).
att(85,1178).
att(1087,1558).
att(818,649).
att(919,218).
att(811,694).
att(1084,1653).
att(297,998).
att(919,216).
att(299,994).
att(919,188).
att(195,1556).
att(102,1049).
att(880,62).
att(295,1064).
att(817,651).
att(780,2).
att(750,1550).
att(1266,1166).
att(675,1864).
att(1253,1192).
att(811,150).
att(781,2).
att(1549,395).
att(781,7).
att(1085,1138).
att(746,1550).
att(751,1485).
att(811,154).
att(218,1761).
att(1250,1193).
att(781,9).
att(923,1909).
att(1275,1131).
att(1233,1216).
att(1505,574).
att(676,1856).
att(880,1832).
att(855,1786).
att(1082,1116).
att(677,1852).
att(196,998).
att(864,2043).
att(889,1794).
att(1253,1209).
att(750,1542).
att(1250,1208).
att(811,72).
att(673,1890).
att(1081,1074).
att(1248,988).
att(816,83).
att(753,1543).
att(1248,986).
att(925,1837).
att(191,946).
att(887,1792).
att(191,942).
att(814,115).
att(748,1541).
att(810,151).
att(1087,1046).
att(864,1880).
att(1252,1213).
att(1312,1700).
att(895,1797).
att(818,45).
att(895,1783).
att(928,1869).
att(1697,637).
att(755,1542).
att(785,55).
att(782,54).
att(1314,1700).
att(889,1781).
att(1254,1207).
att(1505,587).
att(778,12).
att(1159,1554).
att(193,1052).
att(746,1354).
att(783,46).
att(1303,1610).
att(1305,1617).
att(748,1361).
att(1305,1620).
att(855,1970).
att(932,1961).
att(1163,1454).
att(192,998).
att(1697,591).
att(811,107).
att(1268,1016).
att(1080,1176).
att(1076,1122).
att(1085,1173).
att(812,117).
att(194,1022).
att(751,1354).
att(811,188).
att(1275,1015).
att(809,208).
att(880,1899).
att(1082,1173).
att(1297,1746).
att(1316,1694).
att(196,1069).
att(887,1968).
att(1299,1640).
att(1155,1607).
att(190,1045).
att(927,1928).
att(1682,608).
att(1695,685).
att(1290,1688).
att(818,64).
att(785,73).
att(1290,1692).
att(884,1957).
att(884,1954).
att(884,1960).
att(1242,1214).
att(194,1107).
att(753,1265).
att(778,80).
att(1511,338).
att(198,1072).
att(1511,337).
att(1679,623).
att(878,1911).
att(890,1823).
att(779,76).
att(677,1963).
att(783,71).
att(1695,680).
att(1147,1526).
att(882,1869).
att(1163,1526).
att(818,74).
att(1142,1464).
att(1290,1714).
att(862,1993).
att(884,1868).
att(1163,1533).
att(751,1267).
att(1509,356).
att(197,1033).
att(863,1973).
att(1157,1560).
att(854,1800).
att(753,1260).
att(923,1936).
att(1235,1061).
att(1478,526).
att(1155,1526).
att(1292,1708).
att(1519,332).
att(1293,1708).
att(1478,540).
att(784,152).
att(1293,1730).
att(784,150).
att(1142,1603).
att(760,7).
att(882,2009).
att(1291,1731).
att(760,6).
att(895,1837).
att(1682,693).
att(745,1436).
att(200,1023).
att(764,1352).
att(676,2025).
att(956,1406).
att(854,1848).
att(166,946).
att(198,1115).
att(676,2018).
att(782,124).
att(1292,1733).
att(1292,1732).
att(195,1115).
att(677,2017).
att(779,147).
att(783,113).
att(1687,705).
att(965,1374).
att(1513,370).
att(1679,669).
att(789,30).
att(953,1412).
att(965,1380).
att(1477,557).
att(1253,1187).
att(1480,546).
att(751,1494).
att(818,152).
att(1507,410).
att(1250,1185).
att(927,1984).
att(895,1848).
att(759,1450).
att(865,1991).
att(781,80).
att(782,147).
att(1523,545).
att(168,940).
att(1249,1132).
att(1679,692).
att(750,1520).
att(1145,1607).
att(1293,1579).
att(788,7).
att(195,1148).
att(1315,1610).
att(1445,1158).
att(787,58).
att(1155,1683).
att(200,1069).
att(857,1890).
att(1136,1464).
att(1262,988).
att(891,1896).
att(1142,1616).
att(1256,1011).
att(1124,1460).
att(1149,1616).
att(1257,1011).
att(168,1052).
att(1124,1468).
att(1668,630).
att(1270,1205).
att(1668,591).
att(893,1854).
att(860,1880).
att(1153,1676).
att(788,55).
att(783,188).
att(1270,1211).
att(162,1029).
att(817,210).
att(1324,1619).
att(779,120).
att(789,17).
att(892,1832).
att(1272,1213).
att(1451,983).
att(1324,1615).
att(1272,1220).
att(892,1840).
att(818,213).
att(785,115).
att(754,36).
att(883,1806).
att(889,1890).
att(888,1901).
att(1684,705).
att(886,1908).
att(1226,1699).
att(160,1022).
att(1149,1630).
att(1679,704).
att(891,1886).
att(1152,1632).
att(924,1806).
att(879,1970).
att(1224,1694).
att(789,75).
att(881,1963).
att(1134,1529).
att(199,1095).
att(926,1801).
att(881,1965).
att(892,1960).
att(1229,1671).
att(876,1964).
att(1136,1535).
att(1682,731).
att(1256,1060).
att(1682,732).
att(1312,1750).
att(1256,1055).
att(854,1941).
att(1262,1035).
att(1230,1669).
att(1449,1006).
att(1668,613).
att(1126,1529).
att(170,1031).
att(1264,1058).
att(1155,1673).
att(1680,742).
att(1225,1711).
att(1155,1656).
att(1228,1698).
att(760,59).
att(1128,1466).
att(1229,1698).
att(1318,1747).
att(1142,1681).
att(1691,725).
att(1149,1676).
att(1320,1756).
att(166,1051).
att(875,2019).
att(756,48).
att(788,47).
att(1153,1651).
att(885,1986).
att(1153,1649).
att(1654,594).
att(176,938).
att(788,155).
att(762,6).
att(1657,617).
att(1295,1741).
att(1663,692).
att(754,65).
att(200,1112).
att(1549,607).
att(175,1027).
att(747,65).
att(164,1077).
att(854,2001).
att(891,1965).
att(1327,1692).
att(1510,527).
att(1510,519).
att(1248,1057).
att(1510,521).
att(854,1984).
att(856,2013).
att(1510,535).
att(756,154).
att(1312,1732).
att(749,82).
att(1126,1607).
att(748,1407).
att(1668,685).
att(892,1930).
att(1314,1734).
att(857,2021).
att(1663,623).
att(1266,1053).
att(757,1374).
att(1689,803).
att(1303,1753).
att(754,67).
att(1665,670).
att(1684,800).
att(173,1074).
att(754,68).
att(1123,1531).
att(888,2005).
att(891,1989).
att(1152,1737).
att(1248,1184).
att(1511,546).
att(891,1987).
att(168,1078).
att(1668,680).
att(1249,1185).
att(170,1088).
att(749,77).
att(1315,1724).
att(1322,1708).
att(1261,1166).
att(1126,1625).
att(757,1409).
att(1519,555).
att(1126,1609).
att(857,2039).
att(757,1399).
att(787,212).
att(1663,705).
att(175,995).
att(134,994).
att(173,1173).
att(1123,1646).
att(1288,1595).
att(1104,1468).
att(1117,1643).
att(1327,1729).
att(1270,1190).
att(766,13).
att(766,26).
att(129,946).
att(962,5).
att(958,4).
att(762,36).
att(1256,1161).
att(1314,1594).
att(1245,1202).
att(787,189).
att(960,38).
att(1256,983).
att(1665,702).
att(747,156).
att(929,1773).
att(160,1170).
att(1249,1207).
att(1117,1585).
att(1270,1197).
att(967,1780).
att(1126,1091).
att(1224,1635).
att(1670,63).
att(924,1885).
att(1222,1699).
att(1241,1669).
att(922,1974).
att(1222,1688).
att(1658,72).
att(910,1963).
att(916,1967).
att(912,1999).
att(1226,1635).
att(1443,1036).
att(1668,75).
att(1437,1037).
att(1134,1111).
att(1230,1629).
att(1310,1751).
att(1119,1033).
att(1128,1050).
att(1488,1011).
att(1657,54).
att(762,1830).
att(1237,1688).
att(1663,51).
att(1439,1053).
att(1434,1057).
att(954,1797).
att(1130,1093).
att(1223,1708).
att(1239,1694).
att(1225,1750).
att(765,1826).
att(1433,1061).
att(1240,1694).
att(838,41).
att(834,8).
att(1128,1170).
att(829,4).
att(1657,151).
att(1106,981).
att(1238,1714).
att(1665,218).
att(1100,1018).
att(1665,213).
att(1434,1181).
att(1660,107).
att(1123,1140).
att(916,2016).
att(1242,1708).
att(1474,1127).
att(1119,1090).
att(964,1813).
att(969,2024).
att(1240,1735).
att(835,21).
att(1476,1127).
att(913,2044).
att(1488,1055).
att(1128,1088).
att(1103,934).
att(957,1768).
att(1477,1127).
att(920,2018).
att(1658,152).
att(763,1839).
att(1657,67).
att(952,1819).
att(1121,1078).
att(960,1850).
att(1124,1144).
att(960,1851).
att(837,8).
att(837,1).
att(1101,1069).
att(875,2039).
att(962,1906).
att(1228,1711).
att(837,59).
att(766,1870).
att(834,11).
att(876,2046).
att(838,59).
att(1228,1706).
att(968,1797).
att(829,11).
att(1449,1063).
att(1447,1184).
att(1309,1573).
att(1435,1131).
att(1310,1580).
att(924,2024).
att(1652,218).
att(1124,1171).
att(1652,120).
att(918,1777).
att(1231,1724).
att(1261,1200).
att(834,28).
att(881,2039).
att(1224,1576).
att(1134,1178).
att(1106,1000).
att(883,2043).
att(885,1866).
att(1443,1167).
att(1663,213).
att(1229,1573).
att(1100,995).
att(1433,1165).
att(929,2017).
att(912,1786).
att(1262,1193).
att(1257,1212).
att(1310,1615).
att(969,1778).
att(954,1958).
att(879,1852).
att(1259,1208).
att(1439,1164).
att(1105,1108).
att(1105,1092).
att(1261,1214).
att(835,67).
att(922,1792).
att(964,1910).
att(1443,992).
att(883,1853).
att(952,1956).
att(1449,1198).
att(875,1886).
att(910,1780).
att(911,1797).
att(1227,1595).
att(1437,992).
att(969,1784).
att(1451,1203).
att(962,1877).
att(1437,984).
att(833,55).
att(964,1958).
att(1441,989).
att(1222,1666).
att(1493,992).
att(917,1800).
att(883,1878).
att(967,1784).
att(1437,991).
att(1221,1701).
att(1474,1057).
att(954,2013).
att(1250,1715).
att(837,154).
att(1521,1007).
att(1242,1631).
att(1254,1659).
att(966,1845).
att(1255,1671).
att(966,1836).
att(957,2023).
att(1102,1140).
att(839,32).
att(831,156).
att(1234,1706).
att(839,26).
att(1100,1144).
att(972,1838).
att(830,63).
att(1080,934).
att(1096,1090).
att(765,2001).
att(959,1990).
att(1290,1388).
att(951,2044).
att(1232,1729).
att(1476,1188).
att(964,1928).
att(1233,1729).
att(1241,1757).
att(952,1934).
att(1292,1384).
att(1240,1750).
att(1252,1710).
att(1252,1709).
att(1234,1724).
att(1100,1074).
att(1104,1148).
att(832,218).
att(1254,1711).
att(1232,1577).
att(764,2024).
att(1291,1410).
att(811,41).
att(1242,1752).
att(1254,1714).
att(764,1986).
att(1082,1017).
att(833,83).
att(1082,1022).
att(1482,1193).
att(813,61).
att(1299,1417).
att(1511,1132).
att(1079,1000).
att(1478,1196).
att(1507,1166).
att(1080,995).
att(971,1834).
att(1250,1575).
att(1295,1411).
att(1290,2156).
att(1085,1025).
att(951,1860).
att(955,1856).
att(1105,1138).
att(966,1832).
att(1255,1734).
att(1305,1415).
att(813,18).
att(1255,1571).
att(1511,1165).
att(829,147).
att(972,1901).
att(965,2043).
att(1234,1590).
att(1293,2162).
att(815,51).
att(918,2040).
att(1437,1196).
att(916,2039).
att(956,1776).
att(969,2020).
att(957,1777).
att(812,48).
att(1086,1108).
att(1490,1197).
att(1478,1164).
att(915,1955).
att(812,52).
att(1238,1578).
att(922,2042).
att(922,2037).
att(1083,1093).
att(910,1853).
att(1084,1111).
att(808,55).
att(1084,1033).
att(811,13).
att(916,1853).
att(830,216).
att(969,1867).
att(969,2043).
att(1076,981).
att(1242,1571).
att(912,1879).
att(1476,982).
att(1493,1191).
att(1240,1577).
att(1086,1047).
att(1439,1214).
att(965,1798).
att(913,1879).
att(814,45).
att(829,212).
att(922,1852).
att(1474,1010).
att(1476,1013).
att(919,1932).
att(951,1969).
att(1236,1622).
att(923,1817).
att(970,1983).
att(1081,1107).
att(1482,983).
att(919,1910).
att(1490,1209).
att(1241,1618).
att(963,1781).
att(1086,1143).
att(963,1780).
att(1234,1666).
att(1234,1664).
att(1234,1661).
att(196,931).
att(925,1848).
att(817,3).
att(959,1811).
att(1235,1666).
att(1478,1013).
att(927,1812).
att(814,155).
att(922,1884).
att(1075,1107).
att(1253,1659).
att(961,1969).
att(1080,1092).
att(955,1962).
att(1221,1746).
att(923,1822).
att(1523,988).
att(1081,1050).
att(956,1804).
att(966,1934).
att(1081,1048).
att(1085,1093).
att(1488,1215).
att(1252,1667).
att(965,1970).
att(915,1911).
att(1484,1006).
att(1486,1015).
att(959,1973).
att(933,1813).
att(1083,1071).
att(970,1934).
att(289,2168).
att(1243,509).
att(1303,1155).
att(267,2050).
att(1268,501).
att(1322,176).
att(194,352).
att(267,2035).
att(308,2034).
att(1145,827).
att(271,2002).
att(289,2096).
att(1149,768).
att(197,263).
att(1549,2141).
att(1149,773).
att(1318,164).
att(1262,1889).
att(195,372).
att(303,2054).
att(196,373).
att(1248,320).
att(1155,978).
att(1245,359).
att(1445,1921).
att(1147,870).
att(1163,977).
att(1245,357).
att(1447,1889).
att(301,2090).
att(1124,714).
att(1257,1947).
att(1449,1921).
att(193,412).
att(168,259).
att(1451,1922).
att(1145,866).
att(1272,354).
att(1261,1947).
att(1163,872).
att(267,2034).
att(1327,1075).
att(1270,363).
att(1257,442).
att(1327,1076).
att(1451,1913).
att(1119,795).
att(1245,1949).
att(1299,1076).
att(1252,348).
att(1513,2207).
att(308,2107).
att(1128,790).
att(1301,1082).
att(1290,1097).
att(1121,728).
att(1147,906).
att(1142,949).
att(1505,2083).
att(1288,295).
att(1124,769).
att(1305,1084).
att(1248,1943).
att(1252,365).
att(1152,943).
att(172,250).
att(1293,1130).
att(1134,797).
att(1245,436).
att(1266,1943).
att(1314,100).
att(1509,2084).
att(200,234).
att(305,2059).
att(309,2154).
att(306,2074).
att(1136,799).
att(1318,273).
att(271,2076).
att(1254,353).
att(1136,806).
att(1509,2077).
att(1297,1130).
att(1117,721).
att(1297,1117).
att(160,250).
att(273,2057).
att(1297,1128).
att(1505,2097).
att(1511,2081).
att(1507,2114).
att(269,2173).
att(1142,1019).
att(1301,1121).
att(1303,1104).
att(1290,1159).
att(1320,299).
att(1505,2114).
att(271,2107).
att(1123,840).
att(1130,822).
att(273,2168).
att(1549,2077).
att(1124,826).
att(1297,1149).
att(1247,489).
att(1318,91).
att(309,2185).
att(1128,776).
att(1130,768).
att(1147,1008).
att(1314,138).
att(173,317).
att(306,2167).
att(200,349).
att(1256,1855).
att(1124,846).
att(1152,1028).
att(1275,459).
att(1549,2099).
att(1510,2132).
att(1517,2103).
att(303,2186).
att(267,2107).
att(1272,468).
att(1445,504).
att(1128,874).
att(175,253).
att(168,415).
att(1493,1863).
att(1257,350).
att(1226,190).
att(1488,1887).
att(162,351).
att(1126,874).
att(140,108).
att(199,327).
att(1224,1081).
att(1130,819).
att(1121,845).
att(1222,273).
att(1121,827).
att(1130,899).
att(136,203).
att(1262,359).
att(1102,714).
att(1445,359).
att(134,233).
att(1130,945).
att(1226,1105).
att(1433,443).
att(1449,363).
att(1221,295).
att(1231,1105).
att(1240,306).
att(1119,850).
att(1224,1128).
att(1240,271).
att(1121,905).
att(1490,1948).
att(1121,851).
att(1100,720).
att(1228,1121).
att(1435,467).
att(1100,716).
att(136,251).
att(1123,873).
att(1223,95).
att(1259,439).
att(1316,1121).
att(1225,105).
att(1106,840).
att(138,316).
att(1229,306).
att(1312,1130).
att(1256,464).
att(175,375).
att(1327,1105).
att(1230,271).
att(1101,840).
att(136,280).
att(136,284).
att(1228,102).
att(1228,105).
att(1106,770).
att(1324,1117).
att(1324,1123).
att(1099,790).
att(1226,146).
att(1327,1124).
att(175,262).
att(1123,947).
att(1309,127).
att(1130,1001).
att(1322,1136).
att(136,310).
att(1117,945).
att(1259,481).
att(176,327).
att(138,349).
att(1099,819).
att(1447,482).
att(1327,1159).
att(1103,874).
att(1230,95).
att(129,262).
att(1097,848).
att(1261,504).
att(1445,481).
att(1229,176).
att(1229,160).
att(1099,841).
att(1230,176).
att(134,374).
att(93,114).
att(127,282).
att(1257,323).
att(1096,219).
att(1103,311).
att(91,2000).
att(1238,1084).
att(1100,312).
att(1104,261).
att(1222,1096).
att(1232,269).
att(1232,306).
att(1486,1912).
att(1100,286).
att(129,2075).
att(1493,350).
att(1250,271).
att(143,2002).
att(1486,448).
att(1232,110).
att(1480,1946).
att(87,1981).
att(1080,123).
att(1476,459).
att(97,1975).
att(1234,104).
att(142,2050).
att(1484,444).
att(1523,436).
att(91,2035).
att(85,1980).
att(132,2174).
att(1080,108).
att(1474,468).
att(1096,284).
att(1254,102).
att(1480,459).
att(129,2096).
att(1233,176).
att(146,1975).
att(1233,138).
att(1484,469).
att(1106,285).
att(85,2002).
att(1084,114).
att(1232,136).
att(1105,429).
att(1241,110).
att(1240,297).
att(1082,201).
att(1102,345).
att(1241,85).
att(143,2075).
att(1221,136).
att(95,2053).
att(1228,1153).
att(1231,1142).
att(97,2048).
att(1082,207).
att(1441,483).
att(1100,342).
att(143,2078).
att(1084,186).
att(1076,255).
att(1076,256).
att(1433,335).
att(87,2059).
att(1439,509).
att(1477,1902).
att(105,1937).
att(1086,234).
att(1490,483).
att(1474,1919).
att(295,1924).
att(1079,232).
att(1474,1887).
att(1435,325).
att(1084,315).
att(1437,331).
att(1096,424).
att(1437,339).
att(97,2091).
att(1236,193).
att(1434,339).
att(97,2095).
att(85,2091).
att(1478,1918).
att(1238,193).
att(1435,365).
att(1476,1950).
att(1239,195).
att(1076,179).
att(1084,351).
att(1297,788).
att(1523,361).
att(100,2055).
att(1303,752).
att(1305,788).
att(1249,293).
att(91,2167).
att(1076,234).
att(1084,262).
att(289,1939).
att(1507,464).
att(87,2131).
att(1515,446).
att(145,2101).
att(1290,816).
att(1250,1134).
att(100,1998).
att(1305,787).
att(100,2002).
att(1081,219).
att(97,2155).
att(1275,269).
att(1517,444).
att(97,2096).
att(1082,286).
att(102,1981).
att(142,2174).
att(1083,261).
att(1084,284).
att(1272,289).
att(1080,345).
att(1087,182).
att(1290,835).
att(1301,813).
att(1253,1159).
att(1076,377).
att(1253,1145).
att(297,2035).
att(1268,145).
att(1254,1130).
att(1303,784).
att(195,183).
att(1549,459).
att(1297,833).
att(1252,1152).
att(1080,377).
att(1087,205).
att(1085,349).
att(1288,925).
att(1086,322).
att(1243,191).
att(1510,503).
att(1249,170).
att(293,2035).
att(1083,318).
att(1084,346).
att(1079,349).
att(1507,509).
att(1507,508).
att(193,182).
att(1157,726).
att(299,2091).
att(1081,429).
att(1476,501).
att(1240,1145).
att(100,2155).
att(303,1926).
att(1292,927).
att(303,1924).
att(191,255).
att(102,2154).
att(190,180).
att(1253,164).
att(1163,720).
att(1515,1895).
att(1250,160).
att(1251,168).
att(1519,1902).
att(293,2095).
att(1153,728).
att(1301,919).
att(190,235).
att(1142,794).
att(197,311).
att(1254,168).
att(1291,766).
att(1255,194).
att(1517,1889).
att(267,2000).
att(1155,843).
att(1250,1083).
att(192,236).
att(1507,1944).
att(301,1926).
att(104,2130).
att(1243,305).
att(1505,1946).
att(301,1933).
att(1254,190).
att(105,2130).
att(1251,1096).
att(1152,792).
att(105,2107).
att(1249,309).
att(1484,359).
att(1511,1949).
att(1155,767).
att(102,2096).
att(1142,714).
att(1266,2195).
att(892,647).
att(1293,359).
att(1507,1747).
att(104,1673).
att(190,2034).
att(295,1656).
att(1324,1881).
att(1507,1744).
att(933,803).
att(1290,353).
att(1295,329).
att(193,2027).
att(197,2092).
att(1247,2199).
att(1515,1640).
att(198,2072).
att(193,2078).
att(888,625).
att(267,1556).
att(1152,184).
att(888,628).
att(1288,1945).
att(896,615).
att(100,1717).
att(269,1559).
att(192,2091).
att(1292,355).
att(880,731).
att(897,625).
att(897,645).
att(1245,2064).
att(1318,1952).
att(1157,207).
att(1314,1946).
att(1247,2068).
att(1314,1947).
att(1515,1744).
att(194,2027).
att(878,739).
att(1314,441).
att(925,719).
att(100,1651).
att(1153,184).
att(1305,361).
att(1249,2068).
att(195,2076).
att(196,2090).
att(1305,348).
att(295,1702).
att(1249,2080).
att(1147,233).
att(882,798).
att(1324,1944).
att(309,1569).
att(197,2128).
att(854,625).
att(886,693).
att(1247,2083).
att(198,2155).
att(886,669).
att(1159,311).
att(1257,2164).
att(160,1931).
att(303,1585).
att(1270,2064).
att(1315,436).
att(1316,446).
att(1324,445).
att(895,682).
att(306,1526).
att(1318,444).
att(1256,2166).
att(1163,219).
att(859,651).
att(301,1531).
att(1257,2161).
att(168,1931).
att(267,1533).
att(1243,2135).
att(1243,2132).
att(1449,1378).
att(1153,236).
att(1324,444).
att(295,1737).
att(1266,1418).
att(164,1996).
att(309,1627).
att(1290,459).
att(166,1998).
att(190,2098).
att(1509,1572).
att(1521,1756).
att(273,1587).
att(1149,284).
att(1255,2087).
att(193,2167).
att(303,1626).
att(1299,442).
att(897,696).
att(890,705).
att(305,1583).
att(895,708).
att(192,2107).
att(1243,2183).
att(1509,1593).
att(190,2128).
att(1505,1596).
att(888,707).
att(1505,1617).
att(1275,1408).
att(1517,1576).
att(160,2000).
att(1249,2156).
att(1145,316).
att(1272,1415).
att(1119,205).
att(269,1681).
att(1266,2156).
att(271,1623).
att(305,1675).
att(854,695).
att(854,696).
att(1303,486).
att(1243,2189).
att(856,740).
att(168,2092).
att(1305,485).
att(1126,179).
att(1126,184).
att(1119,112).
att(1134,201).
att(1128,108).
att(271,1647).
att(1295,509).
att(1318,1865).
att(859,712).
att(1149,279).
att(168,2030).
att(1315,1922).
att(1515,1629).
att(854,694).
att(1549,1617).
att(168,2028).
att(166,2055).
att(1117,108).
att(1275,2177).
att(1315,1889).
att(1327,1855).
att(896,736).
att(1270,2178).
att(1292,333).
att(1517,1614).
att(168,2014).
att(1511,1636).
att(269,1627).
att(1117,112).
att(1249,2189).
att(303,1675).
att(1249,2193).
att(1324,365).
att(1134,237).
att(1123,251).
att(1130,238).
att(1229,1948).
att(1225,436).
att(1124,229).
att(160,2070).
att(1449,2203).
att(1124,219).
att(856,803).
att(896,805).
att(269,1648).
att(1433,1408).
att(1437,1388).
att(199,2073).
att(199,2074).
att(1231,1942).
att(1225,443).
att(1136,255).
att(1434,1417).
att(271,1702).
att(1142,412).
att(1309,464).
att(1449,2067).
att(166,2076).
att(890,719).
att(1128,310).
att(1445,2086).
att(1136,279).
att(173,2124).
att(172,2171).
att(1128,262).
att(175,2035).
att(1449,2086).
att(166,2107).
att(1264,2110).
att(162,2155).
att(1451,2103).
att(164,2075).
att(1490,2165).
att(164,2073).
att(134,1924).
att(859,805).
att(200,2101).
att(1434,2176).
att(1123,235).
att(1229,484).
att(160,2131).
att(1227,488).
att(1443,2156).
att(129,2055).
att(176,2034).
att(1245,2136).
att(1103,205).
att(1288,503).
att(134,2014).
att(1117,377).
att(1117,375).
att(1119,280).
att(138,1977).
att(1309,1895).
att(1262,2179).
att(1257,2190).
att(1322,485).
att(1117,406).
att(138,2076).
att(1106,253).
att(1309,1922).
att(1104,229).
att(1320,324).
att(1230,1865).
att(1096,185).
att(1315,324).
att(1322,505).
att(1102,202).
att(1316,350).
att(1102,211).
att(1225,1915).
att(1134,424).
att(1106,187).
att(1229,1889).
att(1312,355).
att(1318,333).
att(177,2056).
att(1309,1948).
att(1103,185).
att(136,2091).
att(1264,2207).
att(1097,203).
att(1123,318).
att(1117,342).
att(1101,182).
att(1230,1881).
att(1476,2165).
att(962,705).
att(1240,1949).
att(140,1642).
att(1241,1946).
att(177,1675).
att(1237,457).
att(1439,2097).
att(1238,446).
att(960,697).
att(1238,445).
att(143,1458).
att(1241,436).
att(1100,2055).
att(1123,2185).
att(960,699).
att(1474,2165).
att(962,666).
att(129,1570).
att(1488,2077).
att(958,656).
att(1103,2004).
att(1237,467).
att(1434,2146).
att(175,1625).
att(127,1587).
att(1222,482).
att(1100,1980).
att(1222,479).
att(136,1646).
att(1123,2098).
att(1239,481).
att(176,1673).
att(1240,462).
att(1236,479).
att(1242,457).
att(1103,2089).
att(968,619).
att(958,733).
att(142,1532).
att(968,629).
att(960,727).
att(145,1458).
att(1242,489).
att(136,1681).
att(138,1616).
att(1234,1883).
att(93,1454).
att(1096,2049).
att(127,1612).
att(971,592).
att(1231,485).
att(129,1718).
att(138,1737).
att(1434,2198).
att(1102,2075).
att(964,802).
att(1439,2176).
att(1434,2181).
att(1447,2146).
att(1445,2139).
att(146,1589).
att(968,662).
att(1103,2126).
att(1449,2144).
att(127,1736).
att(1230,483).
att(1096,2076).
att(765,777).
att(129,1649).
att(97,1552).
att(1228,508).
att(1228,501).
att(177,1737).
att(1228,507).
att(958,791).
att(968,687).
att(1309,365).
att(143,1601).
att(1084,1931).
att(1099,2092).
att(143,1607).
att(1435,2200).
att(1238,1883).
att(127,1674).
att(1236,1920).
att(938,934).
att(1105,2187).
att(1488,2188).
att(921,672).
att(1222,1952).
att(1228,333).
att(1241,1889).
att(142,1623).
att(968,700).
att(1099,2101).
att(93,1644).
att(1230,331).
att(1433,2081).
att(1437,2068).
att(1437,2067).
att(915,682).
att(1434,2087).
att(1222,443).
att(142,1633).
att(1075,1926).
att(1474,1417).
att(1478,1386).
att(1434,2081).
att(1435,2086).
att(972,712).
att(1242,1952).
att(1493,2208).
att(1486,2102).
att(87,1608).
att(1521,2081).
att(1480,2097).
att(925,630).
att(921,701).
att(1505,2159).
att(1482,2132).
att(1477,2139).
att(1234,481).
att(1083,2078).
att(928,630).
att(104,1455).
att(1080,2030).
att(1075,2053).
att(295,1466).
att(1253,468).
att(87,1647).
att(87,1644).
att(1096,2171).
att(1232,507).
att(1301,132).
att(1549,1410).
att(145,1611).
att(971,699).
att(1233,507).
att(1505,2181).
att(1254,464).
att(925,594).
att(1243,1883).
att(1083,2034).
att(85,1643).
att(932,596).
att(911,705).
att(110,1460).
att(1099,2167).
att(1293,168).
att(143,1676).
att(919,719).
att(1301,162).
att(878,641).
att(1291,198).
att(1549,2183).
att(1303,176).
att(1085,2058).
att(1291,194).
att(1291,192).
att(1511,2195).
att(1233,355).
att(1255,508).
att(196,1924).
att(1234,329).
att(1245,1919).
att(1252,506).
att(85,1674).
att(927,611).
att(1076,2030).
att(1235,353).
att(1252,320).
att(919,740).
att(1081,2028).
att(1505,2208).
att(299,1454).
att(1303,168).
att(105,1564).
att(1081,2027).
att(1250,320).
att(1082,2029).
att(1086,2095).
att(100,1535).
att(1086,2057).
att(91,1673).
att(102,1529).
att(190,1931).
att(1080,2125).
att(1482,2197).
att(884,690).
att(884,692).
att(878,682).
att(194,1923).
att(1234,1918).
att(1086,2171).
att(1478,2205).
att(192,2004).
att(192,2002).
att(1290,306).
att(928,690).
att(1076,2075).
att(1251,1952).
att(1233,1947).
att(1255,1919).
att(105,1601).
att(1250,1914).
att(1085,2152).
att(198,1927).
att(923,693).
att(1482,2200).
att(293,1601).
att(100,1570).
att(196,1997).
att(1241,348).
att(1079,2154).
att(1083,2100).
att(110,1587).
att(911,798).
att(1293,273).
att(190,1981).
att(884,708).
att(1291,102).
att(1076,2167).
att(1250,1945).
att(1292,105).
att(1477,2080).
att(196,2029).
att(1155,209).
att(289,1584).
att(1513,1386).
att(1480,2080).
att(1254,448).
att(1521,2069).
att(1505,1415).
att(297,1569).
att(878,656).
att(299,1587).
att(1255,442).
att(1507,1410).
att(1292,87).
att(1513,1419).
att(1490,1762).
att(1149,1957).
att(271,870).
att(200,1426).
att(653,1157).
att(173,1426).
att(863,295).
att(1117,1827).
att(301,906).
att(997,981).
att(953,468).
att(1145,1958).
att(308,950).
att(1142,1868).
att(199,1344).
att(1290,2115).
att(959,457).
att(1130,1783).
att(1290,2111).
att(1291,2120).
att(1130,1791).
att(676,145).
att(168,1345).
att(863,142).
att(688,1145).
att(168,1348).
att(618,897).
att(162,1364).
att(1126,1829).
att(1142,2011).
att(734,932).
att(1121,1816).
att(861,132).
att(273,935).
att(862,127).
att(956,489).
att(1303,2106).
att(1291,2249).
att(676,170).
att(951,324).
att(673,190).
att(267,1024).
att(748,1898).
att(1299,2120).
att(269,1028).
att(953,504).
att(176,1287).
att(269,1024).
att(269,908).
att(1134,1850).
att(199,1391).
att(308,1024).
att(1134,1851).
att(273,974).
att(961,503).
att(1136,1848).
att(1123,1827).
att(1136,1851).
att(746,1913).
att(616,968).
att(753,1891).
att(761,1898).
att(1305,2145).
att(269,935).
att(863,162).
att(1152,1985).
att(864,172).
att(1145,2001).
att(755,1898).
att(164,1499).
att(956,1898).
att(177,1308).
att(957,1902).
att(132,1286).
att(653,190).
att(1130,1906).
att(922,505).
att(961,1887).
att(172,1498).
att(1121,1846).
att(199,1430).
att(134,1279).
att(1130,1832).
att(175,1317).
att(653,1081).
att(912,355).
att(969,333).
att(1123,1836).
att(688,193).
att(170,1463).
att(1119,1832).
att(916,354).
att(1105,1829).
att(916,363).
att(995,994).
att(140,1366).
att(1128,1958).
att(1130,1928).
att(965,1951).
att(996,997).
att(1449,1758).
att(1123,1958).
att(129,1365).
att(677,267).
att(677,273).
att(129,1369).
att(176,1343).
att(655,1097).
att(162,1538).
att(1119,1876).
att(175,1365).
att(164,1459).
att(175,1350).
att(681,1128).
att(676,289).
att(993,999).
att(1264,1765).
att(864,301).
att(993,980).
att(1262,1767).
att(1101,1800).
att(1097,1820).
att(1293,2225).
att(1105,1848).
att(638,890).
att(609,890).
att(745,484).
att(1314,2115).
att(865,1153).
att(616,835).
att(1123,2013).
att(1297,2222).
att(1305,2216).
att(1303,2210).
att(893,95).
att(1126,2011).
att(1299,2226).
att(757,487).
att(618,1652).
att(1121,1957).
att(1134,1985).
att(1301,2226).
att(132,1363).
att(614,1663).
att(1318,2109).
att(1104,1843).
att(753,508).
att(132,1348).
att(1297,2235).
att(642,880).
att(1123,1936).
att(642,928).
att(176,1420).
att(1101,1819).
att(136,1432).
att(618,1680).
att(855,191).
att(618,1691).
att(138,1503).
att(1292,2248).
att(1106,1900).
att(1318,2149).
att(1099,1842).
att(939,1049).
att(143,1308).
att(1327,2134).
att(640,911).
att(624,1663).
att(129,1397).
att(136,1472).
att(1105,1834).
att(644,972).
att(1097,1851).
att(138,1398).
att(1301,2245).
att(1103,1846).
att(1314,2267).
att(1099,1843).
att(175,1459).
att(640,763).
att(132,1396).
att(134,1501).
att(127,1397).
att(134,1472).
att(853,1103).
att(620,966).
att(626,911).
att(965,320).
att(97,1302).
att(140,1555).
att(622,915).
att(1099,1901).
att(85,1289).
att(764,333).
att(1104,1930).
att(753,1952).
att(1106,1911).
att(1297,2266).
att(761,1889).
att(863,195).
att(1303,2250).
att(624,919).
att(753,1914).
att(1104,1910).
att(618,954).
att(857,308).
att(1293,2278).
att(129,1467).
att(145,1302).
att(674,1105).
att(1293,2272).
att(138,1459).
att(1106,1869).
att(620,962).
att(91,1323).
att(961,357).
att(143,1364).
att(746,443).
att(1103,1876).
att(1100,1871).
att(1270,1758).
att(1292,2278).
att(1293,2277).
att(677,1100).
att(95,1346).
att(861,1100).
att(1081,1827).
att(1082,1822).
att(612,781).
att(1303,2266).
att(853,102).
att(865,1086).
att(622,788).
att(1301,2270).
att(1099,1932).
att(1103,1983).
att(753,442).
att(1017,1023).
att(1299,2283).
att(95,1371).
att(1086,1828).
att(1102,1955).
att(1021,944).
att(759,448).
att(862,1130).
att(1290,2214).
att(622,809).
att(745,482).
att(1079,1828).
att(627,785).
att(143,1420).
att(746,487).
att(853,138).
att(91,1348).
att(627,779).
att(1021,939).
att(1100,1932).
att(855,91).
att(755,469).
att(1292,2216).
att(1315,2229).
att(1048,1067).
att(648,830).
att(1227,2147).
att(1230,2106).
att(1322,2219).
att(1047,1068).
att(633,932).
att(1105,1539).
att(1048,1068).
att(1228,2111).
att(1082,1329).
att(1034,1032).
att(883,170).
att(609,1691).
att(1050,1052).
att(634,971).
att(1288,2243).
att(1227,2150).
att(1050,1064).
att(1031,1069).
att(875,1075).
att(879,198).
att(95,840).
att(1086,1319).
att(146,828).
att(644,1668).
att(926,166).
att(1083,1294).
att(1099,1499).
att(1103,1465).
att(876,1076).
att(1103,1431).
att(648,1668).
att(1104,1561).
att(1076,1278).
att(1050,1000).
att(1327,2234).
att(93,949).
att(657,765).
att(879,1075).
att(659,763).
att(1228,2257).
att(1082,1362).
att(1229,2257).
att(881,1081).
att(644,1689).
att(926,192).
att(1517,1763).
att(1079,1342).
att(1083,1422).
att(1075,1363).
att(295,718).
att(1047,980).
att(1079,1344).
att(1519,1766).
att(1226,2269).
att(145,866).
att(913,308).
att(875,1123).
att(1310,2279).
att(913,305).
att(926,1082).
att(1082,1371).
att(883,1103).
att(110,721).
att(1507,1763).
att(877,1121).
att(929,1085).
att(1511,1764).
att(143,950).
att(1226,2272).
att(877,1123).
att(1324,2268).
att(876,309).
att(1095,939).
att(145,1002).
att(1110,940).
att(1093,1025).
att(1505,1766).
att(876,269).
att(646,960).
att(1081,1426).
att(293,767).
att(85,937).
att(759,359).
att(196,1286).
att(648,960).
att(1087,1282).
att(1315,2271).
att(295,776).
att(860,1097).
att(759,348).
att(924,269).
att(879,297).
att(887,1100).
att(100,786).
att(887,1096).
att(1083,1390).
att(1082,1426).
att(1083,1398).
att(1314,2212).
att(852,1147).
att(102,775).
att(1079,1429).
att(142,1001).
att(853,1147).
att(858,1121).
att(1327,2273).
att(1075,1348).
att(1080,1422).
att(1327,2272).
att(104,790).
att(1095,940).
att(1084,1537).
att(194,1279).
att(1076,1473).
att(194,1283).
att(100,819).
att(1081,1502).
att(1318,2214).
att(1309,2111).
att(885,95).
att(1320,2212).
att(1310,2118).
att(879,93).
att(192,1326).
att(1075,1502).
att(642,833).
att(1224,2121).
att(875,164).
att(926,143).
att(1318,2218).
att(646,834).
att(191,1285).
att(875,160).
att(657,897).
att(1227,2121).
att(1230,2233).
att(1076,1555).
att(1226,2241).
att(653,763).
att(668,1670).
att(688,932).
att(1159,1797).
att(105,851).
att(663,1662).
att(913,195).
att(194,1366).
att(665,1685).
att(1237,2263).
att(914,1084).
att(654,960).
att(1145,1797).
att(1228,2248).
att(303,722).
att(914,1083).
att(920,191).
att(1145,1795).
att(308,726).
att(1075,1565).
att(110,851).
att(1242,2251).
att(910,1099).
att(1521,1760).
att(1068,1017).
att(1076,1430).
att(1065,939).
att(920,1087).
att(1236,2261).
att(1052,993).
att(957,269).
att(1153,1795).
att(1240,2261).
att(1484,1766).
att(1082,1563).
att(1079,1557).
att(1222,2277).
att(100,850).
att(102,872).
att(293,902).
att(910,1101).
att(1238,2260).
att(1052,996).
att(305,797).
att(652,779).
att(1223,2283).
att(910,1130).
att(104,945).
att(653,785).
att(1142,1831).
att(1221,2285).
att(653,817).
att(1069,942).
att(679,752).
att(961,271).
att(654,789).
att(655,818).
att(309,770).
att(309,792).
att(309,806).
att(1242,2272).
att(918,1130).
att(1242,2269).
att(299,950).
att(681,808).
att(957,146).
att(269,721).
att(1147,1827).
att(190,1393).
att(271,767).
att(1142,1849).
att(967,271).
att(306,844).
att(267,770).
att(297,1002).
att(881,1117).
att(1159,1832).
att(160,1282).
att(1159,1909).
att(194,1500).
att(633,809).
att(910,93).
att(170,1329).
att(269,844).
att(192,1499).
att(196,1465).
att(1147,1832).
att(1221,2115).
att(295,1005).
att(1087,1503).
att(1147,1847).
att(1230,2284).
att(305,775).
att(657,816).
att(289,907).
att(1087,1472).
att(1227,2209).
att(659,809).
att(665,817).
att(299,1026).
att(1229,2217).
att(191,1393).
att(1222,2117).
att(191,1398).
att(269,774).
att(652,886).
att(293,1002).
att(1223,2118).
att(1155,1838).
att(1310,2225).
att(1134,1791).
att(967,87).
att(1163,1956).
att(172,1302).
att(271,821).
att(1142,1908).
att(173,1306).
att(659,836).
att(1224,2223).
att(1066,1054).
att(267,899).
att(1159,1961).
att(303,866).
att(303,867).
att(1229,2219).
att(1242,2119).
att(190,1499).
att(912,198).
att(1087,1567).
att(910,193).
att(1155,1875).
att(686,856).
att(200,1302).
att(1231,2226).
att(193,1501).
att(1241,2118).
att(1237,2149).
att(168,1307).
att(914,192).
att(1152,1907).
att(660,1658).
att(269,825).
att(162,776).
att(959,2162).
att(1155,1473).
att(190,943).
att(653,507).
att(961,2157).
att(273,233).
att(309,261).
att(967,2105).
att(956,2177).
att(160,774).
att(965,2161).
att(1152,1395).
att(1126,1284).
att(965,2160).
att(269,317).
att(1155,1499).
att(1145,1396).
att(308,315).
att(1072,1092).
att(192,941).
att(953,2193).
att(305,219).
att(1090,1048).
att(686,488).
att(951,2192).
att(194,935).
att(273,237).
att(654,339).
att(1074,1094).
att(303,312).
att(168,771).
att(191,937).
att(957,2194).
att(957,2193).
att(269,351).
att(861,1922).
att(951,2208).
att(1090,1068).
att(164,843).
att(309,322).
att(1163,1561).
att(273,279).
att(1159,1463).
att(686,325).
att(688,331).
att(864,1920).
att(612,269).
att(271,312).
att(959,2199).
att(1128,1283).
att(309,376).
att(675,1947).
att(1090,997).
att(1136,1317).
att(681,359).
att(1157,1502).
att(673,442).
att(1074,1051).
att(961,2062).
att(267,281).
att(168,821).
att(965,2207).
att(1078,1034).
att(957,2067).
att(1119,1279).
att(1077,1045).
att(308,377).
att(668,324).
att(177,728).
att(305,424).
att(175,721).
att(1141,1064).
att(668,323).
att(200,906).
att(166,867).
att(200,907).
att(665,354).
att(1168,1051).
att(684,1917).
att(916,2064).
att(1128,1300).
att(910,2086).
att(1119,1308).
att(686,1913).
att(1121,1321).
att(301,427).
att(168,872).
att(920,2063).
att(301,400).
att(953,1418).
att(1151,1067).
att(652,443).
att(1143,995).
att(684,439).
att(1168,936).
att(1151,1020).
att(910,2108).
att(1144,939).
att(956,1419).
att(967,2061).
att(1128,1424).
att(918,2080).
att(956,1388).
att(1121,1350).
att(951,1403).
att(1121,1427).
att(166,937).
att(913,2114).
att(168,1026).
att(957,1410).
att(914,2114).
att(1117,1423).
att(654,457).
att(138,786).
att(679,466).
att(955,2156).
att(652,479).
att(1130,1341).
att(688,444).
att(969,2085).
att(1090,1078).
att(688,461).
att(688,459).
att(1117,1341).
att(170,945).
att(674,329).
att(1119,1496).
att(627,175).
att(745,2191).
att(673,365).
att(891,1898).
att(1095,1093).
att(132,844).
att(627,173).
att(1111,1047).
att(627,160).
att(863,506).
att(624,170).
att(1097,1282).
att(177,842).
att(857,1915).
att(857,1918).
att(677,348).
att(861,339).
att(612,1076).
att(745,2208).
att(1093,1049).
att(173,1019).
att(164,909).
att(757,2192).
att(1128,1372).
att(166,1019).
att(175,828).
att(609,269).
att(1136,1431).
att(862,354).
att(759,2191).
att(1124,1498).
att(893,1893).
att(755,2208).
att(855,1949).
att(138,894).
att(857,1946).
att(1108,999).
att(748,2063).
att(1119,1538).
att(614,1106).
att(175,867).
att(610,104).
att(614,1121).
att(759,2202).
att(1107,997).
att(129,898).
att(755,2064).
att(644,267).
att(1102,1321).
att(1119,1465).
att(1128,1471).
att(175,901).
att(622,1104).
att(646,273).
att(132,846).
att(177,874).
att(622,1124).
att(889,441).
att(622,1117).
att(860,469).
att(746,2110).
att(759,2064).
att(1124,1555).
att(129,819).
att(753,2084).
att(1101,1306).
att(734,1142).
att(642,299).
att(861,448).
att(136,907).
att(626,273).
att(861,1948).
att(1072,1000).
att(1102,1348).
att(951,2084).
att(673,464).
att(175,1019).
att(627,273).
att(746,1405).
att(862,441).
att(91,799).
att(1072,996).
att(1073,997).
att(624,301).
att(864,1947).
att(674,443).
att(674,467).
att(864,442).
att(953,2114).
att(614,142).
att(1105,1348).
att(764,2067).
att(1121,1555).
att(616,97).
att(1072,1022).
att(1099,1366).
att(616,95).
att(1100,1350).
att(136,973).
att(618,146).
att(965,2087).
att(95,774).
att(955,2146).
att(1086,1281).
att(862,466).
att(1071,931).
att(1103,1393).
att(853,1897).
att(961,2127).
att(956,2144).
att(1077,1004).
att(143,823).
att(853,1855).
att(957,2144).
att(963,2108).
att(1073,930).
att(1074,940).
att(136,1005).
att(95,799).
att(146,774).
att(620,127).
att(176,1008).
att(861,485).
att(673,509).
att(622,136).
att(860,1895).
att(860,1897).
att(140,1008).
att(127,947).
att(855,1895).
att(1084,1286).
att(761,2157).
att(87,790).
att(1107,1108).
att(1085,724).
att(881,1918).
att(881,1951).
att(1101,948).
att(1178,1018).
att(855,350).
att(1086,722).
att(1106,908).
att(891,339).
att(1100,974).
att(1100,979).
att(631,309).
att(85,186).
att(1171,944).
att(1178,931).
att(636,1104).
att(891,350).
att(1138,1090).
att(1105,873).
att(1175,1022).
att(646,1083).
att(91,178).
att(1106,949).
att(660,301).
att(1099,898).
att(143,254).
att(631,100).
att(875,469).
att(891,359).
att(891,353).
att(1081,794).
att(145,316).
att(644,1101).
att(1122,1146).
att(1120,1169).
att(91,287).
att(1075,790).
att(91,286).
att(1076,793).
att(1115,1088).
att(668,297).
att(1097,973).
att(1139,1032).
att(657,95).
att(926,443).
att(646,1136).
att(926,440).
att(883,468).
att(91,236).
att(929,444).
att(1112,1078).
att(885,461).
att(1120,1090).
att(640,1145).
att(616,1142).
att(887,469).
att(887,440).
att(145,376).
att(145,352).
att(618,1152).
att(755,2086).
att(1180,1048).
att(1172,1111).
att(95,261).
att(1172,1095).
att(852,467).
att(889,445).
att(97,374).
att(757,2097).
att(1174,1098).
att(295,106).
att(648,297).
att(860,462).
att(1075,844).
att(759,2080).
att(1174,1107).
att(1178,1088).
att(624,1152).
att(1171,1049).
att(1179,1111).
att(644,93).
att(755,2102).
att(146,284).
att(751,2135).
att(627,1145).
att(627,1157).
att(1075,772).
att(93,283).
att(289,215).
att(636,170).
att(1179,1046).
att(855,504).
att(887,486).
att(1175,1045).
att(95,321).
att(299,217).
att(196,715).
att(295,178).
att(877,1893).
att(591,1765).
att(289,209).
att(879,1859).
att(87,376).
att(591,1758).
att(855,333).
att(1180,1025).
att(1085,903).
att(145,318).
att(146,322).
att(877,1951).
att(597,1759).
att(858,329).
att(1079,900).
att(1075,828).
att(1079,902).
att(289,112).
att(1087,772).
att(1141,1140).
att(297,254).
att(197,806).
att(912,445).
att(653,295).
att(665,1086).
att(191,715).
att(659,1128).
att(295,238).
att(289,256).
att(679,301).
att(1120,1029).
att(912,466).
att(1085,976).
att(198,724).
att(920,447).
att(654,100).
att(913,443).
att(1170,1098).
att(659,1145).
att(85,429).
att(633,1152).
att(1079,977).
att(1087,790).
att(916,461).
att(198,842).
att(1151,1111).
att(681,143).
att(912,482).
att(918,464).
att(1169,1048).
att(198,849).
att(654,142).
att(969,440).
att(308,111).
att(913,481).
att(655,129).
att(910,483).
att(308,123).
att(110,283).
att(1169,1051).
att(1169,1052).
att(668,1157).
att(1151,1050).
att(299,229).
att(198,768).
att(100,313).
att(1085,1008).
att(969,481).
att(195,848).
att(684,136).
att(1079,1019).
att(1144,1050).
att(190,794).
att(110,425).
att(1142,1323).
att(305,217).
att(1112,1047).
att(295,327).
att(1116,1098).
att(657,140).
att(924,468).
att(197,898).
att(1139,1066).
att(1139,1070).
att(1159,1306).
att(105,322).
att(195,868).
att(633,168).
att(1118,1110).
att(1145,1307).
att(102,429).
att(303,187).
att(295,345).
att(668,146).
att(1087,898).
att(924,483).
att(1138,1000).
att(1149,1283).
att(198,821).
att(198,827).
att(303,99).
att(914,1889).
att(191,820).
att(293,373).
att(914,1919).
att(1152,1326).
att(1155,1289).
att(922,1865).
att(196,905).
att(657,196).
att(1112,998).
att(173,714).
att(306,255).
att(924,509).
att(200,797).
att(1113,993).
att(924,507).
att(1116,1064).
att(197,949).
att(267,179).
att(924,502).
att(969,1855).
att(273,258).
att(1149,1349).
att(926,320).
att(1122,1069).
att(269,254).
att(912,1950).
att(885,335).
att(885,355).
att(289,321).
att(1157,1363).
att(918,1951).
att(1087,950).
att(1163,1344).
att(197,871).
att(969,1887).
att(881,353).
att(1112,1022).
att(301,253).
att(922,1916).
att(1122,998).
att(196,973).
att(303,257).
att(883,354).
att(922,1918).
att(196,978).
att(634,1100).
att(269,185).
att(170,189).
att(1126,703).
att(1944,931).
att(961,1670).
att(1480,2236).
att(1474,2243).
att(333,1643).
att(1233,589).
att(469,1173).
att(1505,2258).
att(1549,2120).
att(136,13).
att(746,962).
att(1517,2148).
att(333,1611).
att(1136,742).
att(1517,2149).
att(335,1626).
att(863,1338).
att(1946,995).
att(325,1628).
att(753,921).
att(1292,1016).
att(1523,2231).
att(863,1542).
att(176,17).
att(443,1172).
att(443,1173).
att(863,1540).
att(1486,2235).
att(177,13).
att(177,26).
att(199,115).
att(674,1353).
att(1943,944).
att(1486,2241).
att(324,1582).
att(959,1695).
att(1299,1009).
att(1486,2240).
att(469,1138).
att(675,1357).
att(140,5).
att(1130,656).
att(1515,2253).
att(1290,1039).
att(961,1684).
att(1130,664).
att(1549,2142).
att(441,1141).
att(627,1969).
att(166,156).
att(676,1355).
att(1248,330).
att(624,1968).
att(963,1685).
att(329,1642).
att(860,1244).
att(1299,1016).
att(1126,711).
att(331,1642).
att(176,49).
att(757,762).
att(1102,591).
att(750,760).
att(1119,739).
att(621,1758).
att(501,1470).
att(1235,523).
att(858,1277).
att(1253,599).
att(764,1697).
att(1509,2271).
att(339,1672).
att(509,1556).
att(1254,588).
att(673,1407).
att(1096,593).
att(1549,2263).
att(1130,725).
att(1305,1043).
att(627,1994).
att(333,1648).
att(1949,1034).
att(1101,641).
att(1096,595).
att(893,1277).
att(504,1554).
att(1270,332).
att(893,1265).
att(1297,1053).
att(329,1672).
att(505,1556).
att(626,1995).
att(864,1359).
att(162,188).
att(852,1495).
att(1252,535).
att(324,1625).
att(614,2019).
att(1944,1020).
att(164,121).
att(745,780).
att(1549,2264).
att(127,28).
att(865,1357).
att(1303,1057).
att(1243,419).
att(852,1475).
att(746,816).
att(1946,1064).
att(129,14).
att(1101,594).
att(129,19).
att(1947,1070).
att(1305,1053).
att(1519,2275).
att(176,67).
att(1117,777).
att(1947,1073).
att(505,1604).
att(1105,693).
att(323,1719).
att(1239,524).
att(324,1720).
att(1106,692).
att(1104,682).
att(653,1401).
att(1233,386).
att(654,1414).
att(1099,621).
att(1240,523).
att(617,1758).
att(965,756).
att(965,787).
att(1123,803).
att(129,74).
att(615,1763).
att(1943,1107).
att(615,1762).
att(1484,2270).
att(1947,1089).
att(684,1402).
att(329,1725).
att(865,1453).
att(505,1504).
att(1119,733).
att(764,754).
att(320,1705).
att(676,1494).
att(951,815).
att(502,1464).
att(688,1381).
att(1104,625).
att(686,1401).
att(1240,544).
att(1505,2109).
att(136,76).
att(1949,1093).
att(1123,733).
att(504,1504).
att(1484,2279).
att(1253,397).
att(146,28).
att(1105,712).
att(499,1569).
att(1474,2221).
att(686,1409).
att(1295,1167).
att(447,1113).
att(1254,393).
att(97,6).
att(676,1527).
att(1509,2113).
att(502,1601).
att(448,1114).
att(1482,2218).
att(134,107).
att(764,811).
att(93,28).
att(503,1581).
att(965,814).
att(1255,419).
att(748,856).
att(1235,569).
att(1945,1148).
att(1912,944).
att(750,888).
att(1513,2117).
att(755,859).
att(1486,2226).
att(1301,1156).
att(1480,2225).
att(501,1604).
att(1486,2219).
att(614,1780).
att(1476,2236).
att(1254,421).
att(177,155).
att(93,2).
att(143,36).
att(1233,581).
att(136,147).
att(127,72).
att(129,63).
att(503,1588).
att(624,1770).
att(503,1589).
att(618,1808).
att(755,896).
att(1253,569).
att(1942,1088).
att(488,1454).
att(1105,737).
att(1917,996).
att(636,1962).
att(1172,1179).
att(1943,1171).
att(91,13).
att(646,1801).
att(757,1679).
att(1256,340).
att(85,30).
att(1099,708).
att(1915,1065).
att(486,1466).
att(860,1357).
att(1174,1179).
att(1314,1053).
att(1100,744).
att(1270,586).
att(129,122).
att(1916,981).
att(642,1986).
att(146,18).
att(1106,695).
att(1324,1038).
att(138,120).
att(1943,1118).
att(1245,517).
att(1914,938).
att(857,1374).
att(507,1624).
att(858,1380).
att(1320,1055).
att(1912,1017).
att(648,1965).
att(650,1993).
att(1315,1060).
att(1243,541).
att(1268,519).
att(881,1457).
att(1264,366).
att(145,82).
att(879,1440).
att(95,49).
att(1312,1189).
att(501,1673).
att(1106,796).
att(1318,1057).
att(485,1564).
att(1247,544).
att(1261,392).
att(1084,682).
att(885,1489).
att(1314,1196).
att(487,1605).
att(1171,1120).
att(507,1726).
att(1248,540).
att(648,1987).
att(638,1867).
att(1179,1168).
att(1447,395).
att(1952,1049).
att(505,1653).
att(142,51).
att(1175,1170).
att(1104,802).
att(1178,1146).
att(883,1481).
att(1918,1033).
att(1309,1165).
att(1914,1067).
att(929,1489).
att(1104,796).
att(1257,567).
att(1100,733).
att(640,2038).
att(145,47).
att(1310,1165).
att(1097,737).
att(875,1518).
att(891,1400).
att(893,1414).
att(1085,635).
att(1245,420).
att(145,151).
att(1519,2285).
att(1913,1088).
att(750,812).
att(488,1587).
att(1519,2281).
att(100,3).
att(484,1568).
att(1086,662).
att(1250,546).
att(97,68).
att(485,1607).
att(488,1584).
att(1303,1061).
att(610,1776).
att(1288,1167).
att(1291,1198).
att(1919,936).
att(1275,394).
att(853,1547).
att(1320,1129).
att(1919,1027).
att(1255,547).
att(1505,2219).
att(85,63).
att(1248,420).
att(1297,1199).
att(482,1605).
att(863,1406).
att(1305,1183).
att(1291,1202).
att(887,1489).
att(755,816).
att(1245,569).
att(1293,1209).
att(612,1854).
att(857,1550).
att(887,1485).
att(1247,568).
att(499,1721).
att(1266,416).
att(146,72).
att(146,70).
att(1505,2227).
att(142,67).
att(489,1569).
att(502,1736).
att(1314,982).
att(891,1485).
att(1243,572).
att(1549,2209).
att(91,71).
att(751,829).
att(1099,807).
att(1075,629).
att(891,1475).
att(1084,669).
att(85,81).
att(624,2038).
att(503,1725).
att(855,1551).
att(479,1534).
att(1292,1208).
att(748,1654).
att(618,1879).
att(857,1340).
att(1921,993).
att(750,1663).
att(1883,1004).
att(620,1854).
att(1513,2223).
att(612,1884).
att(857,1541).
att(1082,708).
att(751,836).
att(1509,2234).
att(1295,1214).
att(751,1660).
att(482,1642).
att(1075,704).
att(1079,699).
att(1275,566).
att(1075,707).
att(893,1516).
att(1889,999).
att(1322,1156).
att(1511,2231).
att(1912,1138).
att(1080,698).
att(1081,658).
att(1913,1170).
att(1322,983).
att(1891,946).
att(646,1805).
att(1913,1148).
att(609,1973).
att(620,1880).
att(1301,1212).
att(1509,2239).
att(620,1884).
att(1268,578).
att(648,1811).
att(1919,1000).
att(1079,707).
att(1327,987).
att(110,13).
att(143,212).
att(875,1265).
att(487,1626).
att(93,117).
att(295,42).
att(479,1581).
att(1299,1219).
att(893,1543).
att(104,34).
att(753,1684).
att(105,1817).
att(488,1090).
att(1490,340).
att(633,2024).
att(485,1072).
att(1228,1053).
att(489,1151).
att(668,1999).
att(1293,1760).
att(1079,66).
att(1087,3).
att(883,1374).
att(1080,63).
att(910,1491).
att(104,1821).
att(916,1448).
att(668,1990).
att(661,2018).
att(1085,73).
att(1310,1194).
att(663,1988).
att(879,1401).
att(1086,79).
att(485,1048).
att(489,1107).
att(665,1991).
att(1083,74).
att(1434,419).
att(295,1823).
att(633,2039).
att(1435,423).
att(142,1983).
att(104,1828).
att(660,2017).
att(297,1785).
att(1084,70).
att(1449,527).
att(1227,1200).
att(484,1139).
att(1449,555).
att(912,1508).
att(105,1837).
att(1445,547).
att(924,1407).
att(1231,1183).
att(464,939).
att(1441,423).
att(468,980).
att(1490,413).
att(465,1000).
att(684,1777).
att(661,1866).
att(1084,212).
att(1223,1158).
att(1221,1164).
att(1226,1194).
att(110,1905).
att(679,1777).
att(1443,417).
att(1449,547).
att(631,1882).
att(1437,568).
att(1230,1196).
att(1310,1211).
att(467,944).
att(468,931).
att(488,1170).
att(1231,1194).
att(1224,1203).
att(920,1524).
att(1231,1191).
att(1238,992).
att(1228,1201).
att(684,1788).
att(482,1089).
att(684,1790).
att(1230,1198).
att(653,1811).
att(1080,152).
att(104,1850).
att(1443,568).
att(457,981).
att(636,1860).
att(289,1909).
att(1257,571).
att(1228,1166).
att(459,998).
att(193,19).
att(105,1876).
att(1081,218).
att(1312,1209).
att(646,2040).
att(1153,630).
att(876,1514).
att(1081,189).
att(1309,989).
att(353,1460).
att(1315,1205).
att(289,1906).
att(1257,570).
att(289,1903).
att(1075,214).
att(1230,1129).
att(875,1545).
att(459,1021).
att(1087,59).
att(636,1880).
att(879,1542).
att(926,1512).
att(481,1122).
att(463,1004).
att(876,1543).
att(365,1470).
att(877,1361).
att(486,1173).
att(1256,585).
att(1447,573).
att(877,1337).
att(465,1067).
att(648,1862).
att(668,1786).
att(1227,990).
att(295,1909).
att(668,1770).
att(461,1092).
att(466,1074).
att(1231,991).
att(1264,586).
att(1157,629).
att(467,1095).
att(881,1336).
att(303,1824).
att(299,1936).
att(1153,678).
att(1228,1006).
att(293,1932).
att(1435,338).
att(876,1351).
att(464,1093).
att(1449,579).
att(466,1091).
att(361,1601).
att(661,1804).
att(297,1869).
att(309,1825).
att(348,1470).
att(657,1964).
att(466,1095).
att(1437,338).
att(1451,581).
att(462,1031).
att(467,1045).
att(1152,630).
att(468,1050).
att(926,1331).
att(910,1453).
att(303,1825).
att(633,1989).
att(920,1244).
att(357,1554).
att(1153,629).
att(660,1965).
att(269,1791).
att(1261,519).
att(308,1822).
att(1229,1037).
att(269,1799).
att(1449,588).
att(196,77).
att(289,1869).
att(348,1452).
att(1262,599).
att(197,47).
att(1443,336).
att(1264,606).
att(961,1487).
att(1480,393).
att(466,1115).
att(445,930).
att(1163,705).
att(1157,664).
att(306,1849).
att(466,1116).
att(303,1842).
att(168,42).
att(195,119).
att(1241,1187).
att(194,155).
att(303,1833).
att(468,1112).
att(1145,664).
att(269,1849).
att(1238,1187).
att(353,1587).
att(675,1775).
att(955,1520).
att(1232,1135).
att(652,1867).
att(1232,1166).
att(309,1843).
att(675,1784).
att(1157,680).
att(1142,625).
att(1232,1160).
att(1238,1192).
att(959,1483).
att(1233,1165).
att(1233,1161).
att(104,2007).
att(1480,419).
att(969,1414).
att(862,1768).
att(1240,1185).
att(299,1930).
att(963,1491).
att(195,65).
att(267,1821).
att(303,1845).
att(1240,1192).
att(1153,666).
att(1477,561).
att(353,1603).
att(1222,1208).
att(1238,1195).
att(445,996).
att(959,1516).
att(865,1778).
att(306,1905).
att(764,1527).
att(173,17).
att(680,1761).
att(690,1764).
att(1157,700).
att(690,1762).
att(193,113).
att(363,1623).
att(1157,698).
att(676,1790).
att(681,1853).
att(1233,985).
att(1221,1212).
att(1242,1191).
att(1159,738).
att(863,1786).
att(194,213).
att(864,1786).
att(1234,985).
att(443,1069).
att(1237,1213).
att(684,1862).
att(953,1541).
att(271,1835).
att(306,1834).
att(192,121).
att(675,1968).
att(469,998).
att(865,1798).
att(200,20).
att(273,1846).
att(1232,1011).
att(459,1143).
att(865,1784).
att(445,1004).
att(1476,588).
att(1250,985).
att(1476,585).
att(693,1764).
att(1233,1009).
att(194,148).
att(1291,1664).
att(267,1844).
att(193,153).
att(459,1146).
att(468,1180).
att(1482,580).
att(198,189).
att(468,1171).
att(365,1611).
att(1240,1211).
att(691,1758).
att(864,1807).
att(305,1833).
att(357,1628).
att(191,120).
att(192,113).
att(271,1846).
att(200,75).
att(309,1932).
att(686,1798).
att(320,1454).
att(668,1864).
att(200,73).
att(353,1656).
att(686,1770).
att(912,1330).
att(353,1648).
att(1230,1204).
att(1437,570).
att(309,1936).
att(659,1880).
att(1241,1165).
att(1157,732).
att(659,1882).
att(913,1333).
att(920,1545).
att(365,1736).
att(1228,1220).
att(335,1533).
att(443,1109).
att(684,1811).
att(1152,731).
att(329,1533).
att(357,1650).
att(357,1648).
att(1126,628).
att(361,1672).
att(1223,1035).
att(339,1556).
att(679,1803).
att(1128,594).
att(190,188).
att(164,19).
att(663,1880).
att(166,17).
att(441,981).
att(1124,635).
att(1159,725).
att(1152,740).
att(1159,730).
att(1152,743).
att(303,1955).
att(655,1995).
att(914,1359).
att(365,1655).
att(1441,580).
att(1223,1037).
att(1480,336).
att(200,148).
att(271,1940).
att(1437,600).
att(1482,336).
att(306,2013).
att(969,1330).
att(350,1720).
att(166,66).
att(1477,362).
att(1123,692).
att(267,2013).
att(654,1987).
att(965,1265).
att(1480,340).
att(269,2007).
att(961,1274).
att(320,1553).
att(348,1674).
att(961,1258).
att(1121,637).
att(1437,526).
att(951,1491).
att(1157,802).
att(469,1088).
att(681,2024).
att(1121,635).
att(1437,521).
att(1523,337).
att(164,48).
att(1136,693).
att(168,76).
att(688,1963).
att(1488,600).
att(446,1110).
att(1477,369).
att(1241,1062).
att(1523,362).
att(1439,541).
att(1126,682).
att(1484,360).
att(1484,362).
att(329,1601).
att(1124,691).
att(1152,805).
att(1484,364).
att(910,1409).
att(1435,546).
att(1486,370).
att(1126,692).
att(1435,545).
att(323,1528).
att(1119,625).
att(323,1533).
att(910,1412).
att(172,1869).
att(331,1049).
att(1293,356).
att(953,1103).
att(323,1052).
att(324,1069).
att(1301,326).
att(200,1956).
att(1295,371).
att(1128,59).
att(1130,55).
att(136,1787).
att(963,1079).
att(1255,2262).
att(957,1102).
att(1234,2271).
att(170,1957).
att(963,1075).
att(1252,2260).
att(626,1246).
att(162,1871).
att(324,996).
att(1252,2269).
att(1299,356).
att(1301,370).
att(320,1022).
att(757,273).
att(348,1120).
att(627,1265).
att(363,1174).
att(335,1069).
att(325,997).
att(761,306).
att(863,754).
att(755,303).
att(1117,20).
att(267,1465).
att(1255,2272).
att(750,105).
att(959,1124).
att(138,1831).
att(864,781).
att(965,1123).
att(1301,392).
att(614,1479).
att(1291,421).
att(951,1157).
att(1121,48).
att(1233,2215).
att(761,110).
att(1136,153).
att(673,833).
att(1226,1760).
att(1243,2113).
att(676,814).
att(1297,423).
att(1130,72).
att(1123,77).
att(166,1936).
att(1297,419).
att(616,1479).
att(761,105).
att(956,1145).
att(1251,2211).
att(335,1071).
att(328,1109).
att(1305,383).
att(677,811).
att(864,779).
att(323,1034).
att(612,1512).
att(959,1163).
att(1301,413).
att(164,1868).
att(320,1065).
att(164,1872).
att(1136,74).
att(614,1550).
att(745,132).
att(862,812).
att(339,1098).
att(676,838).
att(325,1049).
att(627,1524).
att(1243,2147).
att(1225,1766).
att(328,1047).
att(1117,51).
att(1292,565).
att(1234,2224).
att(1249,2121).
att(1234,2226).
att(331,1107).
att(963,1142).
att(329,1122).
att(679,813).
att(1232,2117).
att(967,1126).
att(1105,41).
att(1232,2109).
att(1103,3).
att(679,808).
att(1121,64).
att(744,1760).
att(1100,21).
att(743,1765).
att(1100,2).
att(1130,151).
att(509,981).
att(1235,2120).
att(504,1021).
att(325,1148).
att(335,1122).
att(1117,149).
att(1223,2236).
att(508,938).
att(1233,2148).
att(675,880).
att(1119,70).
att(1242,2211).
att(1106,9).
att(967,1152).
att(1136,156).
att(1234,2143).
att(1237,2229).
att(160,2013).
att(864,890).
att(674,880).
att(1105,2).
att(136,1851).
att(652,1665).
att(683,830).
att(679,1665).
att(675,972).
att(1232,2252).
att(323,1176).
att(1119,214).
att(501,980).
att(862,927).
att(1232,2250).
att(506,998).
att(686,830).
att(963,177).
att(509,1065).
att(1123,210).
att(1236,2239).
att(863,923).
att(737,1767).
att(1104,52).
att(502,980).
att(863,882).
att(677,915).
att(129,1900).
att(1290,341).
att(177,1901).
att(675,958).
att(1134,208).
att(1232,2264).
att(735,1764).
att(955,1075).
att(331,1175).
att(1240,2235).
att(1099,2).
att(506,1004).
att(865,927).
att(688,1691).
att(746,267).
att(507,1000).
att(1124,212).
att(1104,59).
att(676,954).
att(1101,11).
att(129,1835).
att(683,1684).
att(329,1172).
att(138,1957).
att(757,1100).
att(1290,547).
att(1293,557).
att(610,1527).
att(93,1822).
att(87,1789).
att(93,1828).
att(127,1955).
att(143,1818).
att(616,1404).
att(504,1110).
att(648,1258).
att(136,1938).
att(1324,369).
att(1322,364).
att(499,1054).
att(1324,1765).
att(755,1136).
att(1324,386).
att(138,1877).
att(138,1875).
att(750,1145).
att(646,1436).
att(509,1046).
att(852,815).
att(1320,395).
att(1266,2283).
att(1268,2216).
att(91,1791).
att(502,1054).
att(710,1764).
att(507,1047).
att(1099,59).
att(1303,544).
att(145,1785).
att(759,1123).
att(853,831).
att(1268,2210).
att(610,1518).
att(1305,545).
att(1085,5).
att(1086,1).
att(505,1141).
att(1105,149).
att(755,1152).
att(489,939).
att(1083,1).
att(1256,2120).
att(508,1120).
att(609,1544).
att(858,835).
att(885,897).
att(1104,124).
att(1288,1759).
att(487,1027).
att(877,884).
att(879,888).
att(1288,572).
att(891,811).
att(1096,63).
att(1080,6).
att(642,1516).
att(93,1851).
att(610,1540).
att(129,2003).
att(146,1812).
att(1324,569).
att(1324,567).
att(1097,81).
att(1102,74).
att(146,1820).
att(855,1662).
att(146,1818).
att(857,1668).
att(881,882).
att(1266,2222).
att(1314,578).
att(1256,2253).
att(85,1822).
att(1103,72).
att(87,1824).
att(1100,69).
att(509,1141).
att(509,1151).
att(1096,75).
att(1449,2117).
att(879,880).
att(1315,572).
att(648,1506).
att(1245,2147).
att(618,1540).
att(887,892).
att(618,1542).
att(1299,564).
att(481,1029).
att(861,838).
att(97,1833).
att(620,1506).
att(485,1018).
att(751,175).
att(1290,571).
att(764,1163).
att(1268,2119).
att(1243,2254).
att(487,1065).
att(891,886).
att(91,1903).
att(482,1020).
att(853,915).
att(479,1017).
att(676,1654).
att(748,199).
att(855,880).
att(1096,113).
att(887,896).
att(1101,124).
att(677,1679).
att(1086,30).
att(1105,115).
att(1232,2242).
att(1102,154).
att(1268,2147).
att(1079,21).
att(1268,2142).
att(485,940).
att(1102,153).
att(627,1543).
att(610,1267).
att(1243,2265).
att(1291,602).
att(759,170).
att(852,954).
att(91,1838).
att(624,1340).
att(1297,583).
att(479,931).
att(507,1114).
att(853,958).
att(1096,152).
att(93,1840).
att(145,1833).
att(146,1953).
att(1312,336).
att(1085,48).
att(609,1267).
att(853,788).
att(486,1046).
att(753,1084).
att(745,1097).
att(860,765).
att(1248,2264).
att(616,1357).
att(1254,2239).
att(1079,50).
att(110,1831).
att(616,1352).
att(699,1762).
att(863,1682).
att(1315,326).
att(499,1180).
att(638,1457).
att(1292,519).
att(97,1906).
att(889,952).
att(142,1871).
att(91,1873).
att(102,1793).
att(734,1404).
att(502,1179).
att(624,1357).
att(1248,2273).
att(1299,1765).
att(1299,1766).
att(1080,59).
att(648,1401).
att(1076,1849).
att(105,1279).
att(1264,2211).
att(659,1524).
att(660,1494).
att(1261,2215).
att(1445,2209).
att(876,831).
att(914,854).
att(91,1500).
att(143,1471).
att(85,1397).
att(634,1518).
att(657,1527).
att(912,878).
att(1096,1985).
att(1437,2119).
att(1224,567).
att(1259,2226).
att(1310,571).
att(1086,1849).
att(1086,1847).
att(633,1550).
att(1082,1815).
att(633,1547).
att(1261,2234).
att(1079,1847).
att(85,1427).
att(660,1506).
att(1230,417).
att(657,1547).
att(875,1658).
att(87,1422).
att(145,1557).
att(1310,584).
att(1437,2148).
att(1081,1906).
att(1085,1870).
att(1224,576).
att(881,1662).
att(913,880).
att(1082,1870).
att(1225,586).
att(1225,583).
att(1082,1877).
att(660,1544).
att(1229,577).
att(1435,2254).
att(1443,2148).
att(1230,566).
att(1310,585).
att(910,921).
att(929,835).
att(297,1311).
att(631,1360).
att(912,960).
att(969,923).
att(881,1697).
att(1227,583).
att(299,1287).
att(100,1329).
att(1490,2142).
att(97,1432).
att(922,970).
att(914,954).
att(1435,2266).
att(289,1278).
att(93,1463).
att(1080,1900).
att(912,766).
att(297,1284).
att(297,1278).
att(1080,1940).
att(879,921).
att(1085,1936).
att(198,1830).
att(881,919).
att(855,1682).
att(1324,571).
att(195,1819).
att(1314,604).
att(877,964).
att(1083,2011).
att(1275,2232).
att(1083,2007).
att(1310,334).
att(631,1244).
att(1253,1759).
att(1087,1829).
att(791,1762).
att(893,1680).
att(1322,584).
att(650,1337).
att(198,1785).
att(1270,2248).
att(198,1791).
att(95,1561).
att(633,1271).
att(1082,1868).
att(1312,603).
att(876,752).
att(638,1374).
att(661,1276).
att(196,1826).
att(1257,2276).
att(110,1343).
att(295,1369).
att(609,1374).
att(796,1764).
att(1449,2256).
att(891,1682).
att(891,1680).
att(104,1397).
att(1159,4).
att(1229,341).
att(1447,2268).
att(1256,2286).
att(100,1501).
att(646,1373).
att(1309,393).
att(359,1025).
att(359,1027).
att(1147,7).
att(1451,2268).
att(1315,525).
att(361,1020).
att(640,1373).
att(1288,543).
att(1227,383).
att(926,760).
att(1447,2278).
att(1261,2282).
att(659,1440).
att(926,758).
att(1259,2279).
att(646,1383).
att(633,1481).
att(665,1440).
att(1229,396).
att(100,1397).
att(100,1372).
att(359,930).
att(1230,367).
att(1262,2285).
att(295,1429).
att(875,809).
att(289,1345).
att(640,1399).
att(955,880).
att(1443,2220).
att(273,1279).
att(912,1663).
att(1149,30).
att(918,831).
att(301,1329).
att(1237,567).
att(920,836).
att(303,1306).
att(684,1548).
att(293,1467).
att(359,1070).
att(1434,2231).
att(1441,2225).
att(305,1321).
att(110,1567).
att(348,1020).
att(652,1340).
att(306,1278).
att(1435,2242).
att(1236,578).
att(1493,2224).
att(1521,2115).
att(916,1663).
att(1521,2118).
att(969,831).
att(1476,2250).
att(1153,30).
att(969,1662).
att(913,1684).
att(953,966).
att(1439,2247).
att(359,1000).
att(920,1657).
att(1434,2242).
att(295,1502).
att(1147,36).
att(190,1873).
att(1474,2264).
att(652,1358).
att(1239,587).
att(1521,2145).
att(961,970).
att(168,1789).
att(1488,2235).
att(198,1936).
att(1484,2258).
att(1477,2266).
att(194,1941).
att(269,1363).
att(191,1954).
att(920,1682).
att(162,1791).
att(353,1054).
att(308,1370).
att(862,1277).
att(192,1874).
att(951,789).
att(273,1313).
att(1241,1758).
att(1480,2260).
att(1482,2268).
att(951,754).
att(1523,2256).
att(681,1358).
att(1152,55).
att(1241,1767).
att(365,1034).
att(191,1877).
att(195,1941).
att(1153,52).
att(1238,1767).
att(1235,367).
att(1478,2275).
att(1253,334).
att(309,1364).
att(1486,2264).
att(634,1373).
att(1142,74).
att(164,1827).
att(681,1271).
att(969,915).
att(1227,599).
att(657,1355).
att(166,1828).
att(354,1072).
att(193,1935).
att(1451,2246).
att(725,1765).
att(913,747).
att(1225,526).
att(199,1846).
att(1155,147).
att(1435,2278).
att(199,1845).
att(1223,356).
att(1223,366).
att(653,1487).
att(967,958).
att(1155,72).
att(172,1831).
att(1147,77).
att(1433,2287).
att(164,1793).
att(193,1957).
att(173,1825).
att(659,1387).
att(301,1342).
att(166,1793).
att(194,1956).
att(1224,524).
att(194,1957).
att(731,1762).
att(1237,386).
att(684,1456).
att(357,1109).
att(652,1495).
att(1435,2288).
att(305,1343).
att(1230,607).
att(192,1928).
att(306,1498).
att(912,810).
att(659,1409).
att(1142,156).
att(1231,527).
att(659,1407).
att(1490,2275).
att(659,1412).
att(1130,41).
att(301,1498).
att(1241,390).
att(1241,396).
att(1123,42).
att(1222,417).
att(355,1114).
att(922,783).
att(914,813).
att(1237,410).
att(267,1472).
att(1223,419).
att(357,1146).
att(686,1487).
att(190,2001).
att(679,1524).
att(653,1518).
att(1476,2115).
att(271,1428).
att(913,816).
att(1124,2).
att(1159,152).
att(350,1148).
att(683,1522).
att(301,1502).
att(1117,6).
att(329,1021).
att(162,1843).
att(329,1025).
att(683,1475).
att(1126,34).
att(172,1842).
att(1224,1447).
att(1224,1261).
att(1225,1259).
att(1229,1245).
att(1637,1840).
att(1310,1439).
att(1227,1262).
att(1708,1284).
att(1310,1435).
att(1224,1443).
att(1728,1372).
att(1640,1850).
att(1734,1392).
att(1229,1435).
att(1309,1484).
att(1731,1501).
att(1310,1480).
att(1731,1472).
att(1728,1394).
att(1639,1960).
att(1228,1493).
att(1714,1308).
att(1710,1302).
att(1711,1369).
att(1638,1941).
att(1231,1441).
att(1712,1371).
att(1713,1321).
att(1228,1486).
att(1724,1472).
att(1640,1909).
att(1414,401).
att(1730,1499).
att(1730,1469).
att(1732,1555).
att(1622,1821).
att(1714,1343).
att(1318,1477).
att(1710,1365).
att(1710,1368).
att(1412,438).
att(1619,1820).
att(1622,1827).
att(1229,1228).
att(1414,458).
att(1710,1366).
att(1227,1238).
att(1638,1936).
att(1634,1961).
att(1400,437).
att(1620,1789).
att(1404,452).
att(1224,1234).
att(1712,1472).
att(1629,2011).
att(1614,1851).
att(1409,470).
att(1693,1287).
att(1414,477).
att(1715,1279).
att(1399,458).
att(1622,1843).
att(1615,1823).
att(1610,1831).
att(1620,1814).
att(1615,1826).
att(1618,1844).
att(1310,1445).
att(1715,1308).
att(1708,1431).
att(1622,1872).
att(1714,1461).
att(1693,1307).
att(1404,515).
att(1399,492).
att(1688,1323).
att(1401,491).
att(1402,518).
att(1407,511).
att(1407,510).
att(1716,1329).
att(1709,1392).
att(1237,1480).
att(1693,1329).
att(1387,391).
att(1406,520).
att(1694,1317).
att(1400,522).
att(1707,1496).
att(1712,1461).
att(1598,1830).
att(1690,1298).
att(1610,1870).
att(1409,558).
att(1381,411).
att(1379,378).
att(1620,1910).
att(1693,1341).
att(1593,1799).
att(1590,1783).
att(1241,1505).
att(1686,1368).
att(1595,1827).
att(1686,1366).
att(1599,1787).
att(1696,1307).
att(1619,1959).
att(1696,1304).
att(1401,537).
att(1690,1328).
att(1235,1255).
att(1693,1362).
att(1400,548).
att(1617,1870).
att(1400,554).
att(1694,1367).
att(1708,1557).
att(1401,550).
att(1610,1930).
att(1592,1827).
att(1698,1424).
att(1610,1936).
att(1757,9).
att(1617,2001).
att(1230,1519).
att(1694,1392).
att(1230,1510).
att(1595,1848).
att(1597,1824).
att(1236,1233).
att(1692,1364).
att(1610,1959).
att(1379,455).
att(1615,1911).
att(1590,1828).
att(1686,1346).
att(1595,1814).
att(1613,1928).
att(1700,1328).
att(1756,13).
att(1237,1272).
att(1696,1497).
att(1671,1279).
att(1220,930).
att(1757,12).
att(1596,1841).
att(1213,1025).
att(1592,1848).
att(1698,1496).
att(1757,15).
att(1690,1395).
att(1222,1261).
att(1379,475).
att(1212,1027).
att(1211,1018).
att(1239,1248).
att(1693,1431).
att(1211,1023).
att(1383,514).
att(1239,1249).
att(1377,496).
att(1748,41).
att(1753,15).
att(1383,516).
att(1688,1396).
att(1213,936).
att(1592,1812).
att(1615,2001).
att(1755,34).
att(1755,36).
att(1752,41).
att(1214,930).
att(1591,1844).
att(1701,786).
att(1671,722).
att(1592,1348).
att(1690,949).
att(1752,1812).
att(1751,1831).
att(1252,1478).
att(1235,1509).
att(1667,806).
att(1715,977).
att(1756,1827).
att(1716,975).
att(1756,1830).
att(1690,898).
att(1690,904).
att(1692,901).
att(1590,1371).
att(1595,1346).
att(1694,979).
att(1753,1839).
att(1595,1500).
att(1671,770).
att(1592,1421).
att(1596,1398).
att(1671,773).
att(1255,1519).
att(1578,1284).
att(1755,1846).
att(1597,1496).
att(1659,770).
att(1755,1840).
att(1686,1002).
att(1701,774).
att(1243,1266).
att(1671,792).
att(1243,1249).
att(1666,793).
att(1593,1420).
att(1597,1391).
att(1599,1501).
att(1755,1850).
att(1595,1390).
att(1700,768).
att(1753,1845).
att(1753,1844).
att(1748,1907).
att(1576,1321).
att(1595,1537).
att(1580,1306).
att(1756,1877).
att(1233,1243).
att(1750,1832).
att(1752,1873).
att(1595,1432).
att(1598,1459).
att(1580,1328).
att(1599,1539).
att(1232,1435).
att(1752,1935).
att(1753,1930).
att(1700,948).
att(1573,1289).
att(1756,1935).
att(1252,1451).
att(1578,1422).
att(1575,1343).
att(1659,870).
att(1232,1488).
att(1749,1869).
att(1250,1434).
att(1669,898).
att(1701,871).
att(1578,1363).
att(1745,1785).
att(1664,824).
att(1252,1488).
att(1573,1306).
att(1255,1434).
att(1252,1441).
att(1755,1958).
att(1739,1815).
att(1747,1850).
att(1275,1509).
att(1272,1549).
att(1739,1812).
att(1752,2007).
att(1701,937).
att(1749,1911).
att(1699,1028).
att(1741,1815).
att(1750,1911).
att(1571,1350).
att(1738,1825).
att(1730,1279).
att(1734,1328).
att(1257,1262).
att(1747,1874).
att(1738,1835).
att(1739,1844).
att(1579,1472).
att(1744,1833).
att(1745,1906).
att(1730,1300).
att(1744,1961).
att(1634,1800).
att(1740,1874).
att(1272,1257).
att(1747,1869).
att(1576,1432).
att(1270,1447).
att(1727,1289).
att(1275,1261).
att(1638,1800).
att(1747,1959).
att(1574,1539).
att(1745,1958).
att(1247,1486).
att(1734,1425).
att(1746,2001).
att(1731,1421).
att(1734,1395).
att(1634,1819).
att(1732,1391).
att(1732,1395).
att(1724,1366).
att(1272,1474).
att(1266,1477).
att(1738,1958).
att(1739,1954).
att(1637,1787).
att(1634,1823).
att(1722,1371).
att(1732,850).
att(1640,1304).
att(1743,1459).
att(1743,1563).
att(1730,899).
att(1731,872).
att(1744,1567).
att(1640,1313).
att(1739,1503).
att(1727,819).
att(1732,899).
att(1724,873).
att(1724,870).
att(1733,979).
att(1634,1350).
att(1634,1349).
att(1729,899).
att(1637,1368).
att(1732,977).
att(1631,1424).
att(1733,1030).
att(1724,943).
att(1714,768).
att(1714,773).
att(1710,776).
att(1729,1001).
att(1637,1396).
att(1639,1496).
att(1713,770).
att(1732,1008).
att(1636,1427).
att(1708,786).
att(1614,1325).
att(1708,825).
att(1635,1461).
att(1622,1300).
att(1636,1391).
att(1617,1286).
att(1617,1287).
att(1613,1284).
att(1638,1471).
att(1707,849).
att(1711,825).
att(1708,871).
att(1629,1537).
att(1713,872).
att(1694,715).
att(1694,718).
att(1634,1561).
att(1712,851).
att(1621,1300).
att(1631,1431).
att(1640,1565).
att(1640,1561).
att(1707,901).
att(1712,1002).
att(1706,977).
att(1709,950).
att(1714,1003).
att(1707,907).
att(1713,975).
att(1714,975).
att(1618,1421).
att(1693,799).
att(1714,906).
att(1614,1496).
att(1614,1472).
att(1716,821).
att(1693,827).
att(1591,1278).
att(1694,822).
att(1617,1397).
att(1688,767).
att(1696,899).
att(1592,1329).
att(1716,872).
att(1690,827).
att(1698,850).
att(1693,868).
att(1693,866).
att(1617,1565).
att(1693,872).
att(1595,1368).
att(1591,1326).
att(1690,845).
att(1621,1567).
att(1590,1317).
att(1618,1563).
att(1688,821).
att(1596,770).
att(1295,1236).
att(1592,792).
att(1292,1242).
att(1599,849).
att(1698,282).
att(1593,771).
att(1593,772).
att(1617,1003).
att(1303,1241).
att(1599,767).
att(1592,724).
att(1593,720).
att(1292,1248).
att(1688,232).
att(1694,321).
att(1669,114).
att(1688,351).
att(1750,1279).
att(1756,1304).
att(1291,1447).
att(1592,840).
att(1757,1370).
att(1666,209).
att(1686,377).
att(1290,1451).
att(1303,1268).
att(1757,1317).
att(1597,846).
att(1599,874).
att(1299,1447).
att(1291,1297).
att(1598,979).
att(1579,722).
att(1700,257).
att(1701,260).
att(1597,869).
att(1757,1429).
att(1748,1368).
att(1694,412).
att(1291,1312).
att(1291,1315).
att(1671,202).
att(1598,850).
att(1671,215).
att(1757,1369).
att(1664,205).
att(1755,1363).
att(1593,898).
att(1661,203).
att(1748,1300).
att(1659,215).
att(1290,1225).
att(1598,1030).
att(1291,1309).
att(1596,943).
att(1699,312).
att(1299,1322).
att(1593,943).
att(1597,1002).
att(1594,1005).
att(1700,233).
att(1596,973).
att(1598,907).
att(1701,219).
att(1592,978).
att(1292,1239).
att(1293,1242).
att(1593,979).
att(1594,909).
att(1700,235).
att(1739,1286).
att(1700,347).
att(1578,901).
att(1664,282).
att(1327,1233).
att(1322,1234).
att(1322,1235).
att(1738,1286).
att(1318,1275).
att(1700,279).
att(1312,1259).
att(1580,840).
att(1591,1002).
att(1315,1447).
att(1577,847).
att(1757,1467).
att(1322,1272).
att(1324,1270).
att(1747,1364).
att(1743,1308).
att(1577,871).
att(1732,716).
att(1748,1557).
att(1574,850).
att(1748,1467).
att(1312,1477).
att(1318,1441).
att(1661,351).
att(1740,1323).
att(1315,1480).
att(1754,1537).
att(1755,1561).
att(1666,327).
att(1316,1486).
att(1729,721).
att(1314,1316).
att(1734,794).
att(1572,949).
att(1746,1429).
att(1291,1484).
att(1730,716).
att(1288,1310).
att(1727,806).
att(1314,1231).
att(1303,1493).
att(1580,975).
att(1297,1486).
att(1305,1493).
att(1315,1324).
att(1731,720).
att(1305,1523).
att(1577,949).
att(1732,790).
att(1574,977).
att(1741,1345).
att(1574,978).
att(1293,1510).
att(1733,846).
att(1733,847).
att(1297,1513).
att(1730,774).
att(1743,1473).
att(1318,1230).
att(1324,1223).
att(1314,1252).
att(1746,1396).
att(1744,1392).
att(1745,1498).
att(1312,1254).
att(1574,1002).
att(1620,649).
att(1181,1462).
att(1709,57).
att(1185,1562).
att(1181,1468).
att(989,1033).
att(1274,411).
att(988,1049).
att(1637,737).
att(1187,1559).
att(1641,798).
att(1183,1558).
att(1619,615).
att(1638,802).
att(1277,399).
att(1618,628).
att(1194,1673).
att(1194,1650).
att(1634,727).
att(1622,613).
att(1456,554).
att(1193,1627).
att(1446,554).
att(989,1066).
att(1188,1464).
att(1188,1460).
att(1187,1455).
att(1450,553).
att(1198,1651).
att(1639,717).
att(1194,1678).
att(1722,210).
att(991,1031).
att(1639,723).
att(986,1089).
att(992,934).
att(1269,418).
att(1191,1723).
att(1713,68).
att(1244,403).
att(1192,1736).
att(1263,559).
att(1636,800).
att(1165,930).
att(1707,65).
att(1613,693).
att(1715,1).
att(1276,454).
att(1631,717).
att(1181,1556).
att(1641,800).
att(1710,50).
att(1613,617).
att(1707,80).
att(1706,151).
att(1692,1).
att(1189,1616).
att(1244,458).
att(1716,18).
att(1692,5).
att(1714,122).
att(1161,998).
att(1710,115).
att(1183,1645).
att(1158,1022).
att(1150,930).
att(1162,930).
att(1621,667).
att(1265,495).
att(1188,1584).
att(1154,934).
att(984,1144).
att(1712,122).
att(1619,712).
att(1707,153).
att(990,1139).
att(1246,496).
att(983,1173).
att(1690,15).
att(992,1049).
att(1622,733).
att(1185,1703).
att(1162,1069).
att(1615,699).
att(1693,58).
att(1156,1052).
att(1187,1674).
att(1686,56).
att(1055,1464).
att(1269,510).
att(1694,44).
att(1595,637).
att(1613,739).
att(1715,43).
att(1591,597).
att(1267,529).
att(1688,60).
att(1186,1612).
att(1246,522).
att(987,1171).
att(1150,1018).
att(1244,514).
att(1706,122).
att(1713,210).
att(1615,708).
att(1265,534).
att(1709,115).
att(1698,19).
att(1184,1643).
att(1271,532).
att(1156,980).
att(1617,701).
att(1154,980).
att(984,1172).
att(1062,1468).
att(1619,740).
att(1267,549).
att(1613,777).
att(1217,1927).
att(992,1089).
att(1219,1924).
att(1162,1108).
att(1244,542).
att(1165,1091).
att(1160,1111).
att(1061,1600).
att(1614,791).
att(1715,78).
att(1715,77).
att(1610,740).
att(1690,56).
att(1158,1034).
att(1610,741).
att(1189,1725).
att(1593,632).
att(1692,48).
att(1590,639).
att(1154,1033).
att(1055,1566).
att(1621,777).
att(1613,725).
att(1165,1098).
att(1598,613).
att(1183,1649).
att(1591,649).
att(1696,148).
att(1592,680).
att(1701,34).
att(1053,1603).
att(1158,1146).
att(1156,1141).
att(1590,658).
att(1659,5).
att(1661,1).
att(1667,41).
att(1131,944).
att(1165,1112).
att(1715,154).
att(1061,1568).
att(1217,2008).
att(1692,79).
att(1593,692).
att(1156,1077).
att(1667,6).
att(1218,2008).
att(1061,1582).
att(1167,1070).
att(1701,58).
att(1696,208).
att(1688,189).
att(1043,1455).
att(1664,32).
att(1692,107).
att(1220,1982).
att(1593,694).
att(1056,1626).
att(1216,2031).
att(1042,1470).
att(1218,2033).
att(1598,695).
att(1669,36).
att(1694,189).
att(1688,120).
att(1701,16).
att(1164,1175).
att(1592,664).
att(1690,155).
att(1162,1112).
att(1056,1646).
att(1219,2014).
att(1593,711).
att(1693,206).
att(1211,1978).
att(1661,28).
att(1218,2049).
att(1161,1179).
att(1217,2047).
att(1694,213).
att(1578,617).
att(1216,2095).
att(1599,805).
att(1125,1046).
att(1216,2072).
att(1590,732).
att(1591,744).
att(1057,1702).
att(1150,1172).
att(1690,206).
att(1150,1178).
att(1059,1674).
att(1060,1648).
att(1597,733).
att(1659,59).
att(1661,58).
att(1700,44).
att(1481,476).
att(1669,1839).
att(1669,1832).
att(1591,122).
att(1037,1029).
att(1576,42).
att(1754,708).
att(1560,1089).
att(1213,1633).
att(1564,1072).
att(1755,700).
att(1593,122).
att(1215,1625).
att(1527,515).
att(1593,121).
att(1667,1903).
att(1056,1116).
att(1062,1180).
att(1576,8).
att(1522,512).
att(1556,1034).
att(1669,1849).
att(1040,936).
att(1217,1633).
att(1690,2005).
att(1664,1817).
att(1220,1606).
att(1578,39).
att(1597,148).
att(1757,711).
att(1060,1113).
att(1559,1049).
att(1590,148).
att(1751,672).
att(1527,532).
att(1590,147).
att(1575,36).
att(1041,1022).
att(1211,1585).
att(1481,514).
att(1552,1050).
att(1579,39).
att(1055,1151).
att(1746,647).
att(1560,1048).
att(1214,1683).
att(1206,1455).
att(1564,1034).
att(1525,530).
att(1213,1655).
att(1666,1957).
att(1201,1464).
att(1524,533).
att(1216,1653).
att(1524,537).
att(1042,1047).
att(1212,1681).
att(1522,550).
att(1571,59).
att(1041,1069).
att(1522,556).
att(1749,694).
att(1462,1178).
att(1556,999).
att(1572,18).
att(1579,61).
att(1217,1703).
att(1553,1027).
att(1578,58).
att(1464,1179).
att(1573,38).
att(1597,210).
att(1699,1871).
att(1754,703).
att(1755,697).
att(1039,1065).
att(1220,1612).
att(1664,1909).
att(1571,11).
att(1755,739).
att(1495,426).
att(1211,1623).
att(1659,1903).
att(1035,981).
att(1575,59).
att(1438,401).
att(1494,437).
att(1044,1089).
att(1580,63).
att(1210,1602).
att(1576,79).
att(1669,1938).
att(1576,82).
att(1747,690).
att(1037,1098).
att(1750,729).
att(1036,1045).
att(1036,1109).
att(1552,1172).
att(1573,77).
att(1016,942).
att(1201,1530).
att(1741,685).
att(1211,1719).
att(1495,460).
att(1526,998).
att(1038,1032).
att(1204,1562).
att(1748,731).
att(1743,637).
att(1743,639).
att(1044,1111).
att(1579,82).
att(1207,1533).
att(1562,1177).
att(1756,791).
att(1041,1098).
att(1559,1112).
att(1701,1940).
att(1533,1000).
att(1206,1558).
att(1756,777).
att(1213,1649).
att(1573,50).
att(1573,48).
att(1212,1674).
att(1531,1027).
att(1534,999).
att(1741,629).
att(1553,1122).
att(1553,1120).
att(1734,32).
att(1203,1583).
att(1532,1023).
att(1572,154).
att(1530,934).
att(1743,664).
att(1206,1587).
att(1727,3).
att(1730,9).
att(1206,1646).
att(1442,456).
att(1531,946).
att(1492,480).
att(1534,1018).
att(1745,701).
att(1013,1017).
att(1206,1628).
att(1722,7).
att(1491,474).
att(1528,1023).
att(1742,705).
att(1012,1020).
att(1438,470).
att(1204,1600).
att(1494,500).
att(1436,472).
att(1041,1141).
att(1041,1151).
att(1203,1605).
att(1210,1581).
att(1203,1588).
att(1442,475).
att(1562,1170).
att(1036,1088).
att(1553,1074).
att(1035,1073).
att(1208,1583).
att(1575,151).
att(1438,500).
att(1458,1045).
att(1729,20).
att(1746,744).
att(1462,1048).
att(1730,59).
att(1452,1034).
att(1202,1623).
att(1638,647).
att(1201,1623).
att(1458,1110).
att(1728,61).
att(1012,1064).
att(1470,1107).
att(1201,1630).
att(1460,1052).
att(1037,1115).
att(1468,1034).
att(1727,28).
att(1464,1064).
att(1574,216).
att(1460,1000).
att(1208,1719).
att(1733,77).
att(1739,725).
att(1015,1110).
att(1468,1068).
att(1641,613).
att(1637,639).
att(1638,617).
att(1442,534).
att(1746,803).
att(1637,621).
att(1629,641).
att(1740,727).
att(1457,426).
att(1468,1070).
att(1016,1074).
att(1629,635).
att(1741,791).
att(1722,52).
att(1470,1066).
att(1196,1526).
att(1009,1067).
att(1454,936).
att(1199,1553).
att(1208,1653).
att(1455,936).
att(1746,732).
att(1210,1718).
att(1194,1553).
att(1440,556).
att(1006,1066).
att(1191,1452).
att(1210,1723).
att(1450,435).
att(1202,1678).
att(1263,414).
att(1727,50).
att(1732,77).
att(1209,1726).
att(1196,1581).
att(1260,438).
att(1460,1115).
att(1641,656).
att(1464,1114).
att(1733,155).
att(1468,1174).
att(991,931).
att(1566,998).
att(1195,1586).
att(991,1018).
att(1448,451).
att(1559,1004).
att(1564,1000).
att(1634,666).
att(1639,705).
att(990,1020).
att(1456,474).
att(1197,1581).
att(1552,1029).
att(1629,692).
att(1196,1606).
att(1193,1532).
att(1258,454).
att(1007,1095).
att(1636,619).
att(1195,1529).
att(1203,1720).
att(1450,477).
att(1006,1108).
att(1554,1027).
att(1554,1029).
att(1458,1115).
att(1009,1120).
att(1193,1628).
att(1711,15).
att(984,993).
att(1192,1616).
att(1187,1470).
att(1730,218).
att(1195,1608).
att(991,1067).
att(1713,12).
att(1728,208).
att(1724,151).
att(1631,662).
att(1460,1095).
att(1446,518).
att(1007,1140).
att(1636,670).
att(1734,115).
att(984,938).
att(1453,537).
att(991,998).
att(1470,1071).
att(1712,20).
att(1732,212).
att(1016,1172).
att(1629,666).
att(1639,695).
att(1260,514).
att(1277,389).
att(1006,1148).
att(1458,1072).
att(1193,1111).
att(1541,411).
att(1629,77).
att(1581,931).
att(1193,1093).
att(1540,407).
att(1710,1827).
att(1583,946).
att(1196,1077).
att(1583,942).
att(1542,414).
att(1712,1842).
att(1569,1000).
att(1638,154).
att(1197,1108).
att(1200,1071).
att(1193,1049).
att(1192,1048).
att(1568,1004).
att(1585,946).
att(1710,1793).
att(1568,1017).
att(1708,1828).
att(1639,64).
att(1727,1910).
att(1186,1023).
att(1543,472).
att(1185,1023).
att(1631,150).
att(1635,121).
att(1603,1093).
att(1641,107).
att(1340,491).
att(1714,1841).
att(1199,1173).
att(1195,1115).
att(1433,1488).
att(1195,1116).
att(1200,1120).
att(1639,83).
att(1540,474).
att(1640,152).
att(1602,1048).
att(1542,476).
att(1618,3).
att(1710,1821).
att(1607,1095).
att(1339,512).
att(1198,1139).
att(1603,1049).
att(1339,522).
att(1198,1120).
att(1148,2001).
att(1634,149).
att(1433,1480).
att(1708,1848).
att(1186,1054).
att(1543,513).
att(1542,492).
att(1182,997).
att(1585,1092).
att(1620,61).
att(1188,1064).
att(1542,500).
att(1710,1899).
att(1193,1175).
att(1709,1908).
att(1714,1871).
att(1711,1955).
att(1545,514).
att(1259,1493).
att(1550,379).
att(1581,1094).
att(1619,51).
att(1544,539).
att(1445,1490).
att(1610,36).
att(1193,1138).
att(1447,1443).
att(1546,533).
att(1256,1523).
att(1615,42).
att(1447,1441).
att(1514,389).
att(1615,34).
att(1547,405).
att(1447,1476).
att(1586,1045).
att(1550,405).
att(1614,14).
att(1445,1484).
att(1619,71).
att(1190,1077).
att(1514,399).
att(1690,1783).
att(1622,67).
att(1698,1822).
att(1261,1510).
att(1583,1000).
att(1181,1034).
att(1693,1822).
att(1188,1095).
att(1621,79).
att(1617,77).
att(1262,1511).
att(1686,1830).
att(1710,1911).
att(1516,409).
att(1696,1822).
att(1506,401).
att(1619,82).
att(1585,980).
att(1445,1510).
att(1601,1115).
att(1185,1050).
att(1582,1023).
att(1506,405).
att(1512,428).
att(1506,414).
att(1583,1025).
att(1621,45).
att(1693,1831).
att(1470,1468).
att(1694,1822).
att(1603,1139).
att(1735,1934).
att(1600,1172).
att(1508,438).
att(1604,938).
att(1063,1017).
att(1533,1143).
att(1715,1836).
att(1716,1832).
att(1548,474).
att(1188,1169).
att(1620,154).
att(1621,151).
att(1693,1845).
att(1551,475).
att(1692,1848).
att(1504,1112).
att(1615,153).
att(1588,1022).
att(1614,148).
att(1061,946).
att(1622,151).
att(1692,1824).
att(1713,2001).
att(1181,1111).
att(1185,1077).
att(1547,498).
att(1516,471).
att(1686,1821).
att(1688,1812).
att(1184,1077).
att(1061,938).
att(1619,151).
att(1186,1090).
att(1757,630).
att(1757,632).
att(1217,1466).
att(1547,511).
att(1620,208).
att(1182,1112).
att(1060,998).
att(1219,1466).
att(1757,594).
att(1182,1116).
att(1060,981).
att(1530,1034).
att(1615,189).
att(1693,1871).
att(1059,1068).
att(1595,55).
att(1688,1841).
att(1057,1018).
att(1610,148).
att(1533,1031).
att(1060,1020).
att(1516,510).
att(1525,384).
att(1617,122).
att(1693,1907).
att(1613,115).
att(1688,1837).
att(1527,407).
att(1749,645).
att(1596,45).
att(1592,56).
att(1518,531).
att(1606,1033).
att(1599,77).
att(1479,391).
att(1220,1466).
att(1593,50).
att(1603,1067).
att(1661,1795).
att(1589,1111).
att(1753,613).
att(1661,1800).
att(1596,58).
att(1756,643).
att(1698,1869).
att(1520,435).
att(1615,210).
att(1698,1871).
att(1667,1795).
att(1211,1458).
att(1508,556).
att(1055,1052).
att(1748,596).
att(1524,432).
att(1061,1170).
att(1475,414).
att(1669,1821).
att(1701,1845).
att(1601,1023).
att(1533,1176).
att(1598,149).
att(1479,435).
att(1490,1513).
att(1520,454).
att(1530,1138).
att(1671,1819).
att(1690,1911).
att(1699,1841).
att(1666,1848).
att(1574,7).
att(1215,1586).
att(1589,1065).
att(1752,672).
att(1058,1095).
att(1217,1606).
att(1217,1607).
att(1750,641).
att(1061,1072).
att(1598,66).
att(1213,1504).
att(1699,1814).
att(1757,687).
att(1528,1120).
att(1535,1115).
att(1524,470).
att(1215,1607).
att(1595,65).
att(1595,68).
att(1607,1029).
att(1694,2009).
att(1375,514).
att(1529,1458).
att(1701,1364).
att(1373,498).
att(1214,1054).
att(1643,1174).
att(1580,1785).
att(1700,1370).
att(1381,536).
att(1699,1365).
att(1379,511).
att(1701,1371).
att(1757,51).
att(1379,518).
att(1578,1830).
att(1599,1911).
att(1692,1561).
att(1597,1941).
att(1531,1454).
att(1595,1957).
att(1214,1000).
att(1608,1069).
att(1357,403).
att(1598,1871).
att(1220,1017).
att(1754,17).
att(1381,556).
att(1696,1467).
att(1701,1302).
att(1647,1179).
att(1598,1874).
att(1757,55).
att(1755,12).
att(1757,48).
att(1755,59).
att(1211,996).
att(1659,1328).
att(1751,18).
att(1700,1300).
att(1748,15).
att(1753,57).
att(1353,403).
att(1625,1004).
att(1375,552).
att(1643,1169).
att(1669,1347).
att(1590,1910).
att(1217,1090).
att(1509,1511).
att(1598,2005).
att(1643,1168).
att(1580,1817).
att(1352,414).
att(1505,1507).
att(1580,1819).
att(1609,997).
att(1574,1824).
att(1599,2013).
att(1359,435).
att(1574,1817).
att(1633,1172).
att(1757,149).
att(1374,550).
att(1666,1420).
att(1699,1391).
att(1592,1911).
att(1597,2011).
att(1220,1098).
att(1511,1510).
att(1611,998).
att(1751,79).
att(1624,980).
att(1667,1424).
att(1751,77).
att(1373,553).
att(1373,551).
att(1575,1818).
att(1749,45).
att(1578,1823).
att(1630,1139).
att(1647,1144).
att(1757,71).
att(1215,1107).
att(1358,453).
att(1626,946).
att(1748,43).
att(1667,1349).
att(1351,435).
att(1667,1348).
att(1667,1472).
att(1703,940).
att(1742,42).
att(1748,154).
att(1210,1022).
att(1210,1021).
att(1627,1148).
att(1676,1018).
att(1744,4).
att(1484,1521).
att(1701,1501).
att(1625,1169).
att(1209,1022).
att(1623,1148).
att(1750,151).
att(1574,1832).
att(1699,1465).
att(1740,9).
att(1750,153).
att(1755,120).
att(1205,1025).
att(1351,453).
att(1575,1832).
att(1683,981).
att(1608,1168).
att(1749,66).
att(1218,1148).
att(1669,1422).
att(1700,1395).
att(1676,946).
att(1355,474).
att(1577,1817).
att(1609,1168).
att(1206,942).
att(1750,67).
att(1578,1838).
att(1358,495).
att(1358,498).
att(1354,476).
att(1212,1088).
att(1755,156).
att(1661,1425).
att(1667,1395).
att(1677,938).
att(1356,515).
att(1661,1430).
att(1744,59).
att(1573,1904).
att(1358,514).
att(1571,1900).
att(1205,1051).
att(1204,1029).
att(1203,1017).
att(1700,1459).
att(1572,1840).
att(1580,1901).
att(1576,1832).
att(1529,1553).
att(1359,530).
att(1744,26).
att(1334,382).
att(1609,1093).
att(1206,1018).
att(1616,1077).
att(1664,1497).
att(1740,28).
att(1212,1139).
att(1531,1562).
att(1571,1835).
att(1358,542).
att(1201,1022).
att(1205,1000).
att(1741,14).
att(1331,384).
att(1743,47).
att(1207,1109).
att(1734,1828).
att(1562,1460).
att(1743,52).
att(1731,1827).
att(1744,74).
att(1206,1093).
att(1562,1454).
att(1574,1940).
att(1566,1455).
att(1642,1000).
att(1361,437).
att(1201,1034).
att(1581,1172).
att(1335,433).
att(1644,1021).
att(1645,1023).
att(1628,998).
att(1583,1170).
att(1569,1178).
att(1580,1957).
att(1586,1115).
att(1206,1064).
att(1731,1795).
att(1570,1173).
att(1573,1869).
att(1740,54).
att(1646,1021).
att(1336,426).
att(1741,45).
att(1361,454).
att(1642,1025).
att(1571,1875).
att(1647,1029).
att(1330,426).
att(1724,1819).
att(1204,1074).
att(1640,7).
att(1644,942).
att(1743,64).
att(1361,471).
att(1199,944).
att(1727,1846).
att(1727,1842).
att(1722,1814).
att(1732,1839).
att(1209,1116).
att(1331,455).
att(1738,63).
att(1570,1115).
att(1738,68).
att(1586,1074).
att(1573,1928).
att(1630,939).
att(1201,1107).
att(1732,1850).
att(1209,1148).
att(1571,1930).
att(1574,2007).
att(1205,1078).
att(1335,491).
att(1616,930).
att(1201,1116).
att(1742,216).
att(1201,1118).
att(1192,1018).
att(1207,1173).
att(1637,39).
att(1336,491).
att(1203,1178).
att(1740,107).
att(1194,997).
att(1639,57).
att(1635,11).
att(1727,1907).
att(1205,1171).
att(1636,21).
att(1628,1073).
att(1196,1004).
att(1337,512).
att(1333,494).
att(1210,1139).
att(1637,2).
att(1641,41).
att(1332,492).
att(1730,1837).
att(1336,513).
att(1727,1834).
att(1744,113).
att(1191,946).
att(1639,19).
att(1728,1838).
att(1633,1090).
att(1201,1144).
att(1636,58).
att(1640,52).
att(1641,46).
att(1733,1958).
att(1361,559).
att(1637,45).
att(1360,549).
att(1629,58).
att(1545,389).
att(1724,1905).
att(1728,1875).
att(1739,212).
att(1739,206).
att(1336,548).
att(1338,433).
att(1542,391).
att(1194,1065).
att(1637,60).
att(1634,60).
att(1331,552).
att(1545,409).
att(1191,998).
att(1724,1899).
att(1735,1800).
att(1331,558).
att(1186,287).
att(1162,1996).
att(1721,938).
att(1154,1926).
att(1154,1923).
att(988,2185).
att(1570,1568).
att(1725,942).
att(984,2101).
att(1165,1981).
att(987,2123).
att(1183,286).
att(987,2101).
att(1189,281).
att(1648,1111).
att(989,2151).
att(1583,1564).
att(1585,1529).
att(1187,234).
att(1648,1107).
att(1187,314).
att(1164,2006).
att(1656,1074).
att(1164,2012).
att(1061,217).
att(1581,1454).
att(1655,1094).
att(1586,1556).
att(1160,2050).
att(1672,1034).
att(1656,1108).
att(1058,112).
att(1190,319).
att(1656,1092).
att(1150,2004).
att(1189,374).
att(1672,999).
att(1189,352).
att(1162,1980).
att(1154,1998).
att(982,2107).
att(985,2168).
att(1165,2051).
att(1187,373).
att(1183,281).
att(1569,1560).
att(1587,1454).
att(1160,1975).
att(1650,1066).
att(1721,1050).
att(1053,111).
att(992,2095).
att(1182,375).
att(1720,1022).
att(1736,1023).
att(1718,999).
att(1056,123).
att(1154,2050).
att(1630,1464).
att(1673,1179).
att(1726,1054).
att(1717,1029).
att(1166,1997).
att(1132,1925).
att(1674,1144).
att(1656,1180).
att(1648,1179).
att(1656,1173).
att(1150,2091).
att(1057,259).
att(1181,425).
att(1721,1027).
att(1161,2071).
att(1056,181).
att(1721,1025).
att(1719,936).
att(1655,1113).
att(1214,720).
att(1164,2152).
att(1581,1568).
att(1605,1504).
att(1058,282).
att(1676,1092).
att(1133,1980).
att(1605,1535).
att(1132,1982).
att(1156,2122).
att(1125,1975).
att(1156,2167).
att(1059,351).
att(1211,843).
att(1041,106).
att(1060,313).
att(1053,233).
att(1676,1045).
att(1063,282).
att(1150,2138).
att(1676,1032).
att(1137,1971).
att(1606,1558).
att(1588,1535).
att(1062,280).
att(1165,2187).
att(1135,1977).
att(1218,849).
att(1625,1177).
att(1127,2049).
att(1217,850).
att(1060,346).
att(1212,824).
att(1125,2034).
att(1606,1464).
att(1211,901).
att(1678,1066).
att(1702,1054).
att(1041,183).
att(1218,871).
att(1606,1455).
att(1609,1178).
att(1040,109).
att(1213,824).
att(1057,374).
att(1703,1022).
att(1212,840).
att(1611,1179).
att(1055,372).
att(1704,1018).
att(1055,373).
att(1704,1029).
att(1213,978).
att(1649,1000).
att(1036,182).
att(1166,2130).
att(1676,1172).
att(1205,790).
att(1653,1070).
att(1674,1018).
att(1131,2059).
att(1041,232).
att(1214,975).
att(1672,939).
att(1672,934).
att(1127,2028).
att(1043,251).
att(1220,901).
att(1060,425).
att(1216,867).
att(1053,415).
att(1705,1140).
att(1055,406).
att(1131,2076).
att(1203,773).
att(1601,1588).
att(1653,1020).
att(1212,1019).
att(1212,1028).
att(1681,1113).
att(1649,936).
att(1705,1078).
att(1702,1141).
att(1131,2122).
att(1131,2138).
att(1703,1092).
att(1040,239).
att(1036,260).
att(1132,2154).
att(1035,229).
att(1127,2126).
att(1220,907).
att(1137,2125).
att(1035,238).
att(1039,287).
att(1208,769).
att(1656,942).
att(1702,1078).
att(1207,767).
att(1609,1616).
att(1625,1630).
att(1167,1736).
att(1626,1632).
att(1040,2057).
att(1626,1647).
att(1623,1646).
att(1125,1649).
att(1131,1673).
att(1659,732).
att(1037,2033).
att(1669,742).
att(1127,1623).
att(1220,376).
att(1040,2033).
att(1627,1586).
att(1201,209).
att(1212,343).
att(1612,1633).
att(1012,2012).
att(1626,1604).
att(1011,1927).
att(1043,2186).
att(1205,310).
att(1202,236).
att(1205,314).
att(1209,261).
att(1208,310).
att(1012,2000).
att(1207,233).
att(1015,1927).
att(1016,1996).
att(1209,311).
att(1206,219).
att(1626,1534).
att(1039,2128).
att(1661,802).
att(1208,237).
att(1208,352).
att(1007,1981).
att(1040,2186).
att(1006,1978).
att(1704,1531).
att(1016,2027).
att(1201,281).
att(1015,1972).
att(1683,1535).
att(1704,1562).
att(1010,1996).
att(1202,229).
att(1681,1604).
att(1010,1980).
att(1035,2096).
att(1195,202).
att(1015,2078).
att(1198,259).
att(1202,342).
att(1703,1454).
att(1016,2057).
att(1683,1452).
att(1014,2034).
att(1194,201).
att(1209,429).
att(1013,2028).
att(1681,1552).
att(1197,201).
att(1209,415).
att(1012,2030).
att(1193,253).
att(1009,2057).
att(989,1927).
att(1643,1588).
att(1195,254).
att(1719,1146).
att(1718,1143).
att(988,2008).
att(1725,1139).
att(990,1998).
att(1647,1569).
att(1016,2124).
att(1721,1141).
att(1646,1605).
att(1719,1078).
att(1630,1568).
att(1720,1072).
att(1010,2072).
att(1198,237).
att(1723,1170).
att(1642,1606).
att(1201,427).
att(1633,1570).
att(1720,1074).
att(1630,1607).
att(1718,1095).
att(1718,1108).
att(982,1998).
att(1009,2131).
att(1012,2125).
att(985,1925).
att(1007,2153).
att(1015,2124).
att(1011,2154).
att(1721,1109).
att(1720,1032).
att(1010,2101).
att(990,2079).
att(984,2047).
att(985,2053).
att(985,2052).
att(984,2027).
att(988,2079).
att(1194,345).
att(1193,282).
att(1192,284).
att(985,1977).
att(988,2050).
att(984,1978).
att(1609,1553).
att(987,2050).
att(1190,217).
att(1186,114).
att(1182,187).
att(990,2128).
att(989,2071).
att(1737,1139).
att(1611,1466).
att(1186,256).
att(1190,219).
att(1612,1468).
att(1182,183).
att(990,2057).
att(1193,319).
att(1642,1581).
att(1190,260).
att(1736,1116).
att(1706,712).
att(1713,694).
att(1716,594).
att(757,1484).
att(988,1702).
att(988,1703).
att(1707,694).
att(1183,2055).
att(1183,2052).
att(983,1643).
att(1186,2053).
att(1672,1653).
att(1706,671).
att(1723,1560).
att(982,1568).
att(1710,667).
att(985,1630).
att(1651,1675).
att(1718,1455).
att(1191,2101).
att(1696,647).
att(1698,641).
att(1648,1611).
att(992,1534).
att(982,1702).
att(1181,2028).
att(1161,1552).
att(1162,1562).
att(1184,2034).
att(1694,629).
att(991,1717).
att(1723,1454).
att(990,1737).
att(992,1526).
att(1189,2095).
att(989,1703).
att(1181,2053).
att(1710,700).
att(985,1676).
att(1650,1642).
att(1650,1643).
att(1160,1455).
att(1656,1625).
att(988,1653).
att(1189,2091).
att(1190,2078).
att(992,1581).
att(1063,2002).
att(1182,2072).
att(753,1255).
att(1185,2138).
att(1181,2056).
att(1184,2075).
att(1737,1585).
att(1165,1583).
att(748,1272).
att(1184,2130).
att(1188,2104).
att(761,1253).
att(755,1253).
att(1164,1582).
att(1187,2107).
att(1182,2071).
att(1690,617).
att(757,1275).
att(1698,617).
att(1706,733).
att(751,1270).
att(1709,723).
att(1181,2078).
att(985,1719).
att(1694,678).
att(761,1248).
att(1160,1526).
att(1160,1528).
att(987,1718).
att(1061,1927).
att(1150,1553).
att(757,1451).
att(1217,116).
att(1057,1975).
att(1185,2169).
att(761,1451).
att(1150,1601).
att(1721,1603).
att(757,1439).
att(1737,1566).
att(1156,1589).
att(746,1519).
att(1184,2101).
att(1686,662).
att(1720,1529).
att(1183,2123).
att(1694,713).
att(1183,2107).
att(1061,2094).
att(1648,1468).
att(1696,739).
att(1220,111).
att(1133,1470).
att(1132,1452).
att(1704,1624).
att(1053,2052).
att(1704,1612).
att(1059,2030).
att(1059,2079).
att(1686,742).
att(1702,1676).
att(1669,591).
att(1715,729).
att(1675,1624).
att(1167,1458).
att(1675,1625).
att(1217,215).
att(992,1678).
att(1696,703).
att(1057,2035).
att(1677,1609).
att(992,1683).
att(1182,2171).
att(1055,2047).
att(1667,590).
att(1055,2051).
att(1700,591).
att(1218,217).
att(1669,621).
att(1214,253).
att(1058,2058).
att(1061,2128).
att(1690,725).
att(1677,1630).
att(1696,805).
att(1063,2131).
att(1676,1645).
att(1216,254).
att(1220,186).
att(1676,1633).
att(1063,2138).
att(1676,1632).
att(1659,611).
att(1060,2126).
att(1681,1612).
att(1677,1644).
att(1661,611).
att(1131,1530).
att(1683,1625).
att(1041,1926).
att(1059,2128).
att(1042,1937).
att(1135,1606).
att(1214,185).
att(1669,651).
att(1219,251).
att(992,1720).
att(1702,1604).
att(1701,629).
att(1702,1605).
att(1057,2079).
att(1216,180).
att(1666,608).
att(1698,803).
att(1137,1528).
att(1676,1582).
att(1686,725).
att(1211,184).
att(1165,1726).
att(1683,1630).
att(1694,805).
att(1129,1559).
att(1705,1607).
att(1135,1533).
att(1062,2174).
att(1669,670).
att(1061,2167).
att(1044,1975).
att(1217,283).
att(1648,1568).
att(1673,1603).
att(1044,1981).
att(1132,1583).
att(1699,707).
att(1213,287).
att(1655,1644).
att(1653,1645).
att(1059,2171).
att(1062,2185).
att(1041,2010).
att(1132,1603).
att(1219,314).
att(1043,1979).
att(1666,672).
att(1166,1630).
att(1218,317).
att(1135,1584).
att(1041,2014).
att(1133,1625).
att(1220,280).
att(1209,202).
att(1664,706).
att(1666,739).
att(1212,372).
att(1039,2032).
att(1204,111).
att(1042,2033).
att(1038,2055).
att(1131,1611).
att(1041,2052).
att(1041,2035).
att(1214,262).
att(1653,1504).
att(1127,1583).
att(1057,2168).
att(1040,1980).
att(1220,316).
att(1216,279).
att(1035,1972).
att(1056,2170).
att(1036,1979).
att(1131,1642).
att(1661,706).
att(1038,1981).
att(1135,1144).
att(1041,1584).
att(1576,678).
att(1217,2122).
att(1671,65).
att(1167,1143).
att(1213,2131).
att(1592,800).
att(1577,692).
att(1036,1588).
att(1039,1569).
att(1205,2008).
att(1659,70).
att(1667,155).
att(1041,1582).
att(1131,1098).
att(1214,2074).
att(1669,79).
att(1058,1725).
att(1701,67).
att(1053,1650).
att(1671,77).
att(1664,50).
att(1125,1111).
att(1659,75).
att(1208,1926).
att(1212,2073).
att(1132,1077).
att(1125,1092).
att(1207,1924).
att(1211,2167).
att(1044,1625).
att(1220,2124).
att(1573,658).
att(1701,188).
att(1701,189).
att(1205,2047).
att(1206,2054).
att(1202,1981).
att(1573,710).
att(1201,1977).
att(1036,1628).
att(1659,113).
att(1035,1628).
att(1038,1647).
att(1131,1115).
att(1211,2098).
att(1204,2008).
att(1211,2104).
att(1669,152).
att(1135,1120).
att(1202,1926).
att(1571,658).
att(1039,1644).
att(1202,2010).
att(1039,1633).
att(1212,2098).
att(1575,707).
att(1035,1570).
att(1211,2123).
att(1041,1655).
att(1203,2032).
att(1010,1454).
att(1202,2029).
att(1039,1672).
att(1205,2089).
att(1574,733).
att(1013,1560).
att(1729,593).
att(1210,2030).
att(1014,1454).
att(1040,1627).
att(1040,1624).
att(1210,2031).
att(1732,632).
att(1202,2055).
att(1574,735).
att(1039,1678).
att(1572,695).
att(1012,1606).
att(1009,1532).
att(1208,2152).
att(1038,1726).
att(1730,625).
att(1731,682).
att(1010,1601).
att(1016,1581).
att(1573,804).
att(1733,680).
att(1038,1672).
att(1575,777).
att(1041,1718).
att(1727,639).
att(1010,1529).
att(1201,2093).
att(1734,707).
att(1730,667).
att(1016,1627).
att(1728,708).
att(1012,1585).
att(1196,2002).
att(1729,693).
att(1719,1655).
att(1198,2006).
att(1198,1981).
att(1014,1628).
att(1197,1997).
att(1009,1624).
att(1737,1616).
att(1198,2089).
att(1199,2078).
att(1731,733).
att(1195,2014).
att(1014,1653).
att(990,1562).
att(1724,713).
att(1012,1616).
att(1195,2054).
att(1732,737).
att(1189,1939).
att(989,1528).
att(1711,611).
att(1735,682).
att(1196,2094).
att(1714,649).
att(1734,719).
att(985,1458).
att(1011,1703).
att(1731,800).
att(1735,615).
att(1016,1723).
att(1735,629).
att(982,1606).
att(982,1607).
att(1188,1998).
att(1711,658).
att(1192,2131).
att(1190,1972).
att(987,1582).
att(1200,2187).
att(986,1606).
att(990,1569).
att(1724,805).
att(1188,1933).
att(1196,2128).
att(1199,2131).
att(1007,1723).
att(991,1583).
att(1186,1925).
att(1198,2098).
att(991,1568).
att(1217,1799).
att(1059,1296).
att(1161,871).
att(1215,1799).
att(1058,1300).
att(1165,873).
att(1154,874).
att(1183,1561).
att(1164,870).
att(1150,845).
att(1189,1567).
att(1181,1496).
att(1161,819).
att(1165,900).
att(1158,824).
att(1158,822).
att(1164,909).
att(1056,1369).
att(1218,1812).
att(1211,1831).
att(1165,941).
att(1062,1427).
att(1164,937).
att(1165,908).
att(1167,792).
att(1218,1818).
att(1167,801).
att(1053,1298).
att(1158,851).
att(1213,1800).
att(1219,1830).
att(1059,1362).
att(1056,1308).
att(1156,874).
att(1218,1828).
att(1218,1827).
att(1218,1829).
att(1158,1030).
att(1133,772).
att(1150,907).
att(1125,792).
att(1132,772).
att(1131,770).
att(1062,1497).
att(1160,1030).
att(1211,1847).
att(1214,1845).
att(1053,1343).
att(1061,1395).
att(1167,771).
att(1063,1396).
att(1156,973).
att(1162,908).
att(1137,792).
att(1156,906).
att(1137,771).
att(1214,1816).
att(1214,1909).
att(1213,1900).
att(1043,1294).
att(1166,902).
att(1036,1286).
att(1166,903).
att(1042,1313).
att(1037,1323).
att(1062,1561).
att(1220,1844).
att(1166,822).
att(1150,1002).
att(1132,843).
att(1044,1343).
att(1213,1956).
att(1213,1955).
att(1217,1911).
att(1053,1536).
att(1215,1928).
att(1042,1341).
att(1214,1876).
att(1044,1368).
att(1213,1870).
att(1060,1557).
att(1053,1432).
att(1212,1899).
att(1131,894).
att(1220,1938).
att(1206,1818).
att(1209,1850).
att(1131,909).
att(1135,1028).
att(1135,1026).
att(1218,2007).
att(1037,1344).
att(1207,1818).
att(1044,1429).
att(1125,979).
att(1035,1344).
att(1125,949).
att(1201,1834).
att(1204,1837).
att(1209,1833).
att(1043,1503).
att(1012,1280).
att(1209,1907).
att(1204,1874).
att(1036,1471).
att(1206,1960).
att(1013,1364).
att(1202,1870).
att(1207,1871).
att(1035,1463).
att(1202,1903).
att(1038,1459).
att(1208,1875).
att(1196,1286).
att(1203,1394).
att(1210,1496).
att(1006,786).
att(1203,1372).
att(1205,1502).
att(1016,825).
att(1035,1005).
att(1012,845).
att(1011,801).
att(1206,1424).
att(1210,1395).
att(1201,1428).
att(1196,1308).
att(1208,1536).
att(1204,1431).
att(1195,1329).
att(1011,827).
att(1200,1362).
att(1196,1300).
att(1203,1499).
att(1199,1328).
att(1207,1430).
att(1210,1459).
att(1006,769).
att(1206,1430).
att(1010,826).
att(1196,1313).
att(1007,869).
att(1194,1341).
att(1010,949).
att(1013,974).
att(1006,873).
att(1016,941).
att(1191,1371).
att(1012,873).
att(1204,1538).
att(1010,901).
att(1014,950).
att(1197,1367).
att(1201,1539).
att(1012,1024).
att(1015,1019).
att(1012,1008).
att(1011,947).
att(1011,943).
att(987,774).
att(984,721).
att(1199,1422).
att(1016,1028).
att(1006,949).
att(1009,975).
att(988,819).
att(1196,1432).
att(1199,1432).
att(991,901).
att(1199,1538).
att(987,824).
att(1186,1319).
att(1194,1469).
att(991,874).
att(1189,1306).
att(1199,1498).
att(1199,1500).
att(1190,1323).
att(1198,1469).
att(1186,1280).
att(991,828).
att(1198,1430).
att(1194,1473).
att(1185,1283).
att(982,768).
att(1188,1364).
att(989,872).
att(1184,1298).
att(984,870).
att(1186,1364).
att(991,950).
att(1186,1362).
att(990,973).
att(987,870).
att(990,976).
att(1197,1537).
att(1192,1463).
att(1196,1563).
att(1195,1461).
att(991,867).
att(1191,1465).
att(986,901).
att(990,871).
att(982,978).
att(1183,1420).
att(1160,793).
att(991,1024).
att(1188,1350).
att(1183,1364).
att(1160,728).
att(1189,1471).
att(982,1026).
att(1165,819).
att(1187,1431).
att(1190,1459).
att(1061,1329).
att(1154,792).
att(985,941).
att(1063,806).
att(1059,716).
att(1184,977).
att(1184,978).
att(1165,233).
att(1055,722).
att(1183,973).
att(1184,948).
att(1150,207).
att(1189,949).
att(1161,187).
att(1161,258).
att(1183,851).
att(1182,901).
att(1164,260).
att(992,284).
att(1188,1026).
att(1150,255).
att(992,316).
att(1189,1005).
att(1162,238).
att(1055,715).
att(1154,238).
att(1055,801).
att(1160,239).
att(1062,771).
att(1058,806).
att(1160,219).
att(1061,903).
att(1167,205).
att(1219,1308).
att(1211,1311).
att(1160,349).
att(1057,845).
att(1167,116).
att(1217,1329).
att(1162,261).
att(1058,847).
att(1044,724).
att(1061,949).
att(1059,868).
att(1059,869).
att(1137,254).
att(1154,425).
att(1218,1343).
att(1131,187).
att(1160,429).
att(1154,415).
att(1214,1367).
att(1127,108).
att(1213,1304).
att(1132,209).
att(1220,1326).
att(1059,873).
att(1137,187).
att(1211,1294).
att(1214,1306).
att(1060,937).
att(1166,310).
att(1039,794).
att(1056,974).
att(1039,775).
att(1059,1008).
att(1218,1396).
att(1044,797).
att(1166,229).
att(1057,977).
att(1166,219).
att(1060,907).
att(1042,792).
att(1215,1429).
att(1215,1427).
att(1058,973).
att(1041,826).
att(1043,823).
att(1206,1285).
att(1133,262).
att(1132,374).
att(1042,819).
att(1038,846).
att(1038,840).
att(1207,1321).
att(1135,263).
att(1220,1425).
att(1219,1473).
att(1035,775).
att(1055,1028).
att(1041,840).
att(1038,874).
att(1038,902).
att(1203,1307).
att(1220,1463).
att(1167,412).
att(1202,1304).
att(1204,1304).
att(1135,321).
att(1040,820).
att(1210,1298).
att(1044,902).
att(1213,1431).
att(1219,1565).
att(1201,1319).
att(1125,352).
att(1131,351).
att(1015,801).
att(1038,949).
att(1203,1344).
att(1206,1347).
att(1014,797).
att(1201,1346).
att(1013,795).
att(1042,945).
att(1016,718).
att(1205,1347).
att(1044,343).
att(1039,342).
att(1010,217).
att(1039,346).
att(1209,850).
att(1007,109).
att(1009,123).
att(1204,823).
att(1037,263).
att(1036,310).
att(1204,846).
att(1204,866).
att(1196,724).
att(1198,714).
att(1036,415).
att(1200,806).
att(1201,866).
att(1204,869).
att(1007,211).
att(1010,203).
att(1205,872).
att(1012,180).
att(1013,187).
att(1208,1024).
att(1192,790).
att(1014,310).
att(1207,1008).
att(1202,909).
att(1204,937).
att(1196,768).
att(1011,254).
att(1006,260).
att(1007,280).
att(1192,845).
att(1007,285).
att(989,123).
att(1195,826).
att(1016,344).
att(1197,819).
att(1006,263).
att(1197,821).
att(1193,844).
att(1007,312).
att(1007,315).
att(1198,845).
att(1194,843).
att(990,111).
att(1006,315).
att(990,112).
att(1009,311).
att(1012,425).
att(1192,899).
att(1011,322).
att(1014,427).
att(1010,402).
att(1010,412).
att(1006,319).
att(1195,820).
att(1195,821).
att(1014,404).
att(1193,872).
att(1188,720).
att(1187,716).
att(988,254).
att(1195,868).
att(991,232).
att(987,260).
att(983,181).
att(992,114).
att(1185,843).
att(982,286).
att(1164,114).
att(983,310).
att(1193,935).
att(989,313).
att(982,233).
att(1184,790).
att(1187,768).
att(984,317).
att(987,311).
att(1182,786).
att(1194,1026).
att(987,315).
att(986,310).
att(1158,215).
att(1181,819).
att(1162,209).
att(986,318).
att(1185,902).
att(1161,201).
att(1154,118).
att(1165,184).
att(1190,873).
att(983,372).
att(984,351).
att(1183,828).
att(1186,821).
att(1386,114).
att(1386,123).
att(2129,1325).
att(2146,1298).
att(1388,118).
att(2146,1306).
att(1417,178).
att(244,2230).
att(2127,1326).
att(2203,898).
att(1411,344).
att(2135,1329).
att(2129,1286).
att(2165,375).
att(1413,279).
att(1419,112).
att(242,2247).
att(242,2248).
att(302,2134).
att(270,2251).
att(10,337).
att(2141,1298).
att(2166,327).
att(1384,116).
att(1408,261).
att(27,371).
att(2204,873).
att(1403,429).
att(2191,720).
att(2127,1364).
att(274,2267).
att(268,2277).
att(1403,327).
att(1419,180).
att(27,360).
att(35,326).
att(37,337).
att(2208,950).
att(2201,899).
att(2201,904).
att(2201,902).
att(1403,344).
att(1417,258).
att(2201,874).
att(2127,1294).
att(2135,1397).
att(2144,1390).
att(242,2271).
att(1388,232).
att(243,2281).
att(2116,1285).
att(1388,286).
att(2146,1500).
att(2133,1390).
att(277,2267).
att(2195,849).
att(2129,1347).
att(1388,251).
att(1416,235).
att(1416,229).
att(2208,937).
att(243,2287).
att(276,2285).
att(2201,973).
att(1378,251).
att(2192,841).
att(2196,821).
att(2105,1286).
att(1419,318).
att(2102,1323).
att(2132,1498).
att(2097,1284).
att(1384,373).
att(2189,842).
att(241,2221).
att(2133,1459).
att(277,2284).
att(2189,771).
att(2114,1282).
att(270,2117).
att(1388,313).
att(2144,1473).
att(2204,1024).
att(1382,283).
att(274,2118).
att(274,2117).
att(2191,873).
att(296,2253).
att(2129,1567).
att(274,2246).
att(1386,319).
att(27,582).
att(2129,1539).
att(103,2149).
att(302,2247).
att(2179,716).
att(2193,867).
att(103,2254).
att(1382,429).
att(25,340).
att(2194,978).
att(300,2258).
att(304,2246).
att(2190,872).
att(2103,1364).
att(2189,894).
att(292,2260).
att(2103,1363).
att(33,604).
att(225,371).
att(23,367).
att(2099,1325).
att(225,326).
att(307,2247).
att(2105,1317).
att(27,600).
att(2110,1369).
att(291,2273).
att(298,2267).
att(31,604).
att(1378,373).
att(1417,402).
att(228,362).
att(288,2284).
att(33,526).
att(2099,1341).
att(2112,1396).
att(2103,1428).
att(2114,1421).
att(27,526).
att(2105,1341).
att(296,2271).
att(290,2283).
att(226,364).
att(231,368).
att(2190,945).
att(2198,769).
att(31,526).
att(2103,1345).
att(294,2287).
att(2179,715).
att(2114,1344).
att(2114,1348).
att(1388,429).
att(2116,1347).
att(296,2212).
att(2108,1341).
att(2180,794).
att(2193,977).
att(298,2282).
att(227,392).
att(2190,973).
att(2188,867).
att(300,2287).
att(2177,768).
att(40,356).
att(2099,1397).
att(35,366).
att(302,2275).
att(2105,1393).
att(2114,1502).
att(29,410).
att(2110,1471).
att(272,2285).
att(2112,1461).
att(2188,907).
att(2191,1002).
att(35,396).
att(2177,795).
att(2178,790).
att(268,2209).
att(2192,1002).
att(2175,768).
att(292,2119).
att(2116,1501).
att(10,568).
att(2175,773).
att(2172,786).
att(2176,774).
att(40,422).
att(2198,866).
att(264,2232).
att(40,410).
att(268,2221).
att(27,565).
att(304,2221).
att(266,2235).
att(2108,1563).
att(2077,1311).
att(2172,820).
att(2099,1502).
att(302,2224).
att(2179,901).
att(304,2235).
att(2105,1431).
att(2081,1323).
att(2176,824).
att(300,2142).
att(2198,280).
att(2102,1002).
att(2077,799).
att(88,2271).
att(144,2253).
att(223,368).
att(23,541).
att(23,557).
att(2084,840).
att(2175,311).
att(231,601).
att(96,2259).
att(246,369).
att(86,2282).
att(2097,948).
att(228,524).
att(2086,795).
att(88,2283).
att(84,2213).
att(144,2274).
att(2182,314).
att(2105,945).
att(220,408).
att(2085,905).
att(2081,822).
att(2087,824).
att(2156,111).
att(94,2209).
att(230,555).
att(252,386).
att(2176,373).
att(86,2225).
att(98,2213).
att(2184,108).
att(2082,770).
att(2099,1028).
att(2177,311).
att(246,417).
att(2083,841).
att(88,2230).
att(96,2217).
att(247,562).
att(2084,828).
att(248,419).
att(86,2113).
att(88,2119).
att(225,423).
att(2181,406).
att(90,2120).
att(2087,978).
att(226,563).
att(292,2225).
att(2080,867).
att(2175,427).
att(92,2117).
att(88,2147).
att(2172,377).
att(2176,318).
att(300,2219).
att(2088,866).
att(288,2237).
att(2162,215).
att(294,2219).
att(24,576).
att(231,563).
att(296,2237).
att(2161,179).
att(2080,894).
att(2178,319).
att(2157,202).
att(92,2120).
att(292,2234).
att(292,2240).
att(2068,768).
att(2157,238).
att(92,2149).
att(92,2142).
att(300,2229).
att(2081,943).
att(2062,718).
att(88,2254).
att(94,2140).
att(294,2237).
att(2069,776).
att(2086,1003).
att(2063,795).
att(2061,790).
att(2065,771).
att(227,581).
att(2066,721).
att(2081,978).
att(2088,937).
att(2077,869).
att(221,332).
att(23,523).
att(2060,715).
att(23,521).
att(2065,794).
att(2065,790).
att(103,2247).
att(2066,842).
att(2077,1028).
att(243,388).
att(137,2279).
att(137,2280).
att(2159,285).
att(139,2276).
att(2156,283).
att(223,541).
att(2062,786).
att(2158,229).
att(2184,349).
att(277,392).
att(244,413).
att(278,397).
att(2061,768).
att(1413,202).
att(2161,406).
att(2066,904).
att(2069,867).
att(2066,874).
att(130,2238).
att(277,422).
att(1403,201).
att(1411,179).
att(2060,903).
att(128,2234).
att(169,2113).
att(2061,826).
att(158,2148).
att(135,2222).
att(130,2235).
att(1410,111).
att(2184,344).
att(243,580).
att(165,2147).
att(2069,851).
att(1410,217).
att(2064,899).
att(2156,372).
att(135,2117).
att(2165,239).
att(86,2231).
att(1413,253).
att(88,2233).
att(252,568).
att(2063,977).
att(90,2233).
att(2207,718).
att(221,589).
att(1415,180).
att(2068,979).
att(2208,726).
att(137,2134).
att(2066,872).
att(92,2229).
att(2062,898).
att(2063,868).
att(2069,906).
att(252,577).
att(2064,973).
att(89,2246).
att(248,573).
att(141,2147).
att(249,589).
att(2203,847).
att(2060,1008).
att(130,2263).
att(222,605).
att(92,2248).
att(2208,848).
att(240,362).
att(2206,822).
att(245,340).
att(2133,1282).
att(2164,351).
att(2203,842).
att(139,2250).
att(252,580).
att(2065,1028).
att(128,2272).
att(130,2277).
att(243,369).
att(2061,943).
att(2204,790).
att(222,524).
att(2201,792).
att(2206,847).
att(2202,773).
att(277,330).
att(126,2285).
att(2063,907).
att(2144,724).
att(2139,726).
att(1408,2093).
att(2202,254).
att(1403,2093).
att(1411,2070).
att(1411,2074).
att(1403,2092).
att(2200,211).
att(2002,997).
att(2068,424).
att(2069,429).
att(1408,2033).
att(1923,1177).
att(2202,184).
att(2067,400).
att(2203,178).
att(1419,2012).
att(2008,995).
att(1382,2000).
att(1384,2004).
att(1378,1926).
att(1384,2000).
att(2200,259).
att(2004,940).
att(2139,720).
att(1937,1122).
att(2205,238).
att(1416,2010).
att(2004,930).
att(1933,1170).
att(2203,233).
att(1979,1021).
att(1388,1971).
att(1419,2054).
att(2200,261).
att(1416,2034).
att(1996,1143).
att(1408,2187).
att(1382,2050).
att(1996,1151).
att(2000,1138).
att(1982,1017).
att(2196,99).
att(1405,2122).
att(1405,2096).
att(2204,287).
att(1382,1998).
att(2012,1170).
att(2201,313).
att(1981,936).
att(2141,828).
att(1418,1971).
att(2191,186).
att(2196,179).
att(2127,904).
att(2203,406).
att(2197,180).
att(2204,344).
att(2194,179).
att(2190,178).
att(2132,900).
att(2191,179).
att(1418,2028).
att(2133,902).
att(2192,99).
att(2196,207).
att(2207,319).
att(2194,178).
att(2146,873).
att(2190,205).
att(2206,415).
att(1925,1023).
att(2127,977).
att(2103,797).
att(2135,937).
att(40,2265).
att(1927,994).
att(1926,1025).
att(2196,237).
att(2192,255).
att(2197,234).
att(2192,258).
att(1386,2058).
att(1926,1017).
att(2102,790).
att(1923,993).
att(1384,2154).
att(1418,2071).
att(31,2281).
att(2114,714).
att(40,2276).
att(2114,718).
att(2200,429).
att(2144,974).
att(35,2275).
att(1929,1020).
att(2110,799).
att(2201,424).
att(31,2287).
att(10,2209).
att(2127,869).
att(2195,238).
att(1923,1023).
att(2199,425).
att(27,2215).
att(2127,1001).
att(2105,771).
att(2193,280).
att(35,2213).
att(2194,376).
att(1382,2169).
att(2190,262).
att(2103,774).
att(228,2111).
att(2196,317).
att(225,2106).
att(1937,942).
att(2189,219).
att(40,2210).
att(2108,786).
att(2197,317).
att(2116,843).
att(1937,938).
att(2116,847).
att(10,2235).
att(1376,2128).
att(2132,908).
att(2191,310).
att(31,2226).
att(2133,1028).
att(2188,238).
att(2191,311).
att(1937,1146).
att(2196,344).
att(1926,1095).
att(2192,319).
att(2193,345).
att(2175,211).
att(2193,327).
att(2188,372).
att(2097,823).
att(2103,824).
att(2198,205).
att(2105,843).
att(2192,349).
att(1923,1093).
att(31,2149).
att(2108,826).
att(1924,1093).
att(2102,950).
att(2188,404).
att(2182,251).
att(1926,1067).
att(2099,871).
att(37,2258).
att(1933,1050).
att(1927,1110).
att(1923,1045).
att(1923,1046).
att(2110,909).
att(1925,998).
att(2099,900).
att(1926,981).
att(1939,1034).
att(2084,728).
att(2180,250).
att(2175,183).
att(10,2271).
att(10,2273).
att(1923,1069).
att(2172,203).
att(2102,872).
att(2085,217).
att(225,2283).
att(2182,2031).
att(2014,944).
att(2105,351).
att(2084,207).
att(2084,217).
att(231,2283).
att(2102,372).
att(2053,1092).
att(2103,285).
att(2054,1109).
att(2099,315).
att(230,2285).
att(2116,281).
att(220,2121).
att(230,2211).
att(2055,1092).
att(24,2225).
att(2110,375).
att(24,2219).
att(2047,1049).
att(2085,116).
att(2085,114).
att(2049,1070).
att(2099,342).
att(228,2220).
att(2086,183).
att(2177,2027).
att(2103,412).
att(222,2143).
att(2087,184).
att(2179,2075).
att(220,2251).
att(2055,1045).
att(225,2235).
att(22,2242).
att(2088,186).
att(2049,996).
att(2177,2054).
att(2182,2028).
att(231,2236).
att(2051,997).
att(24,2243).
att(2102,342).
att(2097,373).
att(2031,1065).
att(2086,229).
att(2033,1067).
att(2047,1174).
att(1933,1458).
att(2182,2096).
att(24,2254).
att(1931,1454).
att(2084,315).
att(25,2263).
att(2198,2151).
att(2031,999).
att(2050,1116).
att(225,2257).
att(2053,1176).
att(2049,1114).
att(2032,996).
att(226,2253).
att(2032,998).
att(2029,1022).
att(2180,2153).
att(2081,281).
att(2027,930).
att(2028,940).
att(2052,1138).
att(2176,2167).
att(228,2260).
att(2162,1980).
att(2055,1120).
att(2086,281).
att(2172,2096).
att(2077,286).
att(2069,123).
att(2014,994).
att(2178,2185).
att(24,2271).
att(2178,2173).
att(2156,1979).
att(2158,1923).
att(2162,2000).
att(2033,940).
att(2184,1975).
att(2176,2107).
att(225,2275).
att(23,2211).
att(230,2272).
att(2052,1115).
att(2068,184).
att(2183,2092).
att(2088,427).
att(243,2115).
att(2162,2031).
att(1981,1093).
att(240,2137).
att(2087,412).
att(248,2219).
att(275,2120).
att(1998,1180).
att(242,2149).
att(2183,2014).
att(2172,2174).
att(2064,202).
att(244,2142).
att(2156,2047).
att(1972,1052).
att(223,2231).
att(278,2121).
att(1971,1068).
att(2161,2131).
att(2157,2072).
att(275,2145).
att(1975,995).
att(2163,2074).
att(2069,239).
att(2162,2056).
att(276,2250).
att(1977,996).
att(2064,234).
att(223,2244).
att(1971,993).
att(245,2256).
att(277,2137).
att(2060,259).
att(2010,1179).
att(278,2250).
att(1975,1018).
att(2062,201).
att(2010,1171).
att(2063,183).
att(2159,2092).
att(2049,1004).
att(225,2241).
att(247,2258).
att(1408,1933).
att(1410,1978).
att(1982,1174).
att(2156,2123).
att(2165,2004).
att(1413,1939).
att(2163,2122).
att(223,2277).
att(1972,1151).
att(224,2273).
att(2161,2125).
att(2064,286).
att(1980,1141).
att(2052,944).
att(221,2287).
att(221,2282).
att(221,2283).
att(1415,2049).
att(247,2285).
att(2206,178).
att(252,2277).
att(1982,1151).
att(2060,376).
att(2065,377).
att(2060,262).
att(2165,2053).
att(1982,1077).
att(2166,2054).
att(2164,2051).
att(2069,376).
att(2068,347).
att(2202,111).
att(2159,2167).
att(2067,349).
att(2064,352).
att(2037,414).
att(1386,1343).
att(1748,1107).
att(274,1058).
att(161,521).
att(2200,1940).
att(2000,1643).
att(2135,70).
att(2004,1642).
att(2043,431).
att(2057,981).
att(2139,75).
att(2205,1932).
att(2146,153).
att(2194,1851).
att(2006,1633).
att(1757,1144).
att(2079,1175).
att(2195,1849).
att(2059,995).
att(2201,1936).
att(2000,1624).
att(2141,154).
att(272,1058).
att(2075,1017).
att(2127,75).
att(2059,999).
att(2141,153).
att(266,1186).
att(2135,63).
att(2127,79).
att(2189,1826).
att(2200,1955).
att(2196,1829).
att(2129,51).
att(2000,1581).
att(35,1708).
att(1419,1344).
att(2004,1582).
att(2006,1569).
att(2094,1169).
att(2004,1587).
att(2146,76).
att(2207,1935).
att(2078,1116).
att(2002,1582).
att(2190,1785).
att(35,1709).
att(1998,1607).
att(2073,944).
att(270,1193).
att(2095,1169).
att(2205,1928).
att(1376,1363).
att(2201,1957).
att(2133,74).
att(1755,1111).
att(2058,1004).
att(2201,1959).
att(292,1131).
att(266,1197).
att(2041,470).
att(2089,1141).
att(2008,1570).
att(2037,460).
att(1925,1719).
att(288,1156).
att(2092,1090).
att(2093,1078).
att(1998,1531).
att(302,1182).
att(2039,456).
att(1388,1397).
att(2146,117).
att(2079,1140).
att(2193,1841).
att(292,1162).
att(2139,115).
att(300,1133).
att(1417,1469).
att(31,1576).
att(1745,993).
att(2000,1587).
att(1384,1502).
att(1741,1029).
att(1738,930).
att(272,1192).
att(288,1161).
att(1384,1501).
att(2036,472).
att(2076,1071).
att(1996,1552).
att(2197,1846).
att(2136,65).
att(2078,1078).
att(1931,1719).
att(27,1592).
att(1754,1168).
att(2010,1600).
att(300,1162).
att(2092,1074).
att(1745,1025).
att(272,1208).
att(1745,1027).
att(1866,518).
att(272,1202).
att(1751,1089).
att(2103,8).
att(1751,1073).
att(1751,1171).
att(2057,1078).
att(1751,1177).
att(2041,518).
att(1979,1601).
att(2127,189).
att(2114,55).
att(158,566).
att(243,1205).
att(2044,384).
att(2136,218).
att(2042,515).
att(1978,1535).
att(272,1154).
att(165,562).
att(2194,1960).
att(157,579).
att(2198,1787).
att(2070,1108).
att(2198,1797).
att(2189,1901).
att(161,568).
att(268,1165).
att(2056,1108).
att(1378,1472).
att(2192,1833).
att(2040,539).
att(2008,1723).
att(2039,510).
att(2058,1092).
att(2073,1050).
att(1756,1180).
att(165,577).
att(304,985).
att(2102,12).
att(2139,206).
att(272,985).
att(2194,1875).
att(266,1011).
att(167,579).
att(2132,124).
att(307,1162).
att(244,1212).
att(1750,1120).
att(2195,1985).
att(2073,1051).
att(2178,1787).
att(2008,1655).
att(2040,556).
att(278,1212).
att(302,983).
att(163,588).
att(2018,382).
att(2196,1910).
att(1743,1050).
att(1978,1460).
att(2038,534).
att(165,583).
att(1744,1107).
att(2012,1650).
att(2070,1052).
att(2172,1795).
att(274,1007).
att(167,586).
att(2093,1174).
att(2191,1960).
att(2017,411).
att(2097,59).
att(2181,1795).
att(40,1666).
att(2016,409).
att(27,1698).
att(1386,1555).
att(268,1036).
att(2022,431).
att(1386,1538).
att(24,1763).
att(265,1060).
att(1981,1460).
att(1741,1050).
att(2059,1068).
att(2181,1785).
att(2198,1826).
att(157,527).
att(307,1014).
att(1745,1120).
att(1929,1586).
att(294,1186).
att(2181,1851).
att(88,1129).
att(226,1731).
att(84,1137).
att(101,1060).
att(226,1727).
att(1746,1168).
att(2178,1821).
att(2021,451).
att(2083,6).
att(1926,1603).
att(90,1133).
att(2078,1023).
att(227,1733).
att(1744,1170).
att(2022,460).
att(1744,1168).
att(227,1728).
att(2102,151).
att(2180,1841).
att(1927,1628).
att(2102,154).
att(2112,113).
att(2020,477).
att(2020,475).
att(2112,153).
att(2177,1827).
att(2105,76).
att(290,1208).
att(1742,1071).
att(1739,1109).
att(230,1722).
att(296,1196).
att(90,1164).
att(231,1576).
att(2030,1095).
att(2180,1843).
att(292,1210).
att(2079,936).
att(2176,1816).
att(1924,1604).
att(2176,1815).
att(1741,1091).
att(2020,494).
att(2181,1813).
att(2078,931).
att(22,1618).
att(25,1617).
att(92,1162).
att(288,1219).
att(1631,1022).
att(2019,491).
att(2114,210).
att(2044,512).
att(2087,16).
att(101,1199).
att(1929,1531).
att(290,1211).
att(2015,1078).
att(291,1216).
att(1637,999).
att(292,1219).
att(300,1210).
att(1634,993).
att(2112,216).
att(2103,113).
att(294,1217).
att(2018,492).
att(228,1610).
att(2031,1047).
att(92,985).
att(2022,511).
att(2082,9).
att(2032,1050).
att(294,1211).
att(1640,1004).
att(1742,1116).
att(2083,7).
att(1637,1021).
att(1739,1118).
att(103,1214).
att(224,1667).
att(2175,1837).
att(226,1631).
att(298,1215).
att(2027,1049).
att(1743,1120).
att(1740,1170).
att(2085,20).
att(98,984).
att(1923,1562).
att(2093,1034).
att(1997,1452).
att(2020,539).
att(294,989).
att(294,984).
att(2086,44).
att(2022,532).
att(298,992).
att(2091,1068).
att(29,1622).
att(296,985).
att(2087,77).
att(2160,1825).
att(1933,1673).
att(2157,1787).
att(2095,1033).
att(298,986).
att(1923,1653).
att(2094,1050).
att(2179,1938).
att(1997,1560).
att(40,1759).
att(274,1219).
att(1639,1107).
att(2012,1535).
att(2089,1031).
att(2183,1831).
att(2012,1528).
att(2081,45).
att(2089,1032).
att(2180,1936).
att(1989,405).
att(225,1666).
att(2198,1956).
att(2020,559).
att(2198,1961).
att(1738,1180).
att(2029,1176).
att(33,1634).
att(1738,1172).
att(40,1763).
att(1986,385).
att(2002,1454).
att(2094,1052).
att(296,1012).
att(2160,1800).
att(2160,1791).
att(2095,1067).
att(298,1011).
att(2183,1789).
att(2080,57).
att(1924,1678).
att(228,1669).
att(2081,58).
att(2176,2009).
att(2029,1118).
att(2163,1813).
att(1635,1088).
att(1631,1110).
att(1937,1702).
att(1631,1111).
att(1926,1646).
att(2034,1177).
att(29,1758).
att(1925,1642).
att(2082,78).
att(35,1634).
att(2156,1823).
att(2076,1052).
att(2010,1452).
att(1636,1074).
att(291,1062).
att(1939,1702).
att(2027,1180).
att(37,1739).
att(1927,1677).
att(22,1711).
att(25,1707).
att(25,1722).
att(2085,70).
att(1989,460).
att(2081,81).
att(2088,68).
att(230,1716).
att(288,1183).
att(1988,449).
att(22,1729).
att(2033,1138).
att(2033,1139).
att(2086,82).
att(1986,438).
att(2156,1785).
att(35,1749).
att(24,1733).
att(296,1181).
att(2030,1170).
att(292,1188).
att(2089,1004).
att(2085,1958).
att(2123,1051).
att(2122,1069).
att(2053,1648).
att(2085,1941).
att(2158,1329).
att(2158,1317).
att(2029,1458).
att(2123,1066).
att(2159,1317).
att(2054,1649).
att(2028,1460).
att(1886,387).
att(1892,384).
att(94,1206).
att(1886,389).
att(2014,1535).
att(2047,1705).
att(2084,1958).
att(135,1167).
att(224,1613).
att(2031,1458).
att(2077,1833).
att(2154,1179).
att(2077,1839).
att(2159,1280).
att(246,1590).
att(2053,1703).
att(2154,1178).
att(241,1661).
att(2178,1467).
att(96,1206).
att(2080,1904).
att(2048,1675).
att(98,1216).
att(2053,1612).
att(2085,2013).
att(2153,1138).
att(2049,1645).
att(246,1618).
att(2053,1608).
att(307,1766).
att(2086,1930).
att(2162,1348).
att(2054,1612).
att(1885,409).
att(1886,438).
att(2054,1616).
att(2128,1173).
att(1892,435).
att(252,1613).
att(220,1742).
att(2161,1421).
att(128,1016).
att(274,1765).
att(126,1038).
att(245,1659).
att(1882,431).
att(141,984).
att(1882,430).
att(2052,1643).
att(137,1016).
att(2152,1170).
att(2069,1827).
att(243,1696).
att(2159,1300).
att(2177,1555).
att(240,1696).
att(2153,1169).
att(2096,1020).
att(222,1748).
att(2064,1822).
att(125,1057).
att(240,1708).
att(1884,426).
att(1879,431).
att(2152,1112).
att(128,1042).
att(25,1739).
att(92,1013).
att(2065,1841).
att(2166,1283).
att(2028,1570).
att(22,1741).
att(88,1041).
att(2068,1836).
att(2170,930).
att(101,1217).
att(144,990).
att(2063,1812).
att(225,1629).
att(2185,931).
att(144,1007).
att(2063,1847).
att(2125,1143).
att(2107,1174).
att(1882,476).
att(2122,1122).
att(2015,1612).
att(2098,1146).
att(2167,942).
att(2174,938).
att(25,1748).
att(86,1055).
att(220,1735).
att(2158,1344).
att(88,1056).
att(222,1709).
att(2159,1428).
att(247,1706).
att(221,1712).
att(2061,1817).
att(1882,495).
att(224,1722).
att(2165,1302).
att(2028,1532).
att(2123,1092).
att(2096,1071).
att(2014,1568).
att(2029,1532).
att(2032,1607).
att(2163,1461).
att(2014,1581).
att(89,1190).
att(1892,520).
att(90,1189).
att(2067,1875).
att(2156,1469).
att(1882,518).
att(2065,1871).
att(98,1184).
att(221,1574).
att(2054,1723).
att(2122,1049).
att(2163,1498).
att(94,1189).
att(1403,1284).
att(2034,1534).
att(2164,1302).
att(1882,530).
att(2063,1837).
att(248,1729).
att(1405,1281).
att(1882,539).
att(2034,1535).
att(128,1218).
att(2165,1346).
att(2073,1177).
att(171,1158).
att(2075,1175).
att(1415,1367).
att(1410,1341).
att(1410,1345).
att(266,1661).
att(1856,389).
att(2060,1957).
att(2071,1178).
att(241,1635).
att(1880,549).
att(1972,1624).
att(2064,1936).
att(139,1208).
att(1411,1345).
att(2200,1795).
att(241,1631).
att(1854,403).
att(1971,1627).
att(2060,1954).
att(244,1610).
att(1860,433).
att(1860,432).
att(2060,1874).
att(1854,409).
att(1976,1630).
att(141,1211).
att(2151,936).
att(1415,1296).
att(1858,430).
att(2069,1954).
att(1410,1362).
att(272,1666).
att(1857,411).
att(2070,1118).
att(1862,430).
att(1982,1609).
att(2128,994).
att(2152,980).
att(1878,553).
att(2064,1959).
att(2071,1116).
att(174,987).
att(264,1706).
att(302,1700).
att(1979,1644).
att(2207,1851).
att(2071,1073).
att(2206,1842).
att(2153,944).
att(158,1055).
att(1408,1422).
att(2059,1113).
att(241,1762).
att(2202,1851).
att(2072,1112).
att(2203,1843).
att(1979,1609).
att(2155,934).
att(1858,471).
att(278,1739).
att(304,1693).
att(242,1748).
att(1864,470).
att(302,1692).
att(2066,1940).
att(158,1059).
att(2126,938).
att(171,1040).
att(1757,936).
att(2062,1938).
att(1864,477).
att(1410,1424).
att(1410,1427).
att(159,1183).
att(2138,1023).
att(274,1709).
att(1753,995).
att(2126,1170).
att(135,1044).
att(2049,1604).
att(2153,1071).
att(242,1710).
att(1388,1284).
att(2155,1077).
att(249,1738).
att(276,1715).
att(1749,1025).
att(2153,1091).
att(131,1044).
att(1384,1311).
att(1757,1069).
att(1852,471).
att(1378,1279).
att(1417,1304).
att(1854,494).
att(2202,1909).
att(1854,493).
att(1751,1027).
att(1752,994).
att(1862,500).
att(1418,1321).
att(2199,1836).
att(1419,1278).
att(1858,514).
att(1858,512).
att(2144,42).
att(2207,1841).
att(1756,1029).
att(1757,1017).
att(244,1735).
att(2141,17).
att(1896,531).
att(2035,1569).
att(2132,2).
att(1755,1022).
att(1864,520).
att(1862,516).
att(2141,20).
att(252,1756).
att(1862,518).
att(139,1057).
att(2199,1849).
att(141,1060).
att(248,1755).
att(1866,380).
att(2104,944).
att(278,1724).
att(1858,533).
att(2200,1873).
att(1866,385).
att(2200,1870).
att(1980,1719).
att(2207,1955).
att(2041,389).
att(1754,1065).
att(2153,1050).
att(2208,1954).
att(276,1730).
att(1862,531).
att(2040,391).
att(1408,1555).
att(1756,1093).
att(1975,1725).
att(2051,1556).
att(2195,1824).
att(2141,74).
att(2195,1823).
att(1376,1294).
att(1750,1067).
att(1854,529).
att(1896,553).
att(1854,536).
att(1972,1656).
att(2037,380).
att(1751,1052).
att(1866,403).
att(169,1129).
att(2126,1049).
att(1752,1051).
att(2165,1567).
att(245,1593).
att(2200,1908).
att(163,1162).
att(2152,1067).
att(1753,1068).
att(243,1594).
att(2053,1559).
att(2136,15).
att(2154,1068).
att(1864,551).
att(1749,981).
att(1382,1307).
att(1971,1678).
att(2038,381).
att(1862,558).
att(2042,414).
att(2042,403).
att(2047,1458).
att(2048,1560).
att(2135,53).
att(1755,1054).
att(2135,54).
att(1384,1308).
att(249,1758).
att(249,1759).
att(1853,551).
att(2072,1603).
att(2091,1718).
att(1405,1026).
att(2129,1849).
att(2207,1503).
att(169,2287).
att(2204,1390).
att(2207,1501).
att(2204,1393).
att(302,383).
att(2194,1329).
att(2058,1582).
att(2146,1904).
att(266,567).
att(272,419).
att(265,563).
att(158,2222).
att(1403,1030).
att(1978,1923).
att(1405,945).
att(174,2213).
att(268,565).
att(169,2211).
att(2204,1424).
att(2094,1717).
att(2056,1603).
att(2208,1397).
att(1376,792).
att(2132,1816).
att(2205,1397).
att(2195,1287).
att(31,1160).
att(159,2233).
att(2141,1840).
att(274,566).
att(1410,1001).
att(33,1165).
att(266,575).
att(2129,1812).
att(1386,820).
att(2200,1463).
att(2199,1430).
att(264,582).
att(35,1161).
att(1419,902).
att(2207,1537).
att(2091,1677).
att(2205,1565).
att(29,1007).
att(1382,905).
att(2141,1956).
att(2202,1567).
att(2072,1504).
att(2092,1723).
att(2189,1319).
att(33,1011).
att(268,587).
att(2059,1464).
att(2129,1841).
att(2073,1470).
att(2193,1281).
att(1382,842).
att(2194,1294).
att(302,580).
att(2058,1564).
att(2132,1834).
att(2194,1304).
att(171,2240).
att(2074,1468).
att(2139,1908).
att(37,1007).
att(2057,1558).
att(2201,1503).
att(2090,1675).
att(2201,1501).
att(2205,1430).
att(2092,1649).
att(2089,1677).
att(2074,1455).
att(2089,1675).
att(2075,1458).
att(2126,1564).
att(2114,1824).
att(2126,1566).
att(141,2236).
att(2072,1705).
att(2135,1940).
att(2135,1935).
att(278,572).
att(2153,1458).
att(96,1764).
att(240,607).
att(2059,1648).
att(2059,1655).
att(243,599).
att(2154,1470).
att(2188,1364).
att(98,1767).
att(1382,949).
att(139,2229).
att(2127,1955).
att(2127,1870).
att(2196,1364).
att(245,605).
att(2071,1645).
att(161,2259).
att(92,1764).
att(2057,1704).
att(94,1762).
att(265,341).
att(272,337).
att(243,517).
att(2201,1567).
att(266,362).
att(2191,1362).
att(2191,1363).
att(86,1758).
att(244,599).
att(2189,1294).
att(169,2266).
att(1378,945).
att(2129,2003).
att(163,2274).
att(2074,1633).
att(2057,1612).
att(2105,1819).
att(171,2260).
att(272,371).
att(2059,1609).
att(2194,1499).
att(158,2285).
att(1978,1980).
att(2198,1279).
att(2132,2003).
att(2190,1397).
att(268,370).
att(2132,1985).
att(2195,1372).
att(2105,1828).
att(304,367).
att(270,393).
att(2057,1630).
att(1388,941).
att(165,2287).
att(2108,1815).
att(275,538).
att(165,2288).
att(1416,1024).
att(2072,1632).
att(2194,1372).
att(2191,1425).
att(40,1199).
att(2192,1498).
att(2186,1046).
att(2114,1907).
att(2179,1307).
att(2094,1530).
att(2091,1552).
att(2187,1045).
att(103,562).
att(37,1201).
att(227,1160).
att(298,564).
att(31,1205).
att(2112,1870).
att(2097,1838).
att(2191,1461).
att(294,579).
att(2181,1287).
att(2189,1391).
att(2195,1430).
att(230,1164).
att(288,581).
att(2114,1838).
att(2187,1052).
att(1386,1002).
att(2033,1648).
att(2192,1372).
att(1386,1001).
att(296,580).
att(226,1011).
att(2179,1326).
att(2193,1503).
att(31,1219).
att(2089,1566).
att(228,989).
att(2191,1499).
att(2088,1826).
att(2185,993).
att(2099,1869).
att(2112,1911).
att(2086,1800).
att(2103,1958).
att(288,603).
att(230,986).
att(294,581).
att(2076,1566).
att(230,987).
att(103,578).
att(2083,1791).
att(2125,1173).
att(2089,1468).
att(2031,1649).
att(2080,1799).
att(25,1037).
att(2081,1791).
att(2086,1789).
att(2088,1828).
att(2028,1647).
att(292,535).
att(2172,1325).
att(2028,1630).
att(294,602).
att(2114,1877).
att(2178,1323).
att(2105,1905).
att(94,332).
att(296,607).
att(2028,1643).
att(230,1011).
att(226,1060).
att(2034,1616).
att(2170,994).
att(2085,1797).
att(294,1759).
att(2170,993).
att(2122,1177).
att(2172,1346).
att(2167,1180).
att(294,338).
att(2177,1343).
att(174,2242).
att(264,524).
att(2092,1624).
att(169,2241).
att(291,1759).
att(2091,1642).
att(27,1036).
att(2178,1347).
att(291,360).
att(2185,1179).
att(302,598).
att(2175,1425).
att(2108,2003).
att(10,1061).
att(2180,1392).
att(2058,1462).
att(2185,1175).
att(2103,1930).
att(264,541).
att(2097,1941).
att(294,358).
att(2198,1428).
att(307,598).
att(2171,1177).
att(302,535).
att(2087,1818).
att(29,1183).
att(2175,1342).
att(2084,1816).
att(265,544).
att(2108,1930).
att(270,540).
att(291,386).
att(2078,1612).
att(2172,1365).
att(265,555).
att(2089,1628).
att(1997,1933).
att(23,1132).
att(2092,1587).
att(2089,1600).
att(294,392).
att(307,524).
att(2088,1903).
att(2171,1115).
att(2177,1393).
att(307,523).
att(2082,1850).
att(27,1188).
att(2171,1114).
att(270,546).
att(298,397).
att(2170,1140).
att(2094,1587).
att(2156,1286).
att(2178,1473).
att(2175,1496).
att(31,1183).
att(272,543).
att(2167,1090).
att(2081,1850).
att(2077,1814).
att(2093,1588).
att(2082,1813).
att(2167,1073).
att(2012,1926).
att(29,1208).
att(2161,1280).
att(291,562).
att(103,410).
att(37,1196).
att(2083,1851).
att(2000,2012).
att(24,1150).
att(292,568).
att(2174,1144).
att(2176,1390).
att(2085,1839).
att(2176,1394).
att(2176,1392).
att(2176,978).
att(2096,1611).
att(2162,726).
att(2163,728).
att(88,582).
att(144,574).
att(2182,906).
att(96,577).
att(231,1214).
att(248,982).
att(249,991).
att(92,584).
att(125,330).
att(2104,1612).
att(2080,1365).
att(2125,1569).
att(224,1041).
att(2183,718).
att(2183,716).
att(2031,2006).
att(2077,1424).
att(86,523).
att(2069,1284).
att(2086,1392).
att(2172,908).
att(2032,1996).
att(2098,1569).
att(2034,2008).
att(84,546).
att(2082,1372).
att(2104,1633).
att(141,371).
att(2014,1979).
att(2101,1582).
att(2156,771).
att(2065,1282).
att(128,388).
att(2122,1529).
att(2183,775).
att(2086,1420).
att(2181,945).
att(125,397).
att(2154,1717).
att(2178,975).
att(2160,774).
att(141,369).
att(223,1188).
att(2182,1002).
att(2084,1392).
att(2080,1425).
att(2015,2004).
att(128,393).
att(141,362).
att(224,1190).
att(292,540).
att(2123,1718).
att(2077,1497).
att(2124,1736).
att(230,1042).
att(294,517).
att(2078,2000).
att(226,1188).
att(220,1131).
att(2156,824).
att(2168,1602).
att(227,1059).
att(2084,1555).
att(25,1192).
att(2096,1736).
att(98,383).
att(2122,1674).
att(2167,1504).
att(2184,823).
att(225,1188).
att(2067,1282).
att(23,1199).
att(226,1189).
att(2171,1602).
att(224,1167).
att(23,1202).
att(2171,1605).
att(2122,1717).
att(90,410).
att(2080,1501).
att(298,543).
att(2183,973).
att(22,1207).
att(221,1150).
att(228,1195).
att(247,1166).
att(88,567).
att(247,1132).
att(2124,1676).
att(84,567).
att(2171,1531).
att(2067,1345).
att(2063,1368).
att(224,992).
att(231,1197).
att(2030,2032).
att(23,1220).
att(2170,1564).
att(2169,1558).
att(2060,1370).
att(2080,1561).
att(88,574).
att(2062,1326).
att(225,1205).
att(2169,1460).
att(2101,1675).
att(2159,905).
att(2169,1466).
att(2096,1656).
att(2161,870).
att(242,1043).
att(2126,1644).
att(2165,776).
att(2183,1030).
att(2152,1587).
att(2183,1002).
att(276,1014).
att(243,1044).
att(2067,1420).
att(125,517).
att(2051,2008).
att(133,604).
att(1411,771).
att(2156,945).
att(133,523).
att(278,1042).
att(2157,976).
att(2151,1528).
att(2138,1581).
att(276,1043).
att(2153,1600).
att(2049,1929).
att(135,599).
att(1403,720).
att(1410,795).
att(2151,1606).
att(1411,806).
att(2160,906).
att(2062,1390).
att(135,535).
att(2062,1392).
att(2205,1281).
att(2208,1326).
att(137,538).
att(276,1183).
att(1410,822).
att(2201,1287).
att(159,417).
att(2203,1313).
att(1410,825).
att(2071,1723).
att(242,1200).
att(264,1156).
att(2207,1281).
att(2061,1398).
att(161,408).
att(2157,1001).
att(2075,1653).
att(2128,1535).
att(243,1198).
att(2154,1562).
att(2066,1396).
att(135,557).
att(1408,792).
att(2158,941).
att(265,1156).
att(2202,1287).
att(2130,1504).
att(1403,775).
att(277,1184).
att(2126,1737).
att(128,410).
att(2165,870).
att(2204,1304).
att(2130,1726).
att(2066,1563).
att(2206,1363).
att(126,569).
att(247,1194).
att(126,566).
att(2202,1369).
att(2133,1795).
att(133,417).
att(245,1132).
att(242,1167).
att(2096,1564).
att(2200,1325).
att(276,1132).
att(2154,1703).
att(276,1135).
att(2128,1649).
att(2104,1504).
att(2098,1552).
att(2155,1677).
att(1403,822).
att(252,1193).
att(133,563).
att(2126,1721).
att(2138,1720).
att(135,1760).
att(126,571).
att(2128,1683).
att(1411,909).
att(275,1158).
att(2144,1815).
att(2136,1824).
att(242,984).
att(2129,1829).
att(243,983).
att(2206,1390).
att(1376,718).
att(247,1214).
att(2051,2053).
att(126,589).
att(247,1213).
att(1378,728).
att(2200,1342).
att(2129,1795).
att(245,1009).
att(2207,1350).
att(2204,1367).
att(2165,949).
att(2166,949).
att(1417,715).
att(2139,1797).
att(2166,907).
att(241,1044).
att(1415,948).
att(126,606).
att(2047,1977).
att(1384,722).
att(2131,1627).
att(2196,695).
att(1378,83).
att(1419,216).
att(1579,1609).
att(1388,122).
att(1747,2034).
att(1731,1458).
att(1744,2055).
att(1745,2034).
att(1732,1464).
att(1732,1460).
att(1741,1979).
att(1386,147).
att(1746,1972).
att(2074,2031).
att(1576,1570).
att(1754,2185).
att(1417,210).
att(2058,2092).
att(1740,2006).
att(1699,1171).
att(1740,2002).
att(1699,1179).
att(2191,711).
att(1418,119).
att(1752,2186).
att(1751,2101).
att(1578,1721).
att(2189,738).
att(2071,1972).
att(2178,597).
att(2196,730).
att(1572,1681).
att(2072,2047).
att(1722,1454).
att(1727,1556).
att(1745,2057).
att(2059,2015).
att(2056,2055).
att(2196,744).
att(1739,2049).
att(1742,2032).
att(2071,1996).
att(1388,216).
att(2193,700).
att(1746,2076).
att(2175,597).
att(2190,736).
att(2058,2055).
att(2176,632).
att(2195,719).
att(2059,2048).
att(2191,736).
att(1738,2049).
att(1732,1570).
att(1742,2151).
att(1640,1924).
att(1742,2153).
att(2126,2047).
att(1641,1926).
att(1739,2073).
att(2182,693).
att(2175,617).
att(1727,1601).
att(1731,1586).
att(2130,2035).
att(2172,625).
att(1639,1937).
att(1745,2126).
att(1724,1566).
att(2151,1933).
att(1738,2076).
att(2131,2006).
att(1572,1651).
att(1572,1649).
att(2153,2004).
att(1579,1726).
att(1731,1603).
att(1638,1939).
att(1639,1931).
att(1744,2056).
att(1574,1719).
att(1728,1529).
att(1635,1977).
att(2172,670).
att(2131,1925).
att(2128,2008).
att(2178,710).
att(1637,1976).
att(2151,1937).
att(2131,2012).
att(1732,1625).
att(1631,1923).
att(1724,1600).
att(1640,1998).
att(2178,680).
att(1733,1568).
att(1639,1971).
att(1713,1454).
att(2186,1611).
att(2186,1616).
att(1640,2030).
att(2187,1624).
att(1724,1612).
att(2168,1703).
att(2160,651).
att(1640,2078).
att(1636,2031).
att(2179,733).
att(1641,2078).
att(2173,1655).
att(1637,2032).
att(1712,1559).
att(1722,1627).
att(1722,1623).
att(2185,1643).
att(1724,1647).
att(1635,2053).
att(1724,1633).
att(1738,2167).
att(2169,1609).
att(2182,701).
att(2168,1611).
att(1637,2047).
att(1637,2048).
att(2180,740).
att(2170,1626).
att(2176,701).
att(2183,596).
att(2176,699).
att(1712,1589).
att(1728,1736).
att(1639,2126).
att(2158,651).
att(1733,1720).
att(1709,1562).
att(1729,1721).
att(2076,2050).
att(1618,1939).
att(2092,2035).
att(1727,1737).
att(1712,1601).
att(2079,2054).
att(2079,2052).
att(1629,2032).
att(1728,1673).
att(2158,595).
att(2163,647).
att(1631,2031).
att(2076,1981).
att(2167,1583).
att(1729,1704).
att(2179,798).
att(2179,800).
att(2180,791).
att(1712,1530).
att(2170,1582).
att(1637,2079).
att(1712,1534).
att(2170,1586).
att(1706,1454).
att(1638,2171).
att(1622,1971).
att(1614,2010).
att(1622,1982).
att(1706,1604).
att(1622,1975).
att(2161,704).
att(2057,1971).
att(1622,1997).
att(2184,656).
att(2057,2012).
att(1709,1530).
att(2160,672).
att(2057,2006).
att(1613,1929).
att(1629,2071).
att(1715,1462).
att(1610,1971).
att(1735,1703).
att(2187,1651).
att(2057,1926).
att(1714,1703).
att(1710,1627).
att(1613,2047).
att(1711,1675).
att(2185,1723).
att(2185,1705).
att(1709,1583).
att(1735,1611).
att(2158,671).
att(1714,1646).
att(1714,1609).
att(2160,702).
att(1779,452).
att(1619,1585).
att(2068,671).
att(2100,2096).
att(2163,63).
att(1713,1072).
att(2067,685).
att(1631,1720).
att(1775,451).
att(2124,2138).
att(2156,65).
att(2160,151).
att(2171,1982).
att(2187,1927).
att(1411,5).
att(1710,1073).
att(1775,456).
att(2125,2126).
att(2187,1939).
att(2157,63).
att(2170,2010).
att(1779,474).
att(2068,689).
att(1779,475).
att(2158,50).
att(2163,77).
att(1615,1566).
att(1771,456).
att(1774,450).
att(2060,615).
att(2083,798).
att(2161,63).
att(2065,689).
att(1777,473).
att(2068,680).
att(1637,1725).
att(1413,36).
att(1614,1643).
att(2061,713).
att(1415,39).
att(2158,149).
att(1735,1177).
att(1620,1633).
att(2123,2094).
att(1599,1466).
att(1411,12).
att(2171,1931).
att(1714,1171).
att(2156,117).
att(2157,107).
att(1707,1115).
att(1613,1642).
att(2065,699).
att(1715,1018).
att(1706,1090).
att(2062,678).
att(2107,2089).
att(1610,1606).
att(2098,2095).
att(1698,934).
att(1713,1143).
att(1775,512).
att(1410,42).
att(1709,1141).
att(1411,34).
att(2125,2029).
att(2065,710).
att(1595,1564).
att(2185,2030).
att(1596,1454).
att(1413,61).
att(1772,520).
att(1596,1464).
att(1591,1466).
att(2205,593).
att(1599,1552).
att(1596,1462).
att(2069,727).
att(2062,694).
att(2164,46).
att(1698,1069).
att(2206,645).
att(1593,1454).
att(1778,534).
att(2207,641).
att(2060,744).
att(1773,520).
att(2170,2079).
att(1617,1683).
att(2165,61).
att(1598,1464).
att(2166,59).
att(2186,2051).
att(1614,1608).
att(2158,124).
att(2069,741).
att(2064,737).
att(1411,57).
att(2168,2030).
att(1709,1177).
att(1778,558).
att(2067,742).
att(2187,2049).
att(1621,1683).
att(1693,1052).
att(1710,1179).
att(2060,702).
att(1686,1098).
att(1715,1090).
att(1715,1073).
att(1774,548).
att(1599,1602).
att(1716,1090).
att(1757,1923).
att(2062,727).
att(2067,800).
att(1774,558).
att(1408,81).
att(1755,1931).
att(1410,68).
att(1716,1151).
att(2169,2055).
att(2201,629).
att(1594,1603).
att(1692,1092).
att(2200,613).
att(1411,71).
att(2200,625).
att(1613,1737).
att(1753,1923).
att(2173,2034).
att(1595,1533).
att(2062,737).
att(1415,51).
att(2186,2012).
att(1408,61).
att(2206,691).
att(1620,1717).
att(2063,725).
att(2199,647).
att(1405,51).
att(1590,1564).
att(1405,155).
att(2207,705).
att(2107,1929).
att(2207,710).
att(2166,117).
att(2154,2072).
att(1416,36).
att(1592,1603).
att(1754,2006).
att(2154,2058).
att(1756,1975).
att(1757,1978).
att(1757,2049).
att(1757,2054).
att(1698,1115).
att(1417,19).
att(1593,1582).
att(1755,1976).
att(2202,705).
att(1666,1004).
att(2101,1939).
att(1419,32).
att(2204,678).
att(2138,2071).
att(1413,66).
att(2201,623).
att(2126,2071).
att(1716,1112).
att(1750,1929).
att(1755,2002).
att(1752,2010).
att(1753,1997).
att(1748,2053).
att(1669,994).
att(1688,1173).
att(1590,1608).
att(2128,2095).
att(1700,1052).
att(2197,595).
att(1756,2034).
att(1750,1972).
att(1596,1676).
att(1417,44).
att(1597,1704).
att(2201,700).
att(1664,998).
att(1403,208).
att(1574,1462).
att(2203,737).
att(2202,738).
att(2152,2076).
att(1661,996).
att(2131,2094).
att(1405,206).
att(1405,122).
att(1667,981).
att(1748,1980).
att(2138,2030).
att(1415,107).
att(2154,2052).
att(2153,2047).
att(1598,1612).
att(1688,1116).
att(1388,42).
att(1415,119).
att(1416,14).
att(2164,208).
att(2205,711).
att(1696,1177).
att(1382,18).
att(1755,2051).
att(1378,30).
att(1376,34).
att(1417,62).
att(1755,2052).
att(1411,212).
att(2202,702).
att(1693,1171).
att(1686,1114).
att(2200,727).
att(1667,1095).
att(1575,1504).
att(1749,2092).
att(1591,1655).
att(2098,2015).
att(2125,2054).
att(2125,2035).
att(1592,1672).
att(2124,2055).
att(2191,619).
att(2203,798).
att(1418,49).
att(2192,592).
att(1748,2031).
att(1595,1655).
att(1388,62).
att(1753,2076).
att(2194,645).
att(2205,732).
att(1574,1556).
att(2188,594).
att(2189,591).
att(2192,632).
att(1752,2089).
att(1752,2093).
att(1386,65).
att(1572,1600).
att(2194,658).
att(1576,1606).
att(1757,2187).
att(2190,664).
att(2194,713).
att(1573,1601).
att(1666,1170).
att(1376,70).
att(2195,709).
att(1418,147).
att(1571,1606).
att(1667,1073).
att(1418,71).
att(1700,1090).
att(1700,1072).
att(2098,2012).
att(2204,804).
att(2194,672).
att(1388,70).
att(1573,1534).
att(1664,1094).
att(1745,2002).
att(2199,791).
att(1384,66).
att(2191,685).
att(2189,613).
att(1593,1717).
att(1418,1955).
att(2105,632).
att(2114,637).
att(1968,533).
att(2127,742).
att(2192,58).
att(1575,1048).
att(1575,1034).
att(1967,533).
att(2108,632).
att(1806,384).
att(1388,1873).
att(1967,537).
att(1577,1045).
att(2136,731).
att(1754,1651).
att(1580,1095).
att(1740,1458).
att(1744,1562).
att(1750,1677).
att(1802,534).
att(1378,1870).
att(1801,529).
att(2200,206).
att(1781,378).
att(1746,1454).
att(1753,1677).
att(1419,1871).
att(2116,591).
att(1967,552).
att(1579,1067).
att(1576,999).
att(1782,378).
att(1596,1180).
att(1382,1871).
att(1780,389).
att(1754,1702).
att(1811,431).
att(1969,550).
att(2201,216).
att(1577,1051).
att(1802,556).
att(1810,438).
att(1738,1533).
att(1801,558).
att(1572,1093).
att(1746,1605).
att(1388,1930).
att(1580,1090).
att(2132,802).
att(1573,1092).
att(1384,2009).
att(2135,796).
att(2114,629).
att(2105,651).
att(2136,729).
att(1388,1936).
att(1416,1985).
att(1808,456).
att(1384,1932).
att(1574,1110).
att(1578,1073).
att(1574,1116).
att(2178,1).
att(2182,42).
att(1746,1646).
att(2108,658).
att(1729,940).
att(1580,1173).
att(1727,1022).
att(1731,1000).
att(1743,1630).
att(1573,1170).
att(1811,494).
att(2190,115).
att(2180,15).
att(1745,1623).
att(1807,477).
att(1573,1144).
att(2112,700).
att(2112,701).
att(2181,30).
att(2198,20).
att(1724,931).
att(1806,494).
att(1574,1146).
att(1806,500).
att(1386,2007).
att(1580,1138).
att(2110,704).
att(1747,1633).
att(1728,931).
att(1571,1091).
att(1574,1144).
att(2191,149).
att(1781,491).
att(1805,510).
att(1733,1064).
att(2114,739).
att(2105,696).
att(1742,1681).
att(1746,1703).
att(1729,981).
att(2192,189).
att(1782,493).
att(1792,385).
att(2188,212).
att(1731,1033).
att(1747,1656).
att(1780,511).
att(2177,26).
att(2189,115).
att(1786,384).
att(2192,122).
att(2179,62).
att(1798,401).
att(2175,20).
att(1747,1677).
att(2176,11).
att(1743,1608).
att(1727,993).
att(1747,1676).
att(1798,405).
att(1781,529).
att(2102,703).
att(2172,34).
att(1738,1674).
att(2082,637).
att(2087,617).
att(2114,791).
att(1724,1034).
att(1770,389).
att(1739,1651).
att(2084,613).
att(1734,1088).
att(1784,411).
att(1790,399).
att(1731,1088).
att(2081,617).
att(1744,1719).
att(2172,43).
att(1637,1504).
att(1638,1604).
att(1740,1650).
att(1635,1558).
att(1722,1054).
att(1796,435).
att(2099,740).
att(2185,2152).
att(1769,405).
att(2084,608).
att(2080,632).
att(2186,2153).
att(1640,1560).
att(2080,639).
att(2108,729).
att(1641,1533).
att(2080,635).
att(1731,1095).
att(2102,727).
att(2077,592).
att(1638,1532).
att(1635,1583).
att(2077,687).
att(1735,1025).
att(2168,2151).
att(2084,658).
att(2182,155).
att(2170,2138).
att(1711,1025).
att(1790,455).
att(1796,470).
att(1798,477).
att(2162,1).
att(2181,64).
att(2077,619).
att(2099,791).
att(1735,942).
att(2087,682).
att(1738,1719).
att(2182,69).
att(2168,2058).
att(1792,498).
att(2083,693).
att(2080,690).
att(1730,1077).
att(2174,2128).
att(2097,800).
att(2173,2155).
att(2176,67).
att(1735,1066).
att(2162,18).
att(1706,1023).
att(1786,495).
att(2077,713).
att(1714,995).
att(2163,19).
att(2182,210).
att(2156,32).
att(1790,491).
att(2159,41).
att(1711,1065).
att(2156,19).
att(1637,1611).
att(2157,14).
att(2161,60).
att(1634,1627).
att(1770,492).
att(1634,1633).
att(1735,994).
att(2081,713).
att(2198,189).
att(1728,1113).
att(1779,384).
att(1714,1018).
att(1636,1581).
att(2161,12).
att(1730,1116).
att(2198,212).
att(1777,379).
att(2080,730).
att(1622,1531).
att(1634,1650).
att(2066,643).
att(2158,60).
att(1635,1651).
att(2163,50).
att(2184,81).
att(1640,1674).
att(1784,542).
att(1617,1559).
att(1618,1530).
att(1621,1504).
att(1714,1098).
att(1774,385).
att(2085,800).
att(2157,50).
att(1735,1046).
att(2068,645).
att(1706,994).
att(1622,1556).
att(2067,590).
att(2158,18).
att(1709,981).
att(1640,1702).
att(2063,595).
att(1775,437).
att(1707,1066).
att(1775,438).
att(2084,732).
att(1769,549).
att(2061,41).
att(2157,1840).
att(2066,30).
att(1619,980).
att(2088,210).
att(1614,1025).
att(2077,155).
att(2086,122).
att(2087,206).
att(2060,28).
att(2085,210).
att(1987,476).
att(2061,34).
att(1631,1091).
att(2023,518).
att(1991,495).
att(1636,1169).
att(2083,156).
att(2024,529).
att(2080,155).
att(2077,208).
att(1610,999).
att(2164,1793).
att(2069,49).
att(2082,218).
att(1411,1789).
att(1990,510).
att(2064,49).
att(2060,59).
att(2061,56).
att(1994,385).
att(2066,17).
att(2068,62).
att(2077,115).
att(1992,401).
att(1988,537).
att(1631,1115).
att(2184,1875).
att(1963,382).
att(1966,382).
att(2025,552).
att(1621,1068).
att(1621,1054).
att(1965,382).
att(1965,384).
att(1986,529).
att(2183,1868).
att(2061,82).
att(2183,2011).
att(2162,1940).
att(1614,1109).
att(1408,1797).
att(1403,1785).
att(2069,153).
att(2206,9).
att(1987,551).
att(2159,1936).
att(2159,1910).
att(2157,1930).
att(1618,1092).
att(2157,1958).
att(2066,43).
att(1614,1048).
att(2163,1954).
att(2063,54).
att(1992,455).
att(1615,1049).
att(1411,1822).
att(1994,455).
att(1591,946).
att(1413,1847).
att(1591,942).
att(2205,7).
att(1620,1170).
att(2067,151).
att(1410,1832).
att(2199,8).
att(2202,34).
att(1965,453).
att(2064,117).
att(1594,1018).
att(2199,5).
att(1618,1139).
att(1999,498).
att(1617,1148).
att(2207,6).
att(2166,1849).
att(2068,149).
att(1966,470).
att(2069,151).
att(1599,1025).
att(1999,511).
att(2203,4).
att(1965,472).
att(1594,934).
att(2065,148).
att(2060,213).
att(2166,1871).
att(2166,1874).
att(2208,59).
att(1598,1052).
att(1599,1069).
att(1592,1018).
att(2206,51).
att(1597,1069).
att(1999,529).
att(2202,55).
att(2200,12).
att(1964,512).
att(2165,1868).
att(2207,53).
att(2060,120).
att(2061,119).
att(1993,533).
att(2207,19).
att(1992,529).
att(2067,107).
att(1596,1027).
att(1598,980).
att(1610,1140).
att(1995,530).
att(1994,529).
att(1593,1022).
att(2064,208).
att(1962,515).
att(2207,17).
att(1748,1554).
att(1419,1827).
att(2200,52).
att(1419,1831).
att(1993,558).
att(2144,619).
att(1417,1824).
att(1757,1526).
att(1754,1554).
att(1410,1930).
att(2139,628).
att(1974,430).
att(1410,1936).
att(1974,428).
att(1803,379).
att(1751,1554).
att(1964,550).
att(2203,79).
att(1753,1526).
att(1386,1783).
att(2144,639).
att(1963,548).
att(1416,1785).
att(1801,399).
att(1415,1870).
att(1965,556).
att(1417,1826).
att(2139,651).
att(1974,453).
att(2133,635).
att(1411,1953).
att(2202,49).
att(1410,1941).
att(2135,672).
att(2144,656).
att(1968,455).
att(2200,70).
att(1580,931).
att(2144,671).
att(1579,940).
att(2146,662).
att(1754,1602).
att(2208,150).
att(1577,946).
att(2139,672).
att(1593,1088).
att(2200,63).
att(2135,692).
att(2203,71).
att(1386,1825).
att(1405,1936).
att(1590,1094).
att(2204,75).
att(1598,1090).
att(2144,692).
att(2136,629).
att(1967,480).
att(1967,474).
att(1596,1108).
att(2195,2).
att(1376,1831).
att(2195,8).
att(1755,1604).
att(2127,629).
att(1386,1822).
att(2129,613).
att(2200,117).
att(2207,212).
att(2196,19).
att(2200,124).
att(2204,124).
att(1576,1004).
att(1580,1067).
att(1756,1677).
att(1417,1868).
att(1757,1705).
att(2132,708).
att(2188,30).
att(1573,1027).
att(1574,994).
att(1754,1616).
att(1757,1677).
att(1571,1029).
att(2202,189).
att(1378,1839).
att(1753,1642).
att(2200,150).
att(1572,940).
att(2136,667).
att(2197,39).
att(1756,1647).
att(1419,1841).
att(2190,21).
att(1598,1122).
att(1754,1587).
att(1804,494).
att(2136,669).
att(1592,1141).
att(2139,709).
att(2188,1).
att(1755,1646).
att(1384,1833).
att(1384,1839).
att(1571,946).
att(2189,7).
att(1593,1151).
att(1802,512).
att(1724,184).
att(1746,975).
att(1730,184).
att(1638,794).
att(1638,793).
att(1728,250).
att(1745,941).
att(1740,850).
att(1575,406).
att(1575,400).
att(1729,205).
att(1747,976).
att(1732,253).
att(1722,217).
att(1745,976).
att(1740,874).
att(1741,1003).
att(1637,772).
att(1727,287).
att(1744,1008).
att(1724,256).
att(1742,906).
att(1729,253).
att(1729,259).
att(1734,233).
att(1722,258).
att(1740,950).
att(1728,352).
att(1711,108).
att(1712,204).
att(1707,112).
att(1635,820).
att(1728,263).
att(1711,106).
att(1638,827).
att(1638,825).
att(1740,1005).
att(1708,186).
att(1714,180).
att(1724,319).
att(1640,870).
att(1712,250).
att(1637,851).
att(1722,344).
att(1735,250).
att(1706,116).
att(1713,211).
att(1714,215).
att(1731,427).
att(1614,795).
att(1615,715).
att(1708,219).
att(1620,801).
att(1635,906).
att(1613,801).
att(1619,773).
att(1635,979).
att(1635,976).
att(1713,253).
att(1641,935).
att(1712,233).
att(1619,797).
att(1708,279).
att(1615,801).
att(1709,238).
att(1613,775).
att(1614,904).
att(1716,181).
att(1692,217).
att(1618,873).
att(1707,344).
att(1707,343).
att(1715,184).
att(1694,185).
att(1706,281).
att(1619,903).
att(1621,903).
att(1707,377).
att(1596,715).
att(1613,949).
att(1696,260).
att(1610,872).
att(1597,715).
att(1690,187).
att(1615,867).
att(1615,950).
att(1617,973).
att(1694,232).
att(1619,935).
att(1688,187).
att(1706,342).
att(1599,714).
att(1620,867).
att(1599,726).
att(1709,400).
att(1617,870).
att(1599,202).
att(1620,377).
att(1614,349).
att(1692,1977).
att(1594,207).
att(1591,99).
att(1598,204).
att(1613,376).
att(1618,321).
att(1708,2169).
att(1614,285).
att(1610,310).
att(1708,2167).
att(1706,2100).
att(1692,1996).
att(1709,2123).
att(1618,374).
att(1688,1975).
att(1599,254).
att(1599,259).
att(1594,256).
att(1692,2093).
att(1594,255).
att(1693,2058).
att(1594,257).
att(1694,2079).
att(1690,2054).
att(498,1018).
att(1594,186).
att(1694,2094).
att(1595,315).
att(1699,2004).
att(1692,2126).
att(1693,2122).
att(1686,2153).
att(1595,237).
att(1754,714).
att(1593,256).
att(1692,2073).
att(1686,2074).
att(1694,2154).
att(1686,2058).
att(1754,841).
att(1754,846).
att(1596,349).
att(1578,217).
att(1659,1982).
att(1686,2169).
att(1749,771).
att(1596,310).
att(1757,841).
att(1671,2012).
att(1751,769).
att(1592,314).
att(1594,262).
att(1749,901).
att(1579,181).
att(1598,427).
att(1754,901).
att(1756,872).
att(1664,2051).
att(1666,2090).
att(1597,402).
att(1590,344).
att(1749,824).
att(1671,2048).
att(1750,841).
att(1596,374).
att(1593,352).
att(1752,900).
att(1667,2131).
att(1572,254).
att(1700,2154).
att(1746,795).
att(1740,714).
att(1745,775).
att(1751,949).
att(1669,2090).
att(1749,869).
att(1669,2093).
att(1749,850).
att(1592,346).
att(1666,2074).
att(1667,2070).
att(1574,259).
att(1572,312).
att(1571,286).
att(1576,261).
att(1747,821).
att(1669,2173).
att(1666,2170).
att(1750,1008).
att(1574,282).
att(1748,943).
att(1746,773).
att(1671,2100).
att(1745,841).
att(1755,1019).
att(1573,233).
att(1659,2151).
att(1741,772).
att(1666,2107).
att(1733,202).
att(1729,111).
att(1580,406).
att(1578,424).
att(1574,321).
att(1743,849).
att(1664,2170).
att(1733,2008).
att(1734,1980).
att(1574,2125).
att(1574,2122).
att(1571,2072).
att(1733,1933).
att(1572,2057).
att(1746,232).
att(1747,229).
att(1744,234).
att(1747,286).
att(1731,2010).
att(1577,2138).
att(1741,238).
att(1733,2055).
att(1729,1971).
att(1572,2169).
att(1641,205).
att(1743,375).
att(1746,318).
att(1740,284).
att(1745,344).
att(1728,2051).
att(1740,262).
att(1571,2096).
att(1575,2167).
att(1739,287).
att(1576,2169).
att(1731,2049).
att(1728,1971).
att(1741,279).
att(1740,286).
att(1724,2030).
att(1740,319).
att(1631,202).
att(1739,342).
att(1729,2029).
att(1637,204).
att(1734,2073).
att(1731,2057).
att(1640,207).
att(1636,116).
att(1733,2014).
att(1742,327).
att(1641,186).
att(1734,2078).
att(1746,415).
att(1746,400).
att(1727,2030).
att(1634,215).
att(1722,2059).
att(1629,253).
att(1713,1931).
att(1724,2072).
att(1641,235).
att(1637,229).
att(1641,310).
att(450,1705).
att(1727,2153).
att(1731,2096).
att(1639,238).
att(1639,237).
att(1738,412).
att(1637,180).
att(1729,2092).
att(1636,313).
att(1637,281).
att(1714,1996).
att(1631,236).
att(1634,312).
att(1706,2053).
att(1615,108).
att(1711,2090).
att(1613,201).
att(1714,2048).
att(1707,2051).
att(1614,106).
att(1622,229).
att(1713,2075).
att(1710,2074).
att(1621,219).
att(1614,251).
att(1614,183).
att(1735,2071).
att(1610,209).
att(1713,2092).
att(1714,2089).
att(1617,178).
att(1617,182).
att(1613,182).
att(1712,2072).
att(1619,282).
att(1619,283).
att(1614,315).
att(1610,238).
att(1735,2169).
att(1706,2138).
att(1620,287).
att(1692,2008).
att(1693,1979).
att(1688,1996).
att(1711,2174).
att(1614,234).
att(1696,1933).
att(1696,1923).
att(1615,254).
att(1711,2107).
att(1708,2151).
att(1715,2006).
att(204,942).
att(215,997).
att(209,1020).
att(1410,639).
att(2158,743).
att(2164,619).
att(1411,628).
att(1688,1559).
att(2183,727).
att(1415,594).
att(1706,1608).
att(2158,702).
att(1713,1675).
att(2160,725).
att(2156,735).
att(1618,2090).
att(114,1118).
att(2156,743).
att(1413,687).
att(1614,2151).
att(1408,615).
att(1597,1926).
att(112,1151).
att(1615,2131).
att(1693,1582).
att(1620,2096).
att(1403,685).
att(1598,1924).
att(2157,804).
att(1690,1559).
att(2162,807).
att(1408,643).
att(2159,717).
att(1610,2079).
att(1709,1672).
att(1597,1927).
att(1620,2128).
att(118,1107).
att(1595,1925).
att(112,1091).
att(1693,1604).
att(203,1031).
att(1415,705).
att(2164,700).
att(1593,1972).
att(1753,99).
att(1686,1646).
att(203,1054).
att(1598,1975).
att(211,1033).
att(201,1032).
att(1405,662).
att(205,1095).
att(1686,1584).
att(205,1092).
att(203,998).
att(1661,1470).
att(207,1069).
att(1388,593).
att(1753,186).
att(205,1064).
att(1669,1458).
att(209,1064).
att(2166,725).
att(1754,201).
att(2166,733).
att(1716,1650).
att(1754,205).
att(1592,2032).
att(1593,2029).
att(204,993).
att(1597,2076).
att(1386,597).
att(207,999).
att(2166,740).
att(1715,1677).
att(1610,2169).
att(209,998).
att(1754,116).
att(1599,2033).
att(1755,111).
att(106,1171).
att(1593,2050).
att(1753,203).
att(1419,632).
att(1753,204).
att(1595,2028).
att(1590,2059).
att(1753,235).
att(1749,250).
att(1700,1589).
att(1753,237).
att(1408,719).
att(1417,664).
att(1757,315).
att(1403,796).
att(1666,1604).
att(112,1023).
att(1590,2070).
att(1405,798).
att(1686,1653).
att(1595,2059).
att(1749,181).
att(1415,727).
att(1596,2079).
att(1410,802).
att(1664,1556).
att(1754,257).
att(1411,791).
att(1594,2070).
att(1667,1632).
att(1700,1647).
att(1579,1981).
att(1756,281).
att(1416,703).
att(1671,1632).
att(1596,2167).
att(1384,708).
att(1757,351).
att(1593,2125).
att(1745,112).
att(1667,1645).
att(1590,2128).
att(1669,1601).
att(1669,1600).
att(1578,1975).
att(1597,2123).
att(1590,2155).
att(1751,236).
att(1590,2151).
att(1575,2034).
att(114,1049).
att(1749,351).
att(114,1046).
att(1743,123).
att(1574,2030).
att(1577,2031).
att(1664,1625).
att(112,1110).
att(1384,740).
att(1751,377).
att(1418,703).
att(1572,1976).
att(1579,2047).
att(1753,374).
att(1701,1626).
att(1596,2170).
att(114,1066).
att(1756,321).
att(1574,2050).
att(1741,118).
att(112,1033).
att(1755,349).
att(114,1000).
att(1667,1720).
att(1741,257).
att(118,980).
att(1419,804).
att(118,993).
att(1577,2059).
att(1578,2152).
att(1664,1653).
att(1740,185).
att(1384,803).
att(1419,719).
att(1579,2095).
att(1746,178).
att(109,936).
att(109,944).
att(1388,730).
att(1382,725).
att(1755,400).
att(1571,2033).
att(257,1046).
att(254,1067).
att(395,613).
att(2258,1530).
att(2263,1648).
att(257,1049).
att(392,645).
att(2254,1552).
att(2262,1649).
att(2250,1458).
att(2228,2031).
att(250,1051).
att(2217,1937).
att(2264,1737).
att(2223,2074).
att(2264,1718).
att(2255,1562).
att(392,596).
att(395,637).
att(2257,1552).
att(259,1054).
att(2262,1683).
att(2224,2028).
att(2228,2054).
att(2227,2079).
att(2256,1556).
att(2252,1458).
att(416,744).
att(2267,1651).
att(392,680).
att(2251,1602).
att(2252,1589).
att(180,1141).
att(183,1118).
att(253,1022).
att(390,682).
att(2211,1937).
att(2217,1996).
att(2257,1586).
att(2224,2124).
att(2250,1605).
att(178,1113).
att(184,1139).
att(180,1116).
att(392,615).
att(413,798).
att(410,719).
att(2221,2056).
att(2261,1736).
att(408,804).
att(2252,1531).
att(179,1148).
att(237,1023).
att(2256,1616).
att(236,1025).
att(260,1120).
att(2214,1978).
att(2258,1609).
att(397,696).
att(395,702).
att(2148,1466).
att(390,698).
att(2253,1627).
att(2254,1616).
att(2216,2051).
att(239,1022).
att(2215,1976).
att(254,1074).
att(2214,1981).
att(250,1078).
att(2216,1972).
att(239,936).
att(250,1089).
att(2145,1564).
att(2211,2033).
att(2251,1677).
att(360,596).
att(2251,1681).
att(259,1078).
att(2250,1623).
att(370,628).
att(358,597).
att(2257,1725).
att(219,936).
att(257,1143).
att(2213,2092).
att(393,719).
att(2256,1674).
att(2209,2031).
att(368,595).
att(2256,1681).
att(251,1065).
att(2255,1702).
att(253,1046).
att(2215,2032).
att(2217,2089).
att(260,1108).
att(364,632).
att(2150,1554).
att(260,1093).
att(2217,2078).
att(364,596).
att(250,1045).
att(2145,1464).
att(2140,1532).
att(2249,1721).
att(2212,2073).
att(207,1180).
att(2284,1939).
att(181,995).
att(178,1017).
att(370,662).
att(2134,1531).
att(2250,1736).
att(2142,1604).
att(203,1179).
att(368,690).
att(368,623).
att(209,1112).
att(2252,1656).
att(386,730).
att(370,623).
att(2211,2076).
att(2134,1455).
att(2254,1723).
att(364,621).
att(393,791).
att(203,1089).
att(204,1077).
att(362,667).
att(203,1071).
att(217,1120).
att(2243,112).
att(2245,108).
att(366,709).
att(2288,2055).
att(358,670).
att(2245,114).
att(2280,1931).
att(204,1110).
att(185,944).
att(204,1098).
att(2148,1645).
att(2142,1587).
att(2210,2155).
att(2218,2173).
att(2279,1923).
att(364,656).
att(2281,1923).
att(362,697).
att(2281,2053).
att(2241,211).
att(368,744).
att(2241,217).
att(2240,99).
att(2118,1458).
att(2143,1624).
att(2149,1675).
att(2117,1454).
att(2240,217).
att(178,1077).
att(2120,1553).
att(258,931).
att(2121,1560).
att(334,595).
att(2147,1676).
att(185,1088).
att(2280,1971).
att(179,1049).
att(2145,1608).
att(186,1089).
att(2286,2047).
att(360,699).
att(2240,114).
att(2283,2035).
att(2120,1455).
att(2150,1704).
att(2243,217).
att(358,705).
att(358,712).
att(182,1077).
att(2106,1556).
att(2281,2094).
att(332,647).
att(330,641).
att(362,717).
att(2241,259).
att(330,647).
att(341,613).
att(2143,1673).
att(2244,254).
att(182,1046).
att(2143,1725).
att(2278,1933).
att(340,687).
att(2278,1927).
att(182,1098).
att(334,621).
att(2279,2093).
att(2140,1674).
att(2150,1721).
att(2140,1678).
att(2241,179).
att(2281,2033).
att(337,635).
att(2280,2029).
att(2247,211).
att(2284,2079).
att(341,641).
att(180,994).
att(336,593).
att(2247,215).
att(341,647).
att(2243,250).
att(2148,1719).
att(360,730).
att(183,1066).
att(358,740).
att(2285,2091).
att(179,1051).
att(358,738).
att(2279,2032).
att(2288,2059).
att(358,743).
att(332,593).
att(338,649).
att(371,629).
att(338,16).
att(571,713).
att(2245,2015).
att(2281,1644).
att(311,1093).
att(203,1526).
att(2247,1977).
att(337,20).
att(341,11).
att(2247,1982).
att(336,28).
att(573,702).
att(2275,1458).
att(336,16).
att(380,424).
att(2121,1065).
att(567,592).
att(2282,1623).
att(2286,1702).
att(2121,1068).
att(2246,1972).
att(205,1569).
att(338,11).
att(371,19).
att(2140,1143).
att(332,9).
att(215,1604).
att(2143,1144).
att(99,1674).
att(360,113).
att(313,1045).
att(2243,2050).
att(336,41).
att(340,15).
att(106,1721).
att(334,39).
att(358,150).
att(2288,1611).
att(2109,942).
att(2150,1176).
att(2248,1997).
att(2119,1046).
att(566,651).
att(203,1454).
att(215,1504).
att(573,739).
att(576,717).
att(2272,1460).
att(203,1470).
att(211,1556).
att(2275,1533).
att(201,1559).
att(2109,1065).
att(2288,1737).
att(287,1110).
att(578,802).
att(2288,1648).
att(326,19).
att(2277,1562).
att(114,1702).
att(310,995).
att(566,595).
att(108,1625).
att(2248,2052).
att(209,1458).
att(207,1455).
att(362,206).
att(2284,1675).
att(362,216).
att(568,591).
att(573,743).
att(211,1460).
att(229,1173).
att(2272,1466).
att(336,55).
att(118,1702).
att(340,51).
att(326,12).
att(310,1054).
att(2279,1624).
att(2115,1065).
att(282,1064).
att(2231,1931).
att(2273,1606).
att(211,1677).
att(565,687).
att(204,1608).
att(2276,1589).
att(2118,1169).
att(2272,1589).
att(183,1464).
att(2243,2123).
att(263,1045).
att(202,1675).
att(2274,1504).
att(2246,2079).
att(2120,1071).
att(2242,2072).
att(2246,2076).
att(2248,2089).
att(2276,1531).
att(2285,1721).
att(2119,1109).
att(215,1677).
att(2241,2072).
att(2272,1556).
att(2247,2093).
att(201,1612).
att(204,1643).
att(215,1705).
att(2271,1534).
att(2275,1588).
att(205,1704).
att(563,613).
att(2239,2074).
att(2236,1927).
att(2279,1673).
att(371,69).
att(2117,1093).
att(2277,1627).
att(560,666).
att(2274,1632).
att(2273,1646).
att(205,1643).
att(2270,1569).
att(211,1630).
att(209,1633).
att(284,1021).
att(2271,1647).
att(261,994).
att(2229,1976).
att(314,1173).
att(2236,2050).
att(340,83).
att(566,672).
att(209,1582).
att(284,942).
att(286,1113).
att(566,671).
att(313,1072).
att(332,66).
att(337,150).
att(2237,1939).
att(2119,1140).
att(201,1568).
att(217,1632).
att(2272,1569).
att(2111,1143).
att(202,1570).
att(340,117).
att(2121,1114).
att(311,1146).
att(2120,1138).
att(2268,1558).
att(332,212).
att(2235,2092).
att(2277,1655).
att(569,730).
att(332,218).
att(332,214).
att(421,591).
att(416,594).
att(420,649).
att(229,1046).
att(564,738).
att(219,1074).
att(2266,1468).
att(569,735).
att(563,702).
att(2109,1120).
att(2269,1643).
att(560,713).
att(2269,1646).
att(2106,1179).
att(2234,2031).
att(2276,1681).
att(118,1562).
att(234,1066).
att(232,1050).
att(564,694).
att(229,1066).
att(99,1454).
att(568,743).
att(2233,2015).
att(232,1047).
att(423,591).
att(118,1552).
att(2246,2187).
att(2263,1532).
att(27,96).
att(114,1468).
att(255,1176).
att(2270,1672).
att(236,1069).
att(422,685).
att(238,1052).
att(37,86).
att(2234,2153).
att(2261,1532).
att(10,139).
att(416,621).
att(2230,2057).
att(413,623).
att(239,1064).
att(2229,2058).
att(233,1029).
att(563,733).
att(2273,1672).
att(27,126).
att(2273,1656).
att(2265,1562).
att(2276,1673).
att(237,998).
att(2272,1672).
att(2264,1533).
att(2229,2089).
att(219,1064).
att(568,804).
att(564,733).
att(2278,1719).
att(116,1609).
att(423,705).
att(2228,1924).
att(2225,1979).
att(417,656).
att(422,705).
att(118,1608).
att(316,980).
att(109,1643).
att(408,680).
att(421,708).
att(2264,1633).
att(2219,2004).
att(233,1171).
att(2236,2096).
att(237,1122).
att(27,22).
att(316,1004).
att(2227,2012).
att(2261,1530).
att(239,1114).
att(99,1568).
att(233,1112).
att(2260,1605).
att(420,666).
att(232,1113).
att(432,279).
att(114,1587).
att(237,1146).
att(10,252).
att(2224,2049).
att(2265,1625).
att(29,220).
att(238,1151).
att(109,1606).
att(239,1169).
att(235,1090).
att(238,1170).
att(317,931).
att(421,744).
att(2256,1470).
att(2223,2015).
att(232,1144).
att(317,946).
att(109,1533).
att(413,712).
att(112,1602).
att(236,1089).
att(233,1093).
att(235,1094).
att(422,701).
att(10,276).
att(116,1604).
att(2265,1633).
att(106,1588).
att(2223,2053).
att(2226,2051).
att(2219,1981).
att(2230,2173).
att(106,1606).
att(396,5).
att(417,65).
att(422,155).
att(2228,1532).
att(602,664).
att(260,1612).
att(2220,1607).
att(601,682).
att(375,1175).
att(342,1027).
att(374,1178).
att(413,65).
att(289,430).
att(321,995).
att(2255,934).
att(2263,1089).
att(373,1088).
att(423,71).
att(2227,1607).
att(105,470).
att(525,800).
att(2221,1504).
att(351,1116).
att(318,1020).
att(258,1645).
att(297,449).
att(2227,1568).
att(376,1170).
att(598,628).
att(257,1616).
att(260,1642).
att(2219,1504).
att(600,708).
att(254,1607).
att(2225,1627).
att(395,17).
att(419,107).
att(603,708).
att(606,696).
att(349,1168).
att(599,666).
att(2250,938).
att(2262,1120).
att(2268,1171).
att(2220,1643).
att(598,706).
att(2224,1611).
att(104,491).
att(297,478).
att(2252,1021).
att(180,1673).
att(395,36).
att(259,1604).
att(2257,1022).
att(259,1588).
att(2254,944).
att(2227,1645).
att(408,152).
att(421,107).
att(598,662).
att(256,1532).
att(376,1111).
att(602,713).
att(605,705).
att(352,1090).
att(374,1078).
att(2223,1630).
att(352,1074).
att(308,387).
att(2211,1464).
att(102,537).
att(607,729).
att(321,1078).
att(383,11).
att(234,1504).
att(123,2010).
att(322,1072).
att(397,79).
att(118,1939).
att(322,1078).
att(598,736).
att(2253,1048).
att(582,591).
att(388,55).
att(585,645).
att(295,542).
att(2222,1626).
att(318,1108).
att(2251,1000).
att(232,1558).
att(2251,997).
att(267,384).
att(2262,1174).
att(390,16).
att(2225,1675).
att(233,1556).
att(2262,1175).
att(273,382).
att(410,189).
att(2224,1676).
att(321,1095).
att(388,14).
att(408,213).
att(2219,1623).
att(2261,1175).
att(306,414).
att(2256,1067).
att(601,701).
att(2252,1000).
att(258,1651).
att(2255,1089).
att(258,1649).
att(600,800).
att(342,993).
att(2218,1602).
att(259,1650).
att(2250,1045).
att(388,76).
att(2150,942).
att(308,449).
att(235,1464).
att(308,454).
att(386,48).
att(318,1051).
att(2255,1093).
att(599,736).
att(580,592).
att(397,69).
att(2210,1566).
att(582,608).
att(586,625).
att(273,437).
att(342,1000).
att(373,1177).
att(598,731).
att(219,1560).
att(239,1458).
att(372,1172).
att(585,619).
att(185,1632).
att(393,83).
att(588,707).
att(2137,944).
att(362,5).
att(584,666).
att(267,455).
att(588,709).
att(588,713).
att(180,1601).
att(358,4).
att(187,1633).
att(2217,1626).
att(262,1139).
att(390,121).
att(187,1628).
att(2217,1616).
att(2253,1118).
att(2216,1584).
att(581,689).
att(588,658).
att(282,1091).
att(2149,934).
att(395,148).
att(588,669).
att(284,1073).
att(387,775).
att(2211,1604).
att(204,1718).
att(273,475).
att(583,678).
att(2258,1140).
att(183,1588).
att(273,473).
att(347,934).
att(580,685).
att(306,497).
att(179,1604).
att(364,8).
att(279,1088).
att(2145,930).
att(308,516).
att(352,940).
att(388,188).
att(280,1048).
att(280,1034).
att(301,510).
att(2145,1052).
att(279,1046).
att(2251,1173).
att(584,701).
att(273,497).
att(271,498).
att(580,701).
att(211,1720).
att(2249,1172).
att(280,1069).
att(2137,1020).
att(581,705).
att(2216,1616).
att(179,1468).
att(279,1065).
att(261,1110).
att(396,189).
att(583,704).
att(395,218).
att(2148,1068).
att(383,119).
att(370,60).
att(587,743).
att(589,740).
att(179,1560).
att(582,708).
att(356,26).
att(2256,1174).
att(375,1033).
att(581,729).
att(185,1725).
att(267,532).
att(581,723).
att(2280,1562).
att(254,1552).
att(258,1534).
att(2287,1504).
att(181,1726).
att(178,1649).
att(2148,1074).
att(2142,1110).
att(2134,1045).
att(2243,1939).
att(2282,1534).
att(571,645).
att(267,549).
att(364,80).
att(2209,1672).
att(356,44).
att(347,1047).
att(582,742).
att(267,554).
att(2145,1033).
att(581,744).
att(351,1031).
att(576,635).
att(255,1468).
att(2287,1564).
att(273,554).
att(2283,1564).
att(584,730).
att(578,615).
att(2150,1110).
att(258,1553).
att(259,1564).
att(575,651).
att(2142,1031).
att(183,1616).
att(2147,1146).
att(2248,1927).
att(179,1647).
att(2281,1589).
att(187,1681).
att(2145,1148).
att(183,1625).
att(281,1138).
att(187,1704).
att(2243,1972).
att(2111,942).
att(184,1624).
att(352,1066).
att(374,1052).
att(371,26).
att(2279,1607).
att(369,113).
att(2282,1569).
att(2282,1568).
att(2281,1603).
att(338,8).
att(2145,1091).
att(284,1116).
att(582,807).
att(180,1570).
att(364,70).
att(2137,1111).
att(2284,1604).
att(183,1643).
att(362,77).
att(262,1179).
att(2283,1528).
att(180,1586).
att(281,1143).
att(187,1626).
att(279,1116).
att(184,1645).
att(186,1623).
att(263,1179).
att(2134,1109).
att(179,1633).
att(2120,938).
att(282,1172).
att(2279,1535).
att(578,662).
att(2279,1534).
att(178,1647).
att(160,515).
att(2285,1033).
att(263,1559).
att(368,1959).
att(173,537).
att(172,529).
att(315,1674).
att(164,518).
att(177,398).
att(164,514).
att(334,1785).
att(2240,1560).
att(2286,1095).
att(2243,1534).
att(2246,1454).
att(310,1674).
att(2279,1069).
att(2282,1032).
att(263,1532).
att(176,403).
att(541,597).
att(2284,1066).
att(577,57).
att(134,398).
att(160,542).
att(573,17).
att(283,1464).
att(2287,1065).
att(427,1174).
att(134,418).
att(315,1704).
att(2244,1564).
att(2287,1033).
att(579,47).
att(340,1785).
att(211,2034).
att(543,592).
att(176,430).
att(201,2029).
att(370,1941).
att(547,651).
att(2210,1171).
att(2288,1049).
att(205,2092).
att(574,53).
att(136,426).
att(262,1552).
att(2288,1034).
att(207,2048).
att(326,1831).
att(129,407).
att(109,2167).
att(356,1936).
att(132,399).
att(2248,1532).
att(555,628).
att(427,1122).
att(2280,1093).
att(177,453).
att(429,1138).
att(215,2029).
att(576,155).
att(336,1821).
att(340,1844).
att(334,1814).
att(575,67).
att(326,1827).
att(2282,1071).
att(2277,936).
att(2282,1078).
att(575,70).
att(557,643).
att(2281,1045).
att(207,1981).
att(2248,1558).
att(356,1954).
att(402,1118).
att(400,1112).
att(2247,1552).
att(99,2104).
att(412,1175).
att(316,1628).
att(286,1627).
att(340,1813).
att(406,1122).
att(211,1981).
att(406,1120).
att(2240,1533).
att(2243,1589).
att(500,374).
att(2239,1504).
att(563,41).
att(2281,1170).
att(2281,1169).
att(2285,1113).
att(282,1646).
att(2288,1179).
att(577,117).
att(570,155).
att(185,2050).
att(561,8).
att(576,208).
att(262,1623).
att(263,1609).
att(2280,1118).
att(203,2171).
att(564,41).
att(279,1644).
att(282,1608).
att(2288,1174).
att(263,1612).
att(566,32).
att(358,1984).
att(136,496).
att(2279,1077).
att(202,2155).
att(540,682).
att(204,2153).
att(330,1812).
att(362,2003).
att(204,2152).
att(261,1646).
att(281,1606).
att(283,1587).
att(2287,1169).
att(568,39).
att(2275,1018).
att(217,2185).
att(2240,1581).
att(177,515).
att(285,1570).
att(2283,1144).
att(184,2010).
att(2239,1583).
att(282,1628).
att(127,492).
att(312,1718).
att(2273,1065).
att(569,51).
att(557,702).
att(311,1718).
att(175,539).
att(2276,1065).
att(211,2126).
att(2248,1616).
att(143,389).
att(337,1877).
att(561,17).
att(565,62).
att(263,1569).
att(2241,1656).
att(183,1926).
att(204,2070).
att(2233,1566).
att(568,52).
att(178,1937).
att(526,647).
att(569,43).
att(2232,1462).
att(209,2057).
att(557,712).
att(332,1835).
att(555,704).
att(569,61).
att(557,713).
att(202,2094).
att(332,1839).
att(142,401).
att(283,1530).
att(330,1832).
att(577,213).
att(545,703).
att(573,124).
att(2244,1704).
att(2234,1466).
att(568,57).
att(261,1602).
att(336,1905).
att(334,1901).
att(2283,1175).
att(202,2057).
att(547,739).
att(201,2074).
att(310,1719).
att(547,742).
att(424,996).
att(234,1616).
att(557,727).
att(2236,1588).
att(2277,1073).
att(143,430).
att(2277,1072).
att(85,378).
att(118,2014).
att(528,692).
att(425,994).
att(2234,1528).
att(429,998).
att(146,426).
att(219,1648).
att(427,996).
att(146,435).
att(287,1558).
att(415,1049).
att(523,625).
att(145,426).
att(127,551).
att(404,1066).
att(326,1872).
att(2273,1045).
att(555,736).
att(109,1978).
att(132,556).
att(345,1114).
att(524,635).
att(111,1978).
att(429,1004).
att(235,1646).
att(341,1928).
att(118,2053).
att(321,1180).
att(322,1176).
att(564,47).
att(568,79).
att(564,45).
att(544,777).
att(543,727).
att(87,434).
att(400,1023).
att(2238,1601).
att(422,26).
att(521,671).
att(109,1996).
att(2273,1140).
att(404,1029).
att(416,3).
att(2264,1029).
att(235,1587).
att(561,151).
att(116,1972).
att(427,934).
att(2272,1146).
att(232,1633).
att(2263,944).
att(406,1004).
att(143,493).
att(2236,1584).
att(2270,1107).
att(2236,1569).
att(569,152).
att(236,1587).
att(525,689).
att(555,800).
att(555,796).
att(111,1929).
att(524,669).
att(568,151).
att(2233,1587).
att(99,1929).
att(93,492).
att(123,1982).
att(114,2124).
att(202,1927).
att(314,1586).
att(2235,1704).
att(202,1937).
att(123,2173).
att(316,1569).
att(2237,1647).
att(2234,1703).
att(424,1144).
att(415,1138).
att(561,188).
att(406,1170).
att(607,632).
att(116,2128).
att(2266,1000).
att(315,1589).
att(102,381).
att(233,1720).
att(2268,993).
att(419,41).
att(521,713).
att(2262,1004).
att(118,2128).
att(560,155).
att(109,2071).
att(146,532).
att(2273,1122).
att(524,704).
att(429,1095).
att(404,1074).
att(201,1931).
att(110,401).
att(287,1570).
att(419,32).
att(2225,1529).
att(2225,1528).
att(91,539).
att(523,730).
att(535,737).
att(102,399).
att(535,736).
att(112,2070).
att(143,559).
att(427,1047).
att(602,608).
att(599,590).
att(97,531).
att(311,1553).
att(2227,1535).
att(528,803).
att(95,536).
att(408,45).
att(286,1604).
att(598,651).
att(2220,1560).
att(2264,1095).
att(400,1077).
att(112,2131).
att(2267,1108).
att(416,52).
att(2229,1672).
att(2230,1653).
att(238,1653).
att(424,1070).
att(102,430).
att(410,11).
att(422,47).
att(2235,1651).
att(2238,1624).
att(234,1702).
att(422,48).
att(427,1069).
att(232,1673).
att(2229,1705).
att(310,1560).
att(295,428).
att(2233,1656).
att(232,1648).
att(429,1070).
att(2251,312).
att(251,2071).
att(222,659).
att(234,1929).
att(259,2123).
att(252,616).
att(344,1602).
att(344,1601).
att(319,1570).
att(2217,822).
att(322,1568).
att(2214,847).
att(346,1604).
att(24,751).
att(232,2010).
att(249,642).
att(253,2122).
att(2212,774).
att(2252,315).
att(255,2056).
att(376,1721).
att(2255,315).
att(225,753).
att(251,2089).
att(219,1924).
att(252,650).
att(2254,235).
att(252,642).
att(377,1721).
att(318,1601).
att(2213,794).
att(376,1725).
att(2221,1008).
att(321,1600).
att(249,660).
att(224,681).
att(257,2101).
att(2219,909).
att(2255,311).
att(88,92).
att(2251,373).
att(254,2079).
att(2258,346).
att(377,1655).
att(247,655).
att(259,2057).
att(258,2075).
att(2257,346).
att(377,1650).
att(351,1720).
att(259,2074).
att(372,1673).
att(2249,349).
att(352,1736).
att(221,861).
att(374,1721).
att(343,1460).
att(253,2030).
att(2148,99).
att(246,674).
att(89,130).
att(2249,281).
att(2250,261).
att(372,1676).
att(2149,111).
att(2212,866).
att(424,1458).
att(343,1705).
att(23,858).
att(2149,260).
att(402,1554).
att(2218,974).
att(238,2079).
att(400,1553).
att(400,1552).
att(2148,253).
att(429,1466).
att(2288,793).
att(2217,945).
att(238,2089).
att(2288,801).
att(235,2015).
att(318,1725).
att(2249,415).
att(400,1466).
att(2215,867).
att(228,853).
att(2255,424).
att(342,1643).
att(321,1675).
att(2210,819).
att(291,165).
att(327,1656).
att(2137,235).
att(236,2048).
att(232,1978).
att(2287,769).
att(2211,937).
att(2212,906).
att(226,926).
att(234,1981).
att(2211,908).
att(231,889).
att(231,875).
att(2243,1281).
att(2210,908).
att(2213,1026).
att(228,924).
att(2245,1286).
att(251,2173).
att(344,1584).
att(247,612).
att(2280,726).
att(230,877).
att(2215,908).
att(2143,253).
att(223,614).
att(233,1996).
att(345,1568).
att(2142,251).
att(224,640).
att(227,969).
att(2134,250).
att(2142,239).
att(2217,1030).
att(327,1626).
att(228,913).
att(284,1723).
att(2145,377).
att(182,2073).
att(243,688).
att(2247,1278).
att(2284,827).
att(2149,377).
att(258,1931).
att(243,653).
att(2283,846).
att(279,1726).
att(2243,1307).
att(2286,903).
att(277,631).
att(2142,351).
att(2239,1328).
att(2279,845).
att(2285,822).
att(242,679).
att(283,1650).
att(242,674).
att(261,1721).
att(2137,287).
att(277,684).
att(374,1504).
att(2145,404).
att(2280,899).
att(347,1553).
att(126,139).
att(187,2093).
att(2111,181).
att(184,2034).
att(181,2094).
att(377,1462).
att(2147,424).
att(2147,404).
att(2119,201).
att(182,2052).
att(2137,376).
att(2113,114).
att(130,158).
att(2143,374).
att(2244,1370).
att(131,167).
att(244,883).
att(262,1704).
att(2148,402).
att(242,929).
att(2120,184).
att(2109,118).
att(279,1609).
att(180,2185).
att(180,2169).
att(2106,259).
att(2119,233).
att(84,169).
att(222,877).
att(258,2029).
att(2244,1420).
att(2240,1342).
att(251,1972).
att(260,2033).
att(2118,314).
att(260,2031).
att(2278,775).
att(2115,235).
att(373,1587).
att(2273,726).
att(2106,187).
att(2119,254).
att(220,969).
att(258,2047).
att(2244,1343).
att(2247,1369).
att(2111,180).
att(2286,975).
att(2271,728).
att(2275,806).
att(2286,947).
att(2117,251).
att(2282,974).
att(2274,720).
att(2277,786).
att(179,2170).
att(2278,806).
att(2106,180).
att(246,922).
att(254,2000).
att(179,2154).
att(187,2171).
att(2248,1372).
att(375,1586).
att(2233,1328).
att(2244,1432).
att(223,953).
att(242,648).
att(2117,279).
att(2278,828).
att(249,967).
att(224,965).
att(248,913).
att(242,610).
att(2109,317).
att(2232,1287).
att(2277,822).
att(275,610).
att(2246,1426).
att(254,1937).
att(374,1600).
att(2106,238).
att(276,646).
att(241,665).
att(277,620).
att(254,1931).
att(241,681).
att(223,750).
att(242,668).
att(2283,1002).
att(374,1570).
att(248,956).
att(2235,1282).
att(2273,768).
att(2248,1421).
att(312,2167).
att(2109,2078).
att(304,679).
att(311,2170).
att(181,112).
att(2119,2074).
att(31,1301).
att(312,2169).
att(272,674).
att(31,1316).
att(2229,716).
att(40,1292).
att(2243,943).
att(2274,254).
att(2277,229).
att(2277,235).
att(2109,2095).
att(35,1314).
att(279,2002).
att(304,863).
att(316,2186).
att(29,1309).
att(270,852).
att(2247,904).
att(272,857).
att(2275,259).
att(40,1322).
att(2243,979).
att(2271,185).
att(2278,253).
att(33,1224).
att(2273,180).
att(2273,179).
att(270,929).
att(279,1925).
att(2117,2107).
att(302,889).
att(2277,263).
att(29,1223).
att(2119,2123).
att(265,929).
att(10,1235).
att(2121,2170).
att(285,2002).
att(2278,263).
att(40,1224).
att(285,2012).
att(2270,233).
att(291,627).
att(37,1240).
att(171,169).
att(302,881).
att(2234,794).
att(312,2070).
att(29,1234).
att(29,1251).
att(282,1926).
att(265,953).
att(272,916).
att(284,1923).
att(313,2071).
att(2272,237).
att(294,626).
att(316,2151).
att(2111,2152).
att(2240,943).
att(33,1254).
att(286,2101).
att(2271,239).
att(429,1726).
att(314,2101).
att(264,764).
att(262,1998).
att(263,2008).
att(314,2104).
att(2277,312).
att(40,1236).
att(2117,2130).
att(264,959).
att(2115,2151).
att(2232,797).
att(261,2107).
att(2273,377).
att(137,174).
att(2235,904).
att(265,624).
att(281,2070).
att(275,875).
att(276,881).
att(281,2058).
att(376,1924).
att(241,956).
att(263,2104).
att(2271,373).
att(277,875).
att(2271,347).
att(2274,263).
att(275,914).
att(280,2079).
att(2115,2173).
att(2119,2170).
att(243,951).
att(268,650).
att(2230,848).
att(2275,351).
att(280,2056).
att(2278,372).
att(244,951).
att(304,644).
att(2227,715).
att(2231,868).
att(2265,178).
att(276,959).
att(243,753).
att(2261,202).
att(275,953).
att(180,205).
att(2276,425).
att(2272,346).
att(272,634).
att(2260,181).
att(2264,257).
att(2232,867).
att(2277,429).
att(2278,415).
att(2265,203).
att(2277,402).
att(276,755).
att(2269,374).
att(276,748).
att(2234,905).
att(183,202).
att(262,2092).
att(278,761).
att(233,2101).
att(316,1980).
att(2228,728).
att(27,1509).
att(313,2002).
att(313,2000).
att(215,116).
att(292,929).
att(2267,310).
att(230,1227).
att(314,2004).
att(22,1233).
att(2225,797).
att(2235,935).
att(2238,867).
att(2235,947).
att(35,1511).
att(2270,412).
att(2268,219).
att(37,1517).
att(234,2130).
att(2234,979).
att(2219,720).
att(86,616).
att(22,1252).
att(300,879).
att(406,1587).
att(22,1251).
att(88,616).
att(290,959).
att(237,2138).
att(101,881).
att(103,879).
att(2257,108).
att(346,1721).
att(2264,281).
att(92,624).
att(2261,261).
att(236,2101).
att(288,764).
att(228,1253).
att(2219,847).
att(94,624).
att(229,2072).
att(2228,794).
att(226,1270).
att(290,750).
att(298,969).
att(2261,234).
att(424,1553).
att(427,1553).
att(427,1559).
att(2230,1019).
att(235,2095).
att(300,963).
att(239,2056).
att(2260,317).
att(2226,841).
att(2219,776).
att(98,610).
att(236,2126).
att(88,657).
att(429,1566).
att(311,2089).
att(29,1266).
att(2263,327).
att(311,2078).
att(298,620).
att(2259,375).
att(10,1268).
att(402,1720).
att(2265,344).
att(292,644).
att(2250,112).
att(291,609).
att(315,2073).
att(266,759).
att(300,640).
att(2256,184).
att(2260,346).
att(288,631).
att(2251,114).
att(402,1653).
att(29,1451).
att(310,2029).
att(27,1261).
att(2221,822).
att(203,211).
att(2254,123).
att(2268,322).
att(311,2029).
att(2224,821).
att(292,679).
att(313,2027).
att(317,2079).
att(2252,111).
att(274,757).
att(33,1256).
att(290,684).
att(2211,720).
att(315,2014).
att(424,1625).
att(404,1675).
att(2254,258).
att(25,1303).
att(412,1673).
att(2228,949).
att(406,1675).
att(2223,937).
att(429,1609).
att(2220,976).
att(10,1477).
att(300,684).
att(412,1655).
att(2255,229).
att(103,686).
att(2225,974).
att(234,2173).
att(2226,948).
att(2262,429).
att(2263,415).
att(2221,870).
att(24,1314).
att(292,863).
att(2259,321).
att(234,2169).
att(2259,318).
att(2249,184).
att(406,1616).
att(209,118).
att(228,1288).
att(25,1310).
att(2222,869).
att(318,2073).
att(226,101).
att(229,203).
att(238,257).
att(2214,123).
att(2253,2028).
att(2213,209).
att(321,2073).
att(345,2094).
att(2216,201).
att(2219,376).
att(2252,2048).
att(412,1927).
att(2222,284).
att(2227,373).
att(230,294).
att(2254,1980).
att(2254,1979).
att(2213,108).
att(2228,263).
att(2253,2055).
att(231,94).
att(345,2028).
att(234,209).
att(2216,108).
att(322,2090).
att(327,2073).
att(327,2059).
att(342,2031).
att(2226,373).
att(2255,2049).
att(23,169).
att(2255,2059).
att(22,163).
att(2218,253).
att(231,96).
att(321,2028).
att(2150,1923).
att(227,139).
att(375,2168).
att(374,2186).
att(220,246).
att(376,2169).
att(2217,180).
att(2210,207).
att(2228,321).
att(2253,2089).
att(2228,319).
att(237,111).
att(2256,2091).
att(2209,215).
att(239,123).
att(314,118).
att(424,1980).
att(2210,251).
att(2150,1971).
att(346,2185).
att(2257,2168).
att(317,109).
att(2150,1979).
att(2257,2171).
att(25,221).
att(2249,2126).
att(415,1978).
att(415,1982).
att(2214,253).
att(35,161).
att(2210,184).
att(2214,260).
att(25,277).
att(227,222).
att(2249,2071).
att(429,1998).
att(22,277).
att(2209,259).
att(2252,2075).
att(22,265).
att(2252,2169).
att(2137,1979).
att(2148,2050).
att(2254,2186).
att(2217,342).
att(2250,2186).
att(2288,203).
att(2282,112).
att(427,1937).
att(2134,1979).
att(25,268).
att(343,2071).
att(415,1933).
att(2251,2123).
att(2215,263).
att(319,2128).
att(2150,2051).
att(2288,108).
att(321,2153).
att(345,2070).
att(2214,261).
att(2210,314).
att(234,255).
att(322,2155).
att(2256,2186).
att(322,2153).
att(235,250).
att(2140,2008).
att(2216,406).
att(2137,2028).
att(2149,2079).
att(258,181).
att(2211,322).
att(257,180).
att(347,2091).
att(2286,254).
att(2243,716).
att(223,139).
att(2142,2076).
att(224,141).
att(2213,402).
att(256,201).
att(2287,203).
att(247,141).
att(254,109).
att(2143,2048).
att(258,217).
att(254,116).
att(2211,349).
att(352,2014).
att(2148,2079).
att(2214,322).
att(2217,404).
att(223,157).
att(260,207).
att(2284,239).
att(247,161).
att(2287,238).
att(283,2187).
att(351,2049).
att(2286,287).
att(2142,2130).
att(2239,795).
att(372,1980).
att(2288,287).
att(283,2096).
att(372,1933).
att(2137,2079).
att(2211,402).
att(241,272).
att(2142,2071).
att(2243,792).
att(377,2008).
att(263,2174).
att(376,2004).
att(2282,257).
att(279,2123).
att(263,2187).
att(2284,281).
att(2285,263).
att(247,248).
att(373,2128).
att(344,1996).
att(2149,2170).
att(223,245).
att(345,2000).
att(2283,261).
att(2134,2125).
att(2117,1981).
att(321,1977).
att(2120,2052).
att(2140,2123).
att(2277,112).
att(375,2152).
att(2106,1929).
att(2285,286).
att(343,1939).
att(373,2057).
att(223,270).
att(2121,1971).
att(248,243).
att(224,302).
att(2148,2173).
att(2286,262).
att(2134,2153).
att(2245,845).
att(2288,284).
att(2279,238).
att(2279,219).
att(2281,377).
att(2285,322).
att(221,296).
att(375,2058).
att(251,181).
att(2248,826).
att(2272,111).
att(318,1933).
att(2244,871).
att(251,257).
att(372,2075).
att(374,2130).
att(2270,111).
att(374,2128).
att(2245,866).
att(2273,203).
att(2239,874).
att(2247,842).
att(2113,1982).
att(247,296).
att(224,86).
att(2248,842).
att(2281,280).
att(283,314).
att(2245,263).
att(2279,2138).
att(280,237).
att(337,658).
att(338,669).
att(2241,316).
att(276,133).
att(2287,2101).
att(263,262).
att(2111,1569).
att(245,171).
att(277,133).
att(371,704).
att(2270,1925).
att(2279,2131).
att(326,685).
att(275,174).
att(358,777).
att(371,670).
att(2119,1603).
att(2113,1531).
att(2281,2057).
att(332,628).
att(29,734).
att(362,777).
att(285,236).
att(2283,2128).
att(2121,1586).
att(277,167).
att(2277,2004).
att(2109,1533).
att(2274,2052).
att(2277,2015).
att(283,255).
att(2276,2048).
att(2233,109).
att(2244,343).
att(2243,344).
att(2279,2187).
att(520,1424).
att(2270,1971).
att(334,700).
att(2120,1702).
att(27,659).
att(2279,2107).
att(326,669).
att(2246,286).
att(284,185).
att(2241,285).
att(283,187).
att(2244,285).
att(341,694).
att(262,257).
att(285,180).
att(279,186).
att(2120,1623).
att(264,296).
att(2120,1625).
att(264,294).
att(334,733).
att(338,729).
att(2246,321).
att(2235,260).
att(2270,2031).
att(352,178).
att(337,717).
att(2248,322).
att(2119,1649).
att(2276,2093).
att(347,254).
att(2241,400).
att(2234,259).
att(2113,1649).
att(2118,1736).
att(2111,1650).
att(372,186).
att(2275,2056).
att(2278,2075).
att(241,292).
att(326,736).
att(2236,259).
att(242,292).
att(2235,184).
att(2106,1623).
att(2238,112).
att(332,698).
att(332,702).
att(2113,1624).
att(276,270).
att(374,201).
att(341,729).
att(2276,2076).
att(2272,2031).
att(349,178).
att(2244,404).
att(341,732).
att(349,182).
att(2240,322).
att(2275,2076).
att(372,215).
att(340,725).
att(2240,318).
att(336,742).
att(2278,2093).
att(2270,2051).
att(2274,2034).
att(2278,2104).
att(349,215).
att(2231,237).
att(2276,2153).
att(2230,250).
att(2276,2152).
att(376,108).
att(2276,2098).
att(241,141).
att(277,292).
att(2274,2151).
att(2232,258).
att(2231,255).
att(275,92).
att(2234,251).
att(351,112).
att(2230,253).
att(330,777).
att(2274,2071).
att(2268,2048).
att(29,916).
att(2269,2124).
att(2264,2055).
att(310,239).
att(424,2130).
att(2226,118).
att(2230,261).
att(22,646).
att(228,612).
att(400,2059).
att(230,734).
att(312,182).
att(404,2057).
att(402,2058).
att(2237,237).
att(10,755).
att(37,957).
att(286,232).
att(2263,1996).
att(225,648).
att(2233,262).
att(2225,183).
att(2221,202).
att(2225,187).
att(2259,2049).
att(2231,346).
att(402,2094).
att(2231,318).
att(412,2072).
att(2224,185).
att(2226,180).
att(31,750).
att(317,178).
att(2222,203).
att(2267,2094).
att(287,260).
att(2222,209).
att(2236,427).
att(2229,349).
att(2262,2055).
att(231,657).
att(2227,207).
att(227,668).
att(2231,349).
att(2265,2052).
att(25,677).
att(2258,1924).
att(2225,232).
att(2263,2056).
att(272,294).
att(33,681).
att(263,182).
att(266,88).
att(2260,2059).
att(27,677).
att(2229,402).
att(268,94).
att(2232,412).
att(270,88).
att(33,865).
att(429,2174).
att(272,84).
att(400,2187).
att(2258,1971).
att(302,94).
att(2263,2104).
att(429,2104).
att(2259,2152).
att(2250,1931).
att(402,2170).
att(2227,282).
att(272,137).
att(429,2124).
att(2252,2006).
att(424,2171).
att(2263,2123).
att(2266,2123).
att(311,237).
att(2221,229).
att(302,131).
att(268,163).
att(2257,2012).
att(272,167).
att(2219,234).
att(2263,2151).
att(2143,1304).
att(2254,1563).
att(2285,1787).
att(363,534).
att(425,108).
att(429,118).
att(2137,1289).
att(2212,1868).
att(404,211).
att(323,391).
att(329,403).
att(2215,1874).
att(363,548).
att(2218,1871).
att(2142,1321).
att(325,381).
att(339,428).
att(2288,1795).
att(339,431).
att(2256,1565).
att(353,554).
att(318,285).
att(2212,1910).
att(335,434).
att(355,559).
att(2245,6).
att(2288,1847).
att(2145,1425).
att(2281,1831).
att(2212,1932).
att(2216,2009).
att(2215,1934).
att(327,313).
att(328,433).
att(2134,1368).
att(2147,1346).
att(2137,1364).
att(323,458).
att(424,237).
att(2280,1851).
att(2148,1502).
att(2111,1285).
att(2243,20).
att(2140,1394).
att(2284,1834).
att(2140,1396).
att(2241,26).
att(323,480).
att(2241,8).
att(2287,1846).
att(415,239).
att(2148,1392).
att(2239,8).
att(2134,1427).
att(2209,2013).
att(2242,6).
att(2241,1).
att(2281,1819).
att(2242,59).
att(2241,57).
att(2137,1461).
att(2137,1465).
att(320,496).
att(415,219).
att(2242,62).
att(404,256).
att(2242,60).
att(2281,1836).
att(406,203).
att(2149,1471).
att(2244,15).
att(2148,1463).
att(2243,11).
att(2117,1311).
att(339,552).
att(2142,1469).
att(2109,1278).
att(339,559).
att(425,202).
att(2106,1281).
att(2271,1785).
att(507,409).
att(327,99).
att(324,549).
att(2243,66).
att(319,114).
att(2270,1797).
att(508,435).
att(2288,2011).
att(2270,1793).
att(505,437).
att(2113,1298).
att(2287,1955).
att(320,550).
att(373,233).
att(502,398).
att(2111,1371).
att(2109,1298).
att(2245,74).
att(2117,1371).
att(501,431).
att(377,311).
att(2120,1472).
att(2242,156).
att(376,219).
att(2233,1).
att(2240,64).
att(2274,1843).
att(2235,28).
att(2236,41).
att(2274,1849).
att(2274,1848).
att(2246,67).
att(373,187).
att(372,179).
att(503,452).
att(2269,1830).
att(2272,1823).
att(2284,2007).
att(507,474).
att(349,236).
att(2247,82).
att(2271,1828).
att(2236,21).
att(376,255).
att(2121,1398).
att(2115,1425).
att(352,237).
att(2106,1499).
att(2237,30).
att(2115,1465).
att(2119,1463).
att(504,497).
att(2241,189).
att(2278,1868).
att(508,518).
att(398,149).
att(505,520).
att(499,493).
att(503,492).
att(504,512).
att(2244,107).
att(503,498).
att(502,496).
att(506,522).
att(508,537).
att(501,512).
att(2278,1904).
att(505,534).
att(322,254).
att(346,183).
att(2238,6).
att(327,179).
att(504,542).
att(2269,1870).
att(2276,1957).
att(488,409).
att(2235,76).
att(2270,1872).
att(2277,1960).
att(503,530).
att(2106,1471).
att(2234,53).
att(482,382).
att(2271,1901).
att(2233,51).
att(2267,1795).
att(2275,1958).
att(2274,1868).
att(2231,54).
att(2232,61).
att(2277,1471).
att(2237,1846).
att(2106,1026).
att(2267,1317).
att(2266,1319).
att(2232,1838).
att(2115,1005).
att(2237,1815).
att(2234,1843).
att(2229,1842).
att(2236,1833).
att(2246,2001).
att(2237,1903).
att(2272,1471).
att(2262,1289).
att(2259,1283).
att(2264,1311).
att(2267,1300).
att(2272,1465).
att(2229,1901).
att(2236,1868).
att(2236,1870).
att(2270,1499).
att(2231,1934).
att(2262,1350).
att(2268,1423).
att(2224,1822).
att(2259,1367).
att(2265,1346).
att(2237,1956).
att(2264,1347).
att(2230,1957).
att(2230,1940).
att(2264,1426).
att(2227,1828).
att(2261,1289).
att(2264,1365).
att(2224,1799).
att(2230,1873).
att(2229,1957).
att(2267,1349).
att(2229,1958).
att(2265,1394).
att(2256,1281).
att(2264,1500).
att(2264,1424).
att(2260,1421).
att(2230,2011).
att(2230,2009).
att(2263,1420).
att(2255,1308).
att(2225,1871).
att(2228,1835).
att(2228,1840).
att(2249,1278).
att(2220,1905).
att(2220,1909).
att(2256,1307).
att(2255,1300).
att(2256,1302).
att(424,404).
att(2255,1296).
att(2262,1497).
att(400,321).
att(2221,1837).
att(2262,1501).
att(361,391).
att(2224,1907).
att(2264,1471).
att(361,398).
att(2260,1473).
att(2267,1432).
att(406,343).
att(361,414).
att(2225,1930).
att(2225,1936).
att(415,377).
att(359,414).
att(2227,1928).
att(2254,1371).
att(365,407).
att(2257,1344).
att(2213,1797).
att(2216,1823).
att(2213,1829).
att(2256,1341).
att(424,351).
att(348,384).
att(406,375).
att(415,319).
att(2263,1561).
att(359,435).
att(415,281).
att(424,314).
att(402,285).
att(2262,1537).
att(425,310).
att(2253,1307).
att(2223,1961).
att(353,431).
att(2211,1820).
att(353,434).
att(2214,1814).
att(2254,1428).
att(2220,2001).
att(2217,1840).
att(2249,1429).
att(2253,1372).
att(348,431).
att(2219,2003).
att(2256,1391).
att(2252,1424).
att(354,453).
att(359,471).
att(2219,2009).
att(2252,1429).
att(2225,2001).
att(353,460).
att(2228,1957).
att(2228,1955).
att(2214,1830).
att(2228,1911).
att(2253,1428).
att(2249,1349).
att(2216,1814).
att(2215,1815).
att(357,470).
att(2143,1279).
att(2211,1833).
att(2215,1908).
att(2211,1836).
att(2142,1286).
att(363,493).
att(353,500).
att(2217,1834).
att(2254,1398).
att(363,510).
att(2253,1393).
att(2257,1502).
att(2216,1839).
att(2216,1840).
att(2211,1342).
att(2211,1346).
att(2142,715).
att(2213,1423).
att(2213,1429).
att(2253,908).
att(2252,975).
att(2214,1363).
att(2254,872).
att(2213,1341).
att(2150,799).
att(2213,1349).
att(2253,949).
att(2209,1371).
att(2255,973).
att(2215,1473).
att(2140,773).
att(2147,848).
att(2284,1284).
att(2284,1283).
att(2256,1001).
att(2212,1428).
att(2148,770).
att(2250,975).
att(2253,1019).
att(2147,774).
att(2217,1472).
att(2209,1427).
att(2149,901).
att(2215,1539).
att(2218,1555).
att(2218,1565).
att(2148,898).
att(2211,1431).
att(2210,1461).
att(2245,1787).
att(2134,828).
att(2142,874).
att(2209,1459).
att(2140,826).
att(2218,1459).
att(2142,842).
att(2288,1294).
att(2210,1501).
att(2137,866).
att(2287,1342).
att(2287,1341).
att(2148,975).
att(2240,1795).
att(2239,1828).
att(2148,907).
att(2147,979).
att(2288,1429).
att(2242,1827).
att(2147,950).
att(2284,1368).
att(2244,1789).
att(2149,867).
att(2286,1364).
att(2210,1555).
att(2279,1298).
att(2150,949).
att(2288,1349).
att(2242,1799).
att(2149,1028).
att(2111,794).
att(2246,1816).
att(2147,1024).
att(2106,793).
att(2147,906).
att(2281,1348).
att(2244,1813).
att(2239,1820).
att(2285,1421).
att(2241,1903).
att(2244,1876).
att(2278,1289).
att(2270,1284).
att(2120,898).
att(2279,1472).
att(2281,1398).
att(2106,771).
att(2248,1847).
att(2284,1472).
att(2137,1002).
att(2271,1285).
att(2288,1463).
att(2246,1875).
att(2269,1300).
att(2281,1555).
att(2242,1959).
att(2272,1296).
att(2111,866).
att(2278,1344).
att(2239,1961).
att(2246,1872).
att(2117,870).
att(2239,1959).
att(2273,1365).
att(2285,1538).
att(2106,821).
att(2244,1870).
att(2118,851).
att(2233,1799).
att(2240,1877).
att(2239,1871).
att(2279,1471).
att(2239,1876).
att(2274,1302).
att(2274,1308).
att(2242,1872).
att(2246,1909).
att(2277,1396).
att(2237,1828).
att(2248,1940).
att(2113,907).
att(2240,2009).
att(2121,1008).
att(2246,1928).
att(2269,1365).
att(2248,1957).
att(2269,1362).
att(2118,974).
att(2244,2009).
att(2121,945).
att(2238,1789).
att(2236,1820).
att(2120,943).
att(2248,1432).
att(2272,820).
att(2118,345).
att(2233,1363).
att(2276,850).
att(2246,1463).
att(2109,376).
att(2117,347).
att(2106,280).
att(2118,344).
att(2111,376).
att(2278,898).
att(2274,827).
att(2273,979).
att(2235,1428).
att(2269,868).
att(2230,1365).
att(2234,1345).
att(2264,797).
att(2277,935).
att(2117,412).
att(2237,1296).
att(2248,1565).
att(2277,948).
att(2115,415).
att(2230,1298).
att(2113,415).
att(2267,726).
att(2278,975).
att(2275,949).
att(2278,948).
att(2270,941).
att(2235,1501).
att(2234,1391).
att(2267,845).
att(2268,774).
att(2270,977).
att(2234,1395).
att(2229,1425).
att(2278,1024).
att(2236,1397).
att(2235,1390).
att(2231,1471).
att(2237,1496).
att(2223,1307).
att(2223,1304).
att(2267,894).
att(2263,820).
att(2222,1319).
att(2225,1296).
att(2259,769).
att(2235,1465).
att(2270,1002).
att(2264,842).
att(2233,1431).
att(2229,1472).
att(2221,1363).
att(2258,724).
att(2237,1557).
att(2264,869).
att(2264,978).
att(2255,722).
att(2225,1371).
att(2227,1367).
att(2268,871).
att(2261,821).
att(2264,850).
att(2219,1304).
att(2225,1393).
att(2221,1420).
att(2225,1396).
att(2259,973).
att(2262,908).
att(2228,1345).
att(2257,776).
att(2261,941).
att(2260,937).
att(2222,1420).
att(2252,795).
att(2257,793).
att(2252,714).
att(2264,909).
att(2219,1348).
att(2259,1026).
att(2214,1285).
att(2223,1431).
att(2221,1394).
att(2227,1499).
att(2225,1472).
att(2252,770).
att(2255,844).
att(2211,1308).
att(2217,1363).
att(2212,1300).
att(2256,873).
att(2254,819).
att(2254,827).
att(2217,1294).
att(2257,898).
att(2221,1430).
att(2211,1311).
att(2145,156).
att(2280,689).
att(2119,5).
att(2143,64).
att(715,1098).
att(2134,67).
att(714,1093).
att(2120,36).
att(2115,8).
att(2145,148).
att(722,1141).
att(2137,63).
att(716,1093).
att(2140,80).
att(715,1048).
att(2145,188).
att(2121,13).
att(721,1054).
att(2283,712).
att(2142,119).
att(2286,701).
att(716,1034).
att(2121,61).
att(2285,702).
att(724,1067).
att(2117,3).
att(2282,666).
att(2117,34).
att(718,1052).
att(2285,711).
att(2145,115).
att(2118,48).
att(2121,47).
att(2274,608).
att(2271,643).
att(715,1177).
att(794,994).
att(799,1066).
att(2279,743).
att(806,1046).
att(2113,16).
att(2275,632).
att(2137,188).
att(2287,742).
att(2121,51).
att(716,1172).
att(2117,60).
att(2106,12).
att(718,1172).
att(790,997).
att(806,1070).
att(797,1004).
att(728,1112).
att(793,934).
att(2275,669).
att(794,930).
att(714,1168).
att(2274,678).
att(806,993).
att(720,1088).
att(724,1168).
att(2284,805).
att(797,936).
att(722,1122).
att(2282,802).
att(714,1088).
att(2279,719).
att(714,1073).
att(2278,692).
att(722,1139).
att(806,1022).
att(2273,623).
att(2119,117).
att(2117,107).
att(2274,707).
att(2273,671).
att(2271,672).
att(2121,120).
att(2113,216).
att(2275,723).
att(2263,596).
att(2109,212).
att(2262,591).
att(2262,596).
att(2276,698).
att(2273,798).
att(2265,629).
att(720,1020).
att(722,1070).
att(2274,730).
att(721,944).
att(2260,643).
att(2262,608).
att(2263,651).
att(2274,729).
att(2266,629).
att(2263,658).
att(2267,709).
att(728,939).
att(2268,671).
att(2264,690).
att(2267,667).
att(2267,672).
att(2263,685).
att(1915,530).
att(2259,57).
att(1916,537).
att(2238,740).
att(2265,43).
att(844,1023).
att(840,931).
att(1920,399).
att(2228,595).
att(1912,516).
att(2259,59).
att(2231,731).
att(2223,621).
att(2234,805).
att(1952,554).
att(2230,730).
att(774,1115).
att(1951,550).
att(1891,387).
att(1891,380).
att(843,981).
att(2236,796).
att(772,1179).
att(771,1171).
att(2270,218).
att(2238,703).
att(2267,44).
att(1891,399).
att(1893,411).
att(2225,608).
att(2267,48).
att(2227,608).
att(2227,641).
att(2259,76).
att(1919,453).
att(2257,9).
att(847,936).
att(2220,692).
att(2223,664).
att(848,946).
att(2226,672).
att(2255,7).
att(2226,670).
att(1920,474).
att(1887,458).
att(2231,807).
att(767,1109).
att(2262,115).
att(842,1032).
att(1889,480).
att(2249,4).
att(840,1095).
att(2261,120).
att(2260,121).
att(2263,119).
att(2226,699).
att(843,1074).
att(841,1068).
att(1893,492).
att(2257,34).
att(2265,153).
att(2220,670).
att(2256,38).
att(2255,32).
att(2219,662).
att(2255,26).
att(1889,514).
att(843,1094).
att(1881,496).
att(842,980).
att(1919,530).
att(1893,511).
att(1922,530).
att(1894,382).
att(2255,43).
att(2252,55).
att(2222,735).
att(1861,379).
att(2253,12).
att(1919,554).
att(1859,391).
att(2260,213).
att(2226,742).
att(2218,682).
att(2258,69).
att(2214,615).
att(2254,81).
att(2224,796).
att(2213,623).
att(2224,807).
att(776,1025).
att(775,1022).
att(2219,802).
att(773,938).
att(1883,549).
att(767,946).
att(1855,407).
att(2217,615).
att(2254,51).
att(806,1146).
att(2224,719).
att(2228,744).
att(1894,455).
att(1863,428).
att(2249,52).
att(1897,452).
att(2222,727).
att(2211,666).
att(794,1048).
att(2257,115).
att(2209,682).
att(2213,706).
att(2140,3).
att(2257,189).
att(2253,122).
att(801,1110).
att(2212,658).
att(2252,151).
att(2216,709).
att(2149,7).
att(2215,672).
att(2149,6).
att(2255,155).
att(1895,491).
att(1859,475).
att(1859,472).
att(792,1068).
att(799,1045).
att(2228,804).
att(1897,500).
att(2215,738).
att(1895,520).
att(770,1051).
att(1863,492).
att(767,1046).
att(1902,530).
att(2249,188).
att(2255,216).
att(2149,19).
att(1895,539).
att(2254,122).
att(2250,156).
att(2147,16).
att(786,1180).
att(786,1173).
att(2213,702).
att(2252,119).
att(771,1048).
att(2212,712).
att(799,1171).
att(2280,645).
att(775,1067).
att(2214,717).
att(774,997).
att(775,1070).
att(1897,553).
att(771,1070).
att(792,1180).
att(771,1067).
att(767,999).
att(792,1169).
att(773,1018).
att(2142,56).
att(2288,639).
att(2210,742).
att(768,1004).
att(797,1175).
att(2137,58).
att(2212,735).
att(2145,48).
att(792,1452).
att(2211,119).
att(899,1054).
att(901,1051).
att(2134,1846).
att(2279,26).
att(2285,13).
att(2245,590).
att(436,473).
att(2245,596).
att(2285,14).
att(2145,1900).
att(898,1034).
att(439,490).
att(905,1046).
att(2149,1832).
att(444,518).
att(2212,154).
att(2283,3).
att(2218,121).
att(2217,119).
att(894,980).
att(448,384).
att(894,998).
att(436,500).
att(2280,1).
att(2284,48).
att(2149,1954).
att(822,1113).
att(824,1112).
att(904,981).
att(2240,596).
att(903,999).
att(2121,1795).
att(2121,1793).
att(469,549).
att(2142,1961).
att(2134,1872).
att(469,556).
att(2120,1828).
att(448,409).
att(2117,1799).
att(2147,1954).
att(2242,647).
att(2140,1871).
att(722,1678).
att(722,1677).
att(819,1138).
att(823,1140).
att(874,1017).
att(442,531).
att(2148,1869).
att(824,1141).
att(446,550).
att(2282,13).
att(2142,1899).
att(448,431).
att(2210,206).
att(2286,52).
att(2242,630).
att(819,1148).
att(2210,213).
att(2279,18).
att(2281,11).
att(874,1000).
att(2212,212).
att(1943,401).
att(2281,18).
att(2137,1934).
att(2247,617).
att(2280,73).
att(2283,76).
att(441,549).
att(799,1644).
att(1945,409).
att(2286,69).
att(793,1586).
att(448,452).
att(795,1616).
att(2240,692).
att(2279,75).
att(806,1611).
att(901,1170).
att(2279,80).
att(1948,426).
att(903,1175).
att(790,1644).
att(2247,641).
att(2119,1830).
att(1946,450).
att(2143,1958).
att(2148,2007).
att(2121,1819).
att(786,1589).
att(2245,678).
att(2117,1831).
att(448,476).
att(2242,623).
att(902,1112).
att(874,1139).
att(2242,629).
att(795,1630).
att(2285,120).
att(1942,450).
att(792,1529).
att(2119,1841).
att(2275,38).
att(2111,1850).
att(793,1534).
att(2278,28).
att(1944,455).
att(2286,206).
att(2109,1842).
att(2282,113).
att(2121,1908).
att(2120,1903).
att(1942,471).
att(2281,147).
att(851,940).
att(2106,1843).
att(899,1047).
att(2137,2011).
att(1946,494).
att(2118,1849).
att(2143,2013).
att(2243,658).
att(799,1532).
att(2287,154).
att(904,1098).
att(2111,1847).
att(1948,496).
att(2274,9).
att(2288,124).
att(718,1719).
att(2241,656).
att(2276,54).
att(822,999).
att(826,1064).
att(2113,1907).
att(2275,55).
att(2243,737).
att(447,536).
att(824,981).
att(2106,1900).
att(2247,711).
att(1916,389).
att(849,1179).
att(1915,378).
att(1949,534).
att(2240,703).
att(849,1171).
att(1917,379).
att(1943,529).
att(841,1138).
att(1943,533).
att(2109,1837).
att(2115,1899).
att(2106,1834).
att(2245,744).
att(845,1141).
att(1948,549).
att(2233,625).
att(2113,1941).
att(824,938).
att(2111,1938).
att(1952,435).
att(1942,554).
att(2231,647).
att(2235,628).
att(844,1089).
att(849,1148).
att(2272,55).
att(848,1143).
att(2113,1877).
att(826,944).
att(842,1111).
att(1915,438).
att(2274,43).
att(2278,73).
att(2240,730).
att(1913,432).
att(2232,669).
att(2277,122).
att(823,1077).
att(2231,662).
att(2237,678).
att(1912,435).
att(715,1531).
att(722,1582).
att(904,942).
att(823,1090).
att(903,934).
att(726,1584).
att(726,1569).
att(819,1078).
att(2270,65).
att(2106,1930).
att(1912,454).
att(726,1606).
att(1951,491).
att(819,1110).
att(2232,691).
att(825,1111).
att(2269,119).
att(1914,471).
att(824,1032).
att(1950,520).
att(2233,697).
att(2275,210).
att(2223,595).
att(2233,740).
att(2272,189).
att(1951,512).
att(2226,597).
att(2236,740).
att(2232,694).
att(714,1556).
att(2268,53).
att(1913,496).
att(2270,115).
att(718,1464).
att(2238,670).
att(2273,124).
att(2231,709).
att(726,1556).
att(1950,539).
att(2276,113).
att(822,1066).
att(1952,531).
att(2229,704).
att(721,1452).
att(2271,117).
att(2266,16).
att(2238,73).
att(2265,1813).
att(948,1148).
att(2231,64).
att(2268,1849).
att(977,1091).
att(847,1585).
att(2223,9).
att(979,1073).
att(2233,150).
att(845,1603).
att(2225,21).
att(2229,68).
att(843,1586).
att(770,1653).
att(974,1049).
att(2277,2009).
att(2265,1825).
att(2273,1936).
att(2261,1797).
att(486,456).
att(2230,44).
att(979,1095).
att(2278,2013).
att(481,452).
att(768,1717).
att(2238,43).
att(973,1092).
att(775,1721).
att(847,1504).
att(768,1703).
att(2228,5).
att(2265,1837).
att(2220,1).
att(2224,42).
att(773,1651).
att(973,1049).
att(2267,1909).
att(976,1092).
att(483,490).
att(483,496).
att(486,491).
att(2270,2007).
att(976,1069).
att(2223,3).
att(771,1656).
att(2223,36).
att(485,495).
att(2264,1840).
att(848,1556).
att(848,1554).
att(772,1648).
att(2222,8).
att(2225,30).
att(973,1068).
att(950,1049).
att(465,379).
att(907,1048).
att(825,1553).
att(847,1674).
att(947,1054).
att(2260,1871).
att(2256,1799).
att(821,1566).
att(2226,44).
att(2219,59).
att(2267,1960).
att(479,520).
att(487,548).
att(489,548).
att(466,414).
att(846,1616).
att(464,380).
att(978,1178).
att(464,387).
att(2219,15).
att(488,558).
att(2267,1875).
att(2222,14).
att(844,1633).
att(2228,45).
att(907,1000).
att(907,999).
att(2253,1827).
att(2224,78).
att(943,1027).
att(2256,1823).
att(485,554).
att(2252,1828).
att(979,1122).
att(462,426).
att(2263,1940).
att(947,1029).
att(848,1645).
att(978,1169).
att(979,1146).
att(2224,51).
att(463,438).
att(949,1139).
att(949,1114).
att(976,1114).
att(935,942).
att(909,1004).
att(794,1655).
att(2211,6).
att(2225,115).
att(2225,113).
att(461,458).
att(2251,1851).
att(850,1072).
att(775,1604).
att(868,1033).
att(467,470).
att(770,1554).
att(771,1606).
att(767,1529).
att(866,1109).
att(792,1718).
att(2251,1843).
att(2222,66).
att(2263,2007).
att(468,491).
att(793,1704).
att(801,1672).
att(2219,67).
att(2252,1814).
att(799,1683).
att(793,1611).
att(866,995).
att(2218,56).
att(2217,54).
att(2250,1833).
att(2257,1868).
att(2209,12).
att(463,495).
att(786,1611).
att(894,1176).
att(2249,1907).
att(459,498).
att(461,510).
att(2211,13).
att(457,494).
att(2218,13).
att(793,1633).
att(867,1027).
att(866,1017).
att(2214,32).
att(443,384).
att(2213,28).
att(463,512).
att(850,1068).
att(445,387).
att(469,405).
att(899,1177).
att(2212,42).
att(868,1112).
att(977,981).
att(2218,76).
att(439,384).
att(465,559).
att(2148,1828).
att(2143,1799).
att(2148,1826).
att(439,385).
att(977,996).
att(977,999).
att(848,1454).
att(866,1178).
att(774,1623).
att(2145,1824).
att(775,1705).
att(2147,1830).
att(459,533).
att(847,1454).
att(461,549).
att(436,382).
att(440,399).
att(2149,1822).
att(439,411).
att(873,1116).
att(868,1168).
att(949,993).
att(446,438).
att(768,1644).
att(436,405).
att(979,1021).
att(870,1177).
att(2252,1985).
att(2143,1821).
att(871,1169).
att(872,1148).
att(2150,1844).
att(866,1148).
att(866,1170).
att(979,939).
att(767,1587).
att(436,438).
att(2252,2013).
att(469,476).
att(2143,1823).
att(439,458).
att(871,1078).
att(767,1526).
att(2143,1830).
att(2250,1936).
att(445,471).
att(446,477).
att(2145,1815).
att(1220,613).
att(899,1644).
att(902,1626).
att(1219,664).
att(1043,8).
att(1001,1171).
att(721,2187).
att(1028,1139).
att(1216,689).
att(799,2055).
att(574,1078).
att(797,2047).
att(1125,1826).
att(1056,82).
att(545,1586).
att(570,1077).
att(577,1140).
att(1135,1842).
att(540,1606).
att(765,451).
att(1005,1176).
att(795,2032).
att(579,1169).
att(1062,154).
att(626,654).
att(1158,2005).
att(1167,1843).
att(618,677).
att(900,1568).
att(960,455).
att(1220,639).
att(543,1533).
att(543,1504).
att(958,450).
att(795,1976).
att(1063,66).
att(898,1581).
att(1056,47).
att(728,2169).
att(1212,639).
att(726,2169).
att(1215,623).
att(905,1644).
att(1165,2009).
att(538,1529).
att(898,1647).
att(786,1997).
att(576,1077).
att(954,455).
att(1044,16).
att(575,1115).
att(1036,21).
att(763,497).
att(1166,1900).
att(718,2155).
att(1036,2).
att(541,1643).
att(790,1923).
att(1060,119).
att(571,1140).
att(575,1116).
att(1220,670).
att(555,1587).
att(562,938).
att(569,980).
att(904,1568).
att(1056,83).
att(1215,700).
att(573,1114).
att(1131,1839).
att(1218,696).
att(1055,122).
att(540,1632).
att(544,1624).
att(561,1004).
att(618,929).
att(790,2010).
att(538,1633).
att(899,1535).
att(1044,36).
att(1213,669).
att(566,936).
att(1132,1843).
att(1219,709).
att(797,1929).
att(715,2056).
att(573,1168).
att(962,492).
att(1055,152).
att(716,2138).
att(714,2057).
att(1041,28).
att(714,2056).
att(540,1569).
att(960,510).
att(564,939).
att(1037,3).
att(1131,1851).
att(564,938).
att(954,491).
att(1001,1146).
att(1008,1168).
att(765,514).
att(905,1607).
att(797,2151).
att(1044,46).
att(763,532).
att(899,1736).
att(952,500).
att(1209,639).
att(1206,595).
att(563,1051).
att(528,1560).
att(546,1653).
att(1166,1941).
att(1132,1958).
att(1131,1873).
att(1208,645).
att(960,530).
att(1131,1870).
att(527,1559).
att(790,2151).
att(851,1587).
att(1135,1954).
att(1217,719).
att(763,549).
att(1044,55).
att(1044,61).
att(614,642).
att(1133,1904).
att(1217,742).
att(901,1656).
att(958,537).
att(574,1178).
att(616,626).
att(873,1533).
att(921,384).
att(570,1176).
att(1212,703).
att(794,2091).
att(618,650).
att(1037,12).
att(1041,56).
att(612,646).
att(568,1051).
att(1129,1903).
att(612,633).
att(1214,807).
att(1213,802).
att(799,2090).
att(1167,1984).
att(1202,639).
att(794,2015).
att(1127,1960).
att(1132,1928).
att(799,2079).
att(867,1462).
att(1202,651).
att(562,1110).
att(898,1653).
att(971,428).
att(1042,64).
att(618,665).
att(904,1674).
att(962,554).
att(911,398).
att(540,1718).
att(517,1535).
att(624,610).
att(1135,2003).
att(972,452).
att(540,1721).
att(1218,777).
att(538,1653).
att(567,1095).
att(620,634).
att(795,2030).
att(614,684).
att(627,644).
att(1217,777).
att(557,1678).
att(966,450).
att(793,2049).
att(870,1455).
att(799,2015).
att(1132,1960).
att(624,665).
att(873,1468).
att(786,2054).
att(616,684).
att(806,2079).
att(850,1564).
att(919,431).
att(1212,730).
att(624,660).
att(919,426).
att(1041,75).
att(544,1719).
att(786,2047).
att(626,659).
att(790,2031).
att(1024,939).
att(907,1122).
att(568,1120).
att(413,946).
att(1014,28).
att(722,1977).
att(825,1645).
att(1044,113).
att(1203,670).
att(423,1027).
att(423,1025).
att(1002,1027).
att(535,1607).
att(971,471).
att(1127,2009).
att(569,1122).
att(909,1114).
att(1013,26).
att(1209,699).
att(519,1587).
att(828,1632).
att(971,478).
att(408,934).
att(947,1140).
att(822,1628).
att(1201,670).
att(819,1582).
att(610,885).
att(642,893).
att(972,490).
att(1008,980).
att(1204,672).
att(1005,1004).
att(567,1169).
att(722,1997).
att(820,1530).
att(1210,664).
att(563,1089).
att(567,1141).
att(563,1074).
att(1002,946).
att(1127,1930).
att(1133,2009).
att(1132,2005).
att(1133,1985).
att(966,497).
att(557,1725).
att(562,1090).
att(971,497).
att(648,857).
att(911,472).
att(972,512).
att(1204,690).
att(825,1630).
att(972,514).
att(1204,698).
att(1199,596).
att(968,522).
att(1014,58).
att(820,1562).
att(943,1107).
att(563,1177).
att(840,1719).
att(646,913).
att(919,498).
att(1205,744).
att(1009,15).
att(819,1531).
att(911,494).
att(919,500).
att(935,1109).
att(517,1626).
att(819,1528).
att(1204,695).
att(728,1925).
att(605,1470).
att(932,378).
att(1007,15).
att(824,1531).
att(970,520).
att(1012,59).
att(527,1611).
att(842,1677).
att(819,1455).
att(908,1093).
att(563,1113).
att(823,1566).
att(644,916).
att(1010,38).
att(646,916).
att(1043,208).
att(945,1031).
att(525,1647).
att(1016,15).
att(1200,590).
att(909,1093).
att(919,512).
att(609,750).
att(972,548).
att(1035,124).
att(917,530).
att(933,409).
att(517,1632).
att(1199,613).
att(894,1455).
att(898,1556).
att(609,646).
att(827,1736).
att(1198,611).
att(620,918).
att(966,556).
att(423,1095).
att(1011,52).
att(824,1655).
att(1194,637).
att(925,418).
att(821,1726).
att(970,548).
att(627,913).
att(616,963).
att(1193,645).
att(421,1094).
att(720,2031).
att(612,753).
att(413,1068).
att(620,764).
att(1019,994).
att(923,431).
att(526,1650).
att(1016,43).
att(535,1626).
att(726,2092).
att(823,1678).
att(1198,651).
att(610,683).
att(640,660).
att(1193,630).
att(903,1553).
att(821,1673).
att(624,963).
att(642,661).
att(524,1649).
att(1196,647).
att(927,435).
att(927,432).
att(925,450).
att(396,938).
att(638,684).
att(718,2055).
att(903,1452).
att(904,1466).
att(420,1146).
att(1010,65).
att(1001,1064).
att(423,1120).
att(821,1683).
att(1014,120).
att(828,1702).
att(390,942).
att(599,1606).
att(1010,154).
att(1030,980).
att(422,1122).
att(1191,693).
att(393,931).
att(898,1466).
att(394,942).
att(1196,667).
att(907,1178).
att(820,1583).
att(1024,1020).
att(1019,938).
att(419,1107).
att(878,455).
att(419,1111).
att(908,1175).
att(410,1045).
att(606,1602).
att(397,930).
att(721,1972).
att(1003,999).
att(1006,78).
att(610,887).
att(1016,154).
att(820,1630).
att(715,1979).
att(716,2053).
att(819,1644).
att(1204,798).
att(937,1470).
att(601,1069).
att(948,1725).
att(906,1504).
att(948,1721).
att(844,2079).
att(659,883).
att(842,2030).
att(975,1705).
att(1195,62).
att(945,1553).
att(603,1048).
att(784,378).
att(840,2089).
att(974,1653).
att(973,1648).
att(668,879).
att(842,2035).
att(813,559).
att(631,953).
att(1014,1869).
att(816,550).
att(523,1175).
att(665,883).
att(1016,1869).
att(945,1454).
att(808,531).
att(1191,17).
att(633,963).
att(1006,1905).
att(603,1051).
att(990,1795).
att(810,549).
att(1006,1908).
att(661,920).
att(631,965).
att(1196,58).
att(909,1562).
att(601,1107).
att(657,963).
att(779,407).
att(985,1828).
att(1012,1983).
att(604,1074).
att(663,918).
att(845,2054).
att(844,2050).
att(780,405).
att(607,1140).
att(818,451).
att(907,1452).
att(633,753).
att(785,437).
att(599,1095).
att(1191,82).
att(602,1073).
att(849,2030).
att(605,1091).
att(817,458).
att(1012,2003).
att(601,1050).
att(601,1033).
att(659,755).
att(663,956).
att(984,1783).
att(603,1046).
att(991,1827).
att(655,686).
att(849,2052).
att(979,1632).
att(990,1817).
att(602,1110).
att(1200,67).
att(1013,1938).
att(1200,71).
att(1196,76).
att(845,2167).
att(598,1151).
att(601,1170).
att(1184,21).
att(601,1169).
att(820,2002).
att(1188,39).
att(782,472).
att(989,1836).
att(945,1633).
att(945,1632).
att(587,1017).
att(1198,119).
att(1199,83).
att(780,453).
att(984,1841).
att(828,2035).
att(1198,216).
att(991,1909).
att(783,493).
att(947,1647).
att(943,1584).
att(982,1820).
att(1007,2003).
att(785,492).
att(785,495).
att(848,2174).
att(849,2186).
att(849,2185).
att(1006,2005).
att(634,676).
att(990,1835).
att(823,1996).
att(1200,117).
att(986,1846).
att(1193,64).
att(602,1140).
att(778,490).
att(828,1976).
att(986,1849).
att(631,862).
att(844,2151).
att(941,1603).
att(990,1941).
att(778,491).
att(778,500).
att(782,518).
att(582,981).
att(937,1504).
att(601,1178).
att(943,1601).
att(984,1901).
att(584,995).
att(1183,16).
att(588,1033).
att(817,531).
att(787,387).
att(945,1606).
att(583,1054).
att(941,1568).
att(982,1900).
att(1182,19).
att(937,1566).
att(585,1000).
att(977,1725).
att(1195,119).
att(780,515).
att(659,852).
att(845,2059).
att(943,1533).
att(633,879).
att(947,1532).
att(1194,206).
att(817,550).
att(586,996).
att(758,382).
att(983,1838).
att(974,1721).
att(990,1876).
att(1191,120).
att(589,1078).
att(782,551).
att(778,532).
att(782,548).
att(787,431).
att(787,426).
att(785,558).
att(773,2031).
att(976,1455).
att(976,1454).
att(873,1704).
att(1160,1822).
att(1160,1827).
att(789,434).
att(774,2031).
att(779,549).
att(749,398).
att(586,1110).
att(949,1558).
att(581,1066).
att(1181,59).
att(989,1959).
att(581,1067).
att(752,407).
att(872,1608).
att(988,1935).
att(688,961).
att(789,456).
att(788,455).
att(1164,1831).
att(870,1677).
att(1182,58).
att(580,1070).
att(589,1109).
att(987,1958).
att(990,1940).
att(793,2122).
att(799,2174).
att(1063,42).
att(870,1644).
att(1156,1818).
att(577,942).
att(1062,2).
att(776,2053).
att(579,1017).
att(770,2000).
att(801,2170).
att(1164,1837).
att(1186,151).
att(767,1975).
att(756,472).
att(992,1832).
att(589,1140).
att(1063,7).
att(771,1998).
att(754,475).
att(582,1095).
att(582,1093).
att(622,1305).
att(801,2100).
att(850,1630).
att(614,1314).
att(988,2013).
att(760,473).
att(734,1310).
att(576,942).
att(873,1569).
att(850,1644).
att(1160,1818).
att(587,1140).
att(578,931).
att(579,944).
att(771,1979).
att(579,940).
att(756,492).
att(1060,13).
att(841,1931).
att(1185,206).
att(1185,214).
att(577,994).
att(754,497).
att(1188,206).
att(842,1931).
att(752,480).
att(760,496).
att(545,1468).
att(1062,58).
att(789,515).
att(544,1460).
att(655,861).
att(1164,1869).
att(572,999).
att(976,1632).
att(1061,56).
att(572,980).
att(771,2185).
att(973,1584).
att(756,520).
att(583,1116).
att(754,510).
att(570,938).
att(843,1931).
att(1161,1835).
att(574,1004).
att(752,496).
att(1184,148).
att(1161,1839).
att(948,1585).
att(577,1027).
att(844,1929).
att(588,1173).
att(760,520).
att(1187,188).
att(771,2100).
att(950,1584).
att(586,1139).
att(749,518).
att(579,1092).
att(756,539).
att(976,1533).
att(1156,1868).
att(570,1070).
att(774,2057).
att(545,1559).
att(760,531).
att(1212,595).
att(681,857).
att(849,1937).
att(978,1529).
att(774,2059).
att(775,2154).
att(655,881).
att(866,1737).
att(749,533).
att(538,1562).
att(767,2075).
att(547,1535).
att(575,1048).
att(868,1675).
att(679,926).
att(1216,593).
att(679,881).
att(541,1458).
att(582,1178).
att(773,2089).
att(869,1676).
att(541,1466).
att(752,534).
att(762,428).
att(869,1675).
att(977,1558).
att(1154,1906).
att(979,1564).
att(544,1559).
att(654,922).
att(540,1468).
att(949,1533).
att(770,2028).
att(774,2079).
att(1217,608).
att(749,556).
att(1061,48).
att(555,931).
att(904,2122).
att(1059,1835).
att(1125,1285).
att(1156,1472).
att(1059,1908).
att(1129,1278).
att(806,281).
att(794,259).
att(1184,2005).
att(1662,491).
att(1181,1983).
att(1030,1737).
att(904,2151).
att(1165,1502).
att(1135,1287).
att(866,1937).
att(1062,1841).
att(1019,1720).
att(1164,1502).
att(1057,1873).
att(1158,1561).
att(903,2056).
att(546,1047).
att(793,179).
att(901,2078).
att(557,981).
att(1216,56).
att(1150,1430).
att(1002,1737).
att(1216,62).
att(1670,539).
att(555,997).
att(714,427).
att(786,185).
att(1668,530).
att(837,378).
att(1660,531).
att(1135,1369).
att(806,229).
att(1019,1651).
att(832,381).
att(1058,1875).
att(899,2027).
att(1164,1539).
att(797,186).
att(992,1565).
att(836,407).
att(1658,537).
att(557,1004).
att(555,1020).
att(726,425).
att(793,207).
att(900,2031).
att(1059,1906).
att(1055,1834).
att(1131,1321).
att(1165,1557).
att(1161,1536).
att(1660,551).
att(1062,1872).
att(1167,1289).
att(544,1052).
att(1062,1874).
att(538,980).
att(1167,1424).
att(1044,1815).
att(1058,1910).
att(797,406).
att(1213,79).
att(829,387).
att(1061,1983).
att(769,202).
att(1040,1829).
att(769,205).
att(769,217).
att(1059,1934).
att(1131,1347).
att(1135,1420).
att(1215,71).
att(1218,69).
att(1652,551).
att(851,2075).
att(832,433).
att(1044,1813).
att(547,1108).
att(1133,1363).
att(772,215).
att(771,211).
att(793,349).
att(1219,80).
att(834,431).
att(1216,51).
att(799,343).
att(1137,1363).
att(850,2094).
att(1041,1823).
att(786,347).
att(806,415).
att(868,2050).
att(830,437).
att(543,1046).
att(527,1023).
att(1133,1390).
att(521,930).
att(547,1113).
att(771,118).
att(1040,1845).
att(1167,1502).
att(1206,2).
att(797,351).
att(829,434).
att(794,284).
att(801,349).
att(1040,1848).
att(525,934).
att(771,99).
att(900,2169).
att(546,1179).
att(869,1975).
att(555,1140).
att(786,282).
att(545,1114).
att(1125,1396).
att(869,1980).
att(1204,3).
att(830,454).
att(870,2015).
att(1208,34).
att(544,1112).
att(1218,121).
att(831,470).
att(526,946).
att(793,311).
att(834,476).
att(1056,1940).
att(801,281).
att(850,2049).
att(555,1072).
att(775,118).
att(540,1091).
att(540,1077).
att(836,512).
att(718,250).
att(902,1931).
att(820,2090).
att(874,1924).
att(1044,1870).
att(535,1029).
att(1213,188).
att(1201,32).
att(945,1725).
att(1202,42).
att(1028,1526).
att(1043,1958).
att(1125,1459).
att(838,520).
att(519,1000).
att(524,1066).
att(1125,1467).
att(1035,1903).
att(1208,61).
att(820,2057).
att(935,1719).
att(714,254).
att(1129,1461).
att(1037,1838).
att(535,930).
att(528,995).
att(1043,1905).
att(834,522).
att(816,384).
att(828,2073).
att(909,1718).
att(1166,1536).
att(947,1672).
att(1201,39).
att(815,381).
att(1003,1533).
att(1042,1906).
att(555,1118).
att(1211,115).
att(1019,1564).
att(1038,1839).
att(1041,1900).
att(832,533).
att(1137,1430).
att(714,184).
att(874,1937).
att(1211,121).
att(716,259).
att(828,2071).
att(724,181).
att(820,2047).
att(831,534).
att(907,1656).
att(718,209).
att(906,1673).
att(1001,1562).
att(1015,1825).
att(526,1111).
att(1011,1791).
att(907,1674).
att(823,2033).
att(1044,1911).
att(521,1033).
att(528,1109).
att(943,1704).
att(819,2015).
att(1006,1793).
att(1030,1468).
att(837,552).
att(1003,1554).
att(1003,1566).
att(1201,51).
att(720,203).
att(1035,1959).
att(821,2094).
att(724,205).
att(842,2186).
att(521,1065).
att(820,1980).
att(1220,212).
att(943,1623).
att(1133,1538).
att(724,211).
att(726,204).
att(816,432).
att(1005,1460).
att(716,207).
att(906,1653).
att(829,548).
att(1042,1959).
att(935,1609).
att(1001,1705).
att(1199,2).
att(792,112).
att(792,123).
att(902,2032).
att(898,2048).
att(1203,66).
att(1207,153).
att(812,434).
att(1202,75).
att(535,1108).
att(714,377).
att(528,1112).
att(812,437).
att(602,938).
att(1016,1836).
att(1197,1).
att(1209,120).
att(1003,1678).
att(602,940).
att(1196,3).
att(722,425).
att(810,449).
att(902,2050).
att(814,474).
att(1204,81).
att(1203,73).
att(820,2124).
att(1044,2001).
att(1040,1928).
att(1002,1624).
att(899,1978).
att(1036,1955).
att(1209,63).
att(823,2170).
att(1040,1935).
att(1002,1609).
att(815,470).
att(904,2047).
att(905,2053).
att(728,375).
att(904,2054).
att(795,215).
att(1038,1932).
att(718,347).
att(524,1078).
att(726,261).
att(1207,210).
att(894,1926).
att(722,281).
att(600,1020).
att(1014,1901).
att(1019,1600).
att(728,262).
att(1206,119).
att(1202,147).
att(903,1980).
att(728,279).
att(811,472).
att(1006,1838).
att(1197,12).
att(898,1982).
att(1024,1632).
att(718,262).
att(1205,189).
att(1197,18).
att(517,1139).
att(806,116).
att(519,1116).
att(1011,1842).
att(715,250).
att(937,1736).
att(523,1144).
att(1199,34).
att(900,1927).
att(526,1122).
att(521,1141).
att(1014,1840).
att(811,496).
att(602,1021).
att(1205,117).
att(900,1924).
att(1009,1842).
att(900,1923).
att(601,931).
att(839,534).
att(722,262).
att(819,2154).
att(894,1937).
att(822,123).
att(825,207).
att(974,2185).
att(1014,1424).
att(848,345).
att(1197,1815).
att(841,347).
att(943,1979).
att(1011,1365).
att(1015,1347).
att(1199,1828).
att(1203,1953).
att(935,2006).
att(1015,1346).
att(844,263).
att(844,262).
att(977,2173).
att(945,1979).
att(840,262).
att(848,376).
att(1208,1934).
att(1009,1370).
att(974,2151).
att(974,2155).
att(1015,1499).
att(988,1279).
att(1192,1850).
att(841,239).
att(975,2131).
att(1010,1496).
att(1198,1909).
att(846,317).
att(1191,1845).
att(979,2096).
att(1191,1850).
att(935,2012).
att(841,287).
att(976,2169).
att(908,1971).
att(977,2130).
att(1196,1848).
att(1007,1429).
att(842,255).
att(845,238).
att(1011,1428).
att(1013,1397).
att(943,2152).
att(1012,1565).
att(826,286).
att(1193,1907).
att(989,1306).
att(1011,1459).
att(1198,1959).
att(1189,1783).
att(1010,1537).
att(1030,1933).
att(1003,1997).
att(825,239).
att(1011,1496).
att(721,718).
att(983,1283).
att(1191,1837).
att(821,219).
att(1003,1933).
att(842,344).
att(845,402).
att(986,1350).
att(844,429).
att(1685,398).
att(1181,1791).
att(988,1342).
att(1187,1828).
att(820,202).
att(943,2093).
att(728,724).
att(728,722).
att(984,1349).
att(823,179).
att(846,427).
att(908,2072).
att(983,1362).
att(1200,2001).
att(844,342).
att(845,318).
att(821,201).
att(848,425).
att(908,2076).
att(848,424).
att(1011,1563).
att(1697,453).
att(1199,1941).
att(828,186).
att(991,1346).
att(1198,1938).
att(1186,1797).
att(1006,1563).
att(819,205).
att(828,184).
att(819,217).
att(935,2015).
att(819,215).
att(947,2028).
att(1189,1830).
att(1679,428).
att(1679,432).
att(872,2185).
att(769,313).
att(1697,475).
att(772,281).
att(868,2101).
att(868,2100).
att(1165,1281).
att(867,2151).
att(769,236).
att(1196,2005).
att(1684,450).
att(989,1426).
att(851,2174).
att(770,233).
att(1695,496).
att(987,1423).
att(1194,2011).
att(1687,494).
att(1194,1984).
att(990,1398).
att(1150,1286).
att(1181,1834).
att(1679,474).
att(1185,1909).
att(948,2010).
att(1161,1329).
att(1691,493).
att(978,1927).
att(1695,516).
att(990,1557).
att(992,1289).
att(767,238).
att(870,2104).
att(1150,1282).
att(792,425).
att(786,415).
att(989,1472).
att(1670,379).
att(985,1472).
att(1680,510).
att(1183,1832).
att(776,219).
att(1183,1836).
att(984,1473).
att(983,1390).
att(986,1498).
att(1679,514).
att(1158,1371).
att(1182,1875).
att(976,2075).
att(1658,384).
att(975,2095).
att(1181,1875).
att(906,1933).
att(1161,1367).
att(844,256).
att(1695,549).
att(977,2073).
att(846,254).
att(1183,1955).
att(1160,1368).
att(842,180).
att(1187,1910).
att(983,1555).
att(979,2071).
att(1684,532).
att(769,322).
att(1684,530).
att(1185,1877).
att(1682,529).
att(1658,407).
att(977,2089).
att(1160,1296).
att(978,2090).
att(774,425).
att(1652,398).
att(1162,1300).
att(843,204).
att(977,2031).
att(1219,2).
att(775,425).
att(948,2093).
att(1056,1830).
att(1161,1422).
att(979,2032).
att(1218,6).
att(949,2091).
att(1060,1823).
att(1063,1815).
att(1181,1953).
att(867,2185).
att(1185,1911).
att(1165,1420).
att(949,2033).
att(1158,1342).
att(767,374).
att(526,209).
att(560,1972).
att(521,114).
att(1166,740).
att(871,250).
att(371,1676).
att(1166,742).
att(1137,697).
att(566,2052).
att(519,123).
att(517,106).
att(545,318).
att(1131,698).
att(564,2048).
att(775,794).
att(523,114).
att(1129,713).
att(1133,707).
att(563,1982).
att(1133,710).
att(546,375).
att(571,2100).
att(902,424).
att(852,1272).
att(565,1972).
att(904,415).
att(564,1972).
att(776,716).
att(851,253).
att(523,181).
att(567,2059).
att(887,1247).
att(334,1648).
att(525,180).
att(543,412).
att(557,321).
att(900,374).
att(894,351).
att(1137,798).
att(871,203).
att(1131,732).
att(855,1262).
att(1129,725).
att(336,1675).
att(876,1305).
att(340,1649).
att(1127,699).
att(871,114).
att(525,207).
att(1137,736).
att(545,427).
att(330,1705).
att(540,342).
att(1030,2185).
att(852,1477).
att(901,282).
att(1137,731).
att(564,2030).
att(879,1295).
att(893,1451).
att(568,2092).
att(544,400).
att(879,1291).
att(1019,2168).
att(423,1997).
att(674,1434).
att(976,116).
att(526,314).
att(961,748).
att(865,1270).
att(872,349).
att(326,1723).
att(326,1721).
att(949,207).
att(948,203).
att(413,1926).
att(416,1927).
att(568,2100).
att(527,315).
att(871,282).
att(870,281).
att(334,1737).
att(567,2128).
att(521,260).
att(862,1443).
att(1125,796).
att(566,2138).
att(673,1510).
att(676,1477).
att(1131,807).
att(527,234).
att(873,281).
att(336,1719).
att(423,2047).
att(564,2168).
att(526,377).
att(861,1478).
att(858,1318).
att(521,283).
att(675,1515).
att(521,263).
att(410,1981).
att(562,2186).
att(605,99).
att(853,1221).
att(524,376).
att(893,1288).
att(857,1230).
att(526,281).
att(858,1230).
att(858,1226).
att(606,114).
att(873,238).
att(528,349).
att(858,1223).
att(869,257).
att(416,2012).
att(864,1513).
att(926,1254).
att(527,404).
att(604,182).
att(527,402).
att(820,377).
att(1019,2049).
att(902,180).
att(883,1252).
att(828,427).
att(535,327).
att(828,415).
att(1028,2033).
att(885,1245).
att(421,2092).
att(421,2079).
att(827,321).
att(606,209).
att(417,2028).
att(599,116).
att(910,1305).
att(828,321).
att(602,205).
att(524,346).
att(827,346).
att(929,1272).
att(421,2031).
att(527,342).
att(901,118).
att(926,1449).
att(1008,2048).
att(926,1447).
att(606,235).
att(827,373).
att(417,2130).
att(903,108).
att(421,2155).
att(417,2138).
att(821,351).
att(1003,2047).
att(416,2074).
att(396,1926).
att(825,281).
att(1019,1927).
att(603,181).
att(1024,1996).
att(910,1230).
att(1003,1975).
att(602,256).
att(606,237).
att(519,404).
att(877,1509).
att(912,1231).
att(941,2173).
att(887,1441).
att(421,2173).
att(926,1305).
att(889,1493).
att(420,2168).
att(413,2122).
att(857,1523).
att(900,314).
att(589,106).
att(394,1982).
att(929,1291).
att(394,1980).
att(605,279).
att(605,284).
att(386,1996).
att(386,1933).
att(898,229).
att(416,2126).
att(792,806).
att(420,2098).
att(1001,2098).
att(894,250).
att(904,314).
att(876,1227).
att(887,1476).
att(395,2004).
att(899,235).
att(410,2070).
att(857,1505).
att(905,315).
att(1008,2186).
att(416,2154).
att(899,253).
att(902,234).
att(1024,2070).
att(605,318).
att(887,1505).
att(903,239).
att(889,1515).
att(902,229).
att(877,1234).
att(603,344).
att(875,1255).
att(394,2028).
att(929,1225).
att(394,2015).
att(586,215).
att(795,721).
att(393,2035).
att(876,1255).
att(902,260).
att(898,183).
att(392,1971).
att(900,181).
att(600,283).
att(604,347).
att(876,1233).
att(395,2055).
att(419,2170).
att(603,285).
att(603,351).
att(390,2035).
att(388,1971).
att(394,2054).
att(408,2170).
att(801,721).
att(1005,2075).
att(1019,2078).
att(393,2049).
att(982,691).
att(604,2125).
att(937,229).
att(600,2126).
att(587,1979).
att(823,767).
att(828,842).
att(990,712).
att(598,2151).
att(916,1262).
att(986,670).
att(820,716).
att(951,1320).
att(598,2056).
att(967,1262).
att(1007,796).
att(956,1297).
att(386,1504).
att(826,767).
att(826,773).
att(969,1447).
att(987,617).
att(906,311).
att(913,1443).
att(392,1504).
att(906,310).
att(390,1601).
att(607,2100).
att(984,691).
att(606,2124).
att(383,1535).
att(914,1480).
att(922,1443).
att(828,771).
att(985,617).
att(943,257).
att(585,2054).
att(989,699).
att(916,1474).
att(918,1523).
att(989,703).
att(393,1616).
att(943,256).
att(588,2054).
att(975,424).
att(583,2050).
att(987,694).
att(397,1704).
att(589,2029).
att(822,715).
att(922,1482).
att(990,740).
att(935,258).
att(983,711).
att(824,721).
att(909,239).
att(982,670).
att(989,712).
att(386,1586).
att(974,319).
att(978,425).
att(943,181).
att(600,2098).
att(583,1977).
att(383,1582).
att(583,1975).
att(945,181).
att(907,254).
att(947,180).
att(602,2168).
att(908,256).
att(959,1225).
att(874,721).
att(1156,595).
att(362,1452).
att(937,319).
att(903,722).
att(370,1526).
att(903,715).
att(947,404).
att(580,2030).
att(1150,632).
att(1158,637).
att(874,797).
att(383,1677).
att(589,2072).
att(990,807).
att(912,1238).
att(386,1623).
att(937,375).
att(941,342).
att(1024,205).
att(388,1608).
att(1024,217).
att(913,1237).
att(943,346).
att(584,2048).
att(914,1242).
att(366,1454).
att(370,1560).
att(1005,183).
att(941,404).
att(1162,632).
att(986,736).
att(364,1462).
att(909,425).
att(967,1228).
att(820,840).
att(1150,628).
att(992,669).
att(1005,106).
att(1154,613).
att(577,1929).
att(581,2073).
att(1002,215).
att(914,1252).
att(392,1736).
att(908,345).
att(579,1996).
att(370,1587).
att(908,321).
att(906,412).
att(983,802).
att(587,2107).
att(1003,203).
att(918,1254).
att(1003,209).
att(986,805).
att(582,2094).
att(393,1736).
att(388,1648).
att(982,732).
att(368,1535).
att(819,767).
att(1008,123).
att(1001,111).
att(1001,118).
att(392,1717).
att(824,843).
att(913,1257).
att(1158,613).
att(922,1243).
att(824,842).
att(364,1647).
att(586,2185).
att(840,715).
att(745,1322).
att(1150,669).
att(546,123).
att(582,2101).
att(975,254).
att(847,772).
att(841,721).
att(360,1583).
att(978,229).
att(848,772).
att(360,1633).
att(544,123).
att(976,286).
att(583,2170).
att(580,2124).
att(1164,698).
att(369,1625).
att(1162,708).
att(955,1519).
att(745,1224).
att(961,1484).
att(751,1322).
att(573,1924).
att(745,1310).
att(847,795).
att(573,2010).
att(753,1309).
att(576,1975).
att(1165,710).
att(1165,709).
att(755,1322).
att(978,253).
att(579,1977).
att(979,251).
att(965,1480).
att(959,1486).
att(366,1570).
att(571,1929).
att(371,1556).
att(1162,736).
att(1132,592).
att(358,1608).
att(870,424).
att(973,205).
att(570,2055).
att(975,215).
att(1131,596).
att(1160,735).
att(340,1559).
att(366,1705).
att(336,1468).
att(334,1452).
att(575,2027).
att(340,1560).
att(371,1460).
att(364,1612).
att(975,114).
att(356,1630).
att(1156,709).
att(581,2169).
att(764,1515).
att(761,1238).
att(873,345).
att(544,201).
att(746,1249).
att(975,109).
att(1135,597).
att(1165,738).
att(1165,742).
att(538,114).
att(949,184).
att(338,1526).
att(557,183).
att(967,1549).
att(338,1530).
att(326,1564).
att(358,1656).
att(1127,645).
att(1125,639).
att(1132,623).
att(1166,692).
att(975,373).
att(368,1737).
att(907,187).
att(364,1723).
att(356,1656).
att(977,346).
att(978,318).
att(540,254).
att(963,1221).
att(1131,623).
att(545,219).
att(953,1255).
att(1129,625).
att(567,1933).
att(1158,800).
att(842,847).
att(371,1529).
att(841,846).
att(959,1233).
att(356,1705).
att(541,183).
att(909,106).
att(956,1251).
att(364,1653).
att(948,343).
att(540,202).
att(330,1554).
att(950,327).
att(538,183).
att(336,1554).
att(538,181).
att(334,1559).
att(334,1587).
att(571,2154).
att(557,232).
att(562,1925).
att(578,2171).
att(845,849).
att(338,1569).
att(956,1248).
att(963,1252).
att(950,347).
att(330,1586).
att(544,281).
att(1131,672).
att(564,2006).
att(1129,666).
att(567,1977).
att(1167,706).
att(959,1268).
att(1133,656).
att(334,1607).
att(569,2006).
att(1127,625).
att(746,1299).
att(976,316).
att(973,233).
att(1127,628).
att(1132,687).
att(844,769).
att(362,1736).
att(965,1449).
att(540,232).
att(568,1997).
att(564,1931).
att(979,317).
att(1129,52).
att(1057,725).
att(1043,615).
att(1133,51).
att(543,2092).
att(578,1720).
att(1060,719).
att(1132,47).
att(1132,46).
att(1053,742).
att(569,1504).
att(574,1655).
att(868,825).
att(1060,730).
att(1137,46).
att(1059,807).
att(545,2059).
att(863,959).
att(561,1564).
att(573,1653).
att(568,1534).
att(1061,791).
att(1167,76).
att(568,1504).
att(864,961).
att(869,824).
att(873,905).
att(358,1180).
att(864,745).
att(864,748).
att(1127,17).
att(326,1000).
att(575,1675).
att(326,999).
att(334,1051).
att(1132,58).
att(861,755).
att(578,1656).
att(1063,731).
att(555,2052).
att(573,1627).
att(1125,19).
att(573,1678).
att(1041,608).
att(341,1045).
att(561,1470).
att(869,841).
att(575,1704).
att(636,1297).
att(1037,594).
att(340,1151).
att(1044,669).
att(1040,692).
att(528,2002).
att(557,2058).
att(1132,69).
att(562,1529).
att(1042,680).
att(1035,687).
att(519,1929).
att(873,847).
att(1042,667).
att(868,769).
att(524,2002).
att(624,1488).
att(610,1224).
att(624,1493).
att(517,1929).
att(618,1521).
att(851,826).
att(851,825).
att(1037,687).
att(850,823).
att(569,1602).
att(638,1224).
att(1167,71).
att(1053,725).
att(1053,723).
att(867,786).
att(646,1315).
att(574,1717).
att(566,1534).
att(640,1320).
att(1060,804).
att(1137,76).
att(1125,77).
att(330,1110).
att(337,1078).
att(622,1505).
att(855,893).
att(873,774).
att(1044,678).
att(616,1505).
att(976,774).
att(521,1972).
att(557,2123).
att(979,794).
att(557,2122).
att(1039,704).
att(622,1315).
att(673,855).
att(976,768).
att(673,858).
att(565,1623).
att(627,1314).
att(677,887).
att(1135,210).
att(568,1625).
att(612,1227).
att(612,1229).
att(1037,706).
att(1167,117).
att(535,1926).
att(528,1971).
att(340,1116).
att(535,1933).
att(734,1238).
att(1035,689).
att(734,1233).
att(519,2000).
att(337,1114).
att(517,1996).
att(863,853).
att(523,2031).
att(564,1683).
att(419,1452).
att(675,918).
att(1010,596).
att(622,1237).
att(869,868).
att(1035,735).
att(562,1702).
att(1035,738).
att(524,2095).
att(561,1705).
att(416,1458).
att(626,1237).
att(612,1255).
att(978,721).
att(612,1248).
att(563,1623).
att(336,1179).
att(862,916).
att(676,969).
att(868,874).
att(1036,709).
att(863,969).
att(676,959).
att(332,1175).
att(1131,210).
att(565,1677).
att(863,912).
att(1015,632).
att(336,1180).
att(527,2033).
att(607,1926).
att(563,1736).
att(413,1504).
att(526,2131).
att(1014,685).
att(607,1937).
att(1001,373).
att(646,1447).
att(519,2071).
att(1036,804).
att(900,841).
att(602,1939).
att(1009,619).
att(1038,805).
att(1011,639).
att(899,776).
att(1001,284).
att(568,1725).
att(1041,803).
att(659,1316).
att(663,1290).
att(1003,261).
att(423,1533).
att(1040,733).
att(609,1523).
att(646,1441).
att(660,1301).
att(646,1490).
att(631,1231).
att(1003,263).
att(646,1476).
att(408,1560).
att(416,1559).
att(874,821).
att(1038,723).
att(610,1507).
att(657,1310).
att(413,1583).
att(659,1224).
att(413,1584).
att(1015,713).
att(521,2125).
att(603,1997).
att(1014,705).
att(413,1568).
att(422,1642).
att(646,1486).
att(1010,662).
att(419,1570).
att(599,2004).
att(877,929).
att(519,2123).
att(598,1996).
att(634,1239).
att(1007,658).
att(408,1569).
att(598,2008).
att(668,1288).
att(875,877).
att(668,1314).
att(413,1603).
att(1011,689).
att(1014,672).
att(419,1606).
att(1006,625).
att(660,1230).
att(904,799).
att(602,2010).
att(894,726).
att(601,1925).
att(524,2098).
att(874,775).
att(901,720).
att(601,1931).
att(416,1624).
att(857,883).
att(646,1226).
att(852,885).
att(606,2029).
att(609,1238).
att(422,1672).
att(648,1230).
att(852,913).
att(417,1703).
att(648,1224).
att(1016,733).
att(627,1510).
att(421,1705).
att(610,1232).
att(989,592).
att(408,1608).
att(1009,702).
att(517,2167).
att(644,1240).
att(644,1222).
att(640,1240).
att(852,922).
att(419,1611).
att(852,953).
att(599,1981).
att(891,881).
att(408,1647).
att(1009,707).
att(1009,712).
att(887,929).
att(519,2171).
att(1002,415).
att(393,1532).
att(985,651).
att(396,1532).
att(390,1553).
att(1010,719).
att(1011,730).
att(1019,327).
att(1005,415).
att(990,687).
att(1009,719).
att(1030,327).
att(860,959).
att(417,1723).
att(1012,796).
att(903,874).
att(1007,739).
att(605,2076).
att(420,1651).
att(1003,319).
att(646,1272).
att(904,874).
att(644,1245).
att(599,2047).
att(410,1627).
att(603,2092).
att(858,759).
att(860,751).
att(860,757).
att(421,1674).
att(640,1257).
att(1009,740).
att(898,902).
att(894,827).
att(901,819).
att(1019,347).
att(663,1443).
att(681,1316).
att(1007,122).
att(943,974).
att(395,994).
att(1011,121).
att(390,1022).
att(884,478).
att(665,1478).
att(383,1022).
att(947,948).
att(1200,741).
att(928,497).
att(634,1510).
att(397,1054).
att(1030,718).
att(1003,793).
att(1009,124).
att(598,1633).
att(661,1480).
att(386,1017).
att(947,979).
att(935,894).
att(1012,120).
att(1199,708).
att(420,1115).
att(686,1288).
att(654,1229).
att(604,1628).
att(987,21).
att(991,26).
att(907,950).
att(991,39).
att(683,1322).
att(908,974).
att(1010,113).
att(1194,705).
att(383,944).
att(665,1509).
att(417,1120).
att(909,979).
att(1013,83).
att(416,1170).
att(982,62).
att(388,1052).
att(605,1648).
att(1196,733).
att(396,1046).
att(925,537).
att(1184,596).
att(607,1674).
att(884,514).
att(928,530).
att(583,1552).
att(987,47).
att(897,399).
att(587,1532).
att(582,1455).
att(589,1534).
att(1181,630).
att(1189,628).
att(937,849).
att(912,963).
att(890,385).
att(416,1178).
att(856,387).
att(1007,214).
att(686,1236).
att(1007,189).
att(1011,210).
att(1199,740).
att(413,1173).
att(913,918).
att(991,53).
att(884,536).
att(941,819).
att(984,59).
att(410,1180).
att(987,57).
att(895,430).
att(607,1653).
att(603,1675).
att(892,405).
att(390,1051).
att(388,995).
att(1200,732).
att(388,994).
att(990,52).
att(910,956).
att(585,1454).
att(896,426).
att(909,874).
att(657,1235).
att(1001,905).
att(394,1077).
att(663,1241).
att(875,953).
att(663,1237).
att(588,1600).
att(878,558).
att(1195,802).
att(1195,800).
att(583,1602).
att(892,428).
att(926,912).
att(890,428).
att(877,961).
att(991,156).
att(1028,821).
att(587,1568).
att(397,1148).
att(1192,717).
att(601,1651).
att(1192,733).
att(1187,611).
att(1002,826).
att(859,426).
att(926,918).
att(588,1588).
att(876,750).
att(603,1737).
att(603,1717).
att(633,1257).
att(1028,849).
att(599,1650).
att(383,1033).
att(1181,641).
att(1182,643).
att(1181,664).
att(364,1023).
att(1161,30).
att(659,1451).
att(989,113).
att(588,1647).
att(1001,846).
att(1160,2).
att(392,1114).
att(396,1177).
att(897,492).
att(370,994).
att(366,1017).
att(991,218).
att(1160,41).
att(885,751).
att(583,1644).
att(883,746).
att(890,475).
att(990,208).
att(990,206).
att(983,149).
att(582,1600).
att(1001,776).
att(1001,775).
att(1019,718).
att(585,1584).
att(886,493).
att(1026,801).
att(360,936).
att(665,1434).
att(655,1288).
att(369,1022).
att(394,1170).
att(586,1583).
att(366,942).
att(586,1581).
att(657,1493).
att(1182,693).
att(388,1090).
att(929,755).
att(684,1511).
att(356,981).
att(362,994).
att(886,514).
att(681,1549).
att(360,996).
att(1165,57).
att(584,1627).
att(1165,56).
att(367,1048).
att(1058,592).
att(367,1033).
att(1160,61).
att(572,1466).
att(579,1560).
att(1164,52).
att(890,520).
att(974,821).
att(356,1027).
att(585,1626).
att(581,1643).
att(985,117).
att(368,998).
att(393,1176).
att(1184,712).
att(1184,711).
att(1188,702).
att(892,533).
att(1160,32).
att(686,1507).
att(859,515).
att(984,117).
att(576,1458).
att(863,1239).
att(859,522).
att(677,1234).
att(1186,697).
att(864,1222).
att(1190,738).
att(677,1233).
att(578,1464).
att(986,208).
att(1182,711).
att(983,121).
att(364,1094).
att(977,824).
att(1056,645).
att(854,542).
att(1059,629).
att(1165,69).
att(863,1253).
att(360,1110).
att(1184,777).
att(575,1530).
att(973,826).
att(366,1109).
att(953,957).
att(575,1534).
att(578,1601).
att(992,78).
att(1156,54).
att(570,1454).
att(589,1721).
att(859,548).
att(675,1447).
att(1181,738).
att(577,1556).
att(977,846).
att(1156,60).
att(673,1261).
att(951,753).
att(1154,61).
att(853,1291).
att(1061,617).
att(978,848).
att(1186,719).
att(366,1045).
att(1190,807).
att(992,76).
att(959,963).
att(366,1032).
att(978,842).
att(1166,28).
att(574,1583).
att(364,1169).
att(366,1148).
att(1063,705).
att(366,1146).
att(356,1091).
att(369,1120).
att(943,846).
att(341,931).
att(545,2012).
att(1135,21).
att(362,1141).
att(913,748).
att(573,1570).
att(1062,712).
att(947,842).
att(1062,709).
att(684,1268).
att(575,1583).
att(1167,39).
att(340,1029).
att(557,1926).
att(1150,80).
att(1158,72).
att(673,1303).
att(1060,690).
att(1063,672).
att(1181,800).
att(1181,798).
att(673,1293).
att(653,1439).
att(688,1248).
att(1055,625).
att(367,1090).
att(362,1077).
att(922,759).
att(1167,4).
att(547,1996).
att(947,769).
att(360,1071).
att(1057,680).
att(571,1531).
att(358,1109).
att(675,1312).
att(862,1295).
att(862,1301).
att(684,1433).
att(571,1644).
att(358,1122).
att(569,1460).
att(947,715).
att(1060,695).
att(675,1288).
att(652,1474).
att(967,755).
att(1056,708).
att(907,776).
att(332,1018).
att(577,1623).
att(332,1029).
att(1162,189).
att(1161,206).
att(677,1320).
att(341,1066).
att(573,1624).
att(688,1439).
att(341,1064).
att(1058,696).
att(572,1625).
att(935,806).
att(538,2048).
att(684,1437).
att(369,1173).
att(326,936).
att(574,1647).
att(974,870).
att(1150,154).
att(356,1168).
att(371,981).
att(1063,703).
att(978,977).
att(863,1301).
att(1125,9).
att(1055,705).
att(330,1027).
att(863,1315).
att(341,998).
att(909,799).
att(1165,213).
att(572,1633).
att(579,1626).
att(1057,704).
att(340,999).
att(137,1316).
att(92,1482).
att(521,1342).
att(567,943).
att(535,1363).
att(563,949).
att(560,870).
att(562,869).
att(569,909).
att(527,1421).
att(413,714).
att(135,1288).
att(560,894).
att(563,866).
att(137,1310).
att(555,1563).
att(562,905).
att(524,1342).
att(126,1232).
att(98,1549).
att(141,1224).
att(96,1510).
att(561,872).
att(98,1515).
att(137,1231).
att(131,1237).
att(144,1549).
att(535,1428).
att(519,1398).
att(128,1253).
att(135,1237).
att(604,1282).
att(413,799).
att(131,1232).
att(562,945).
att(126,1264).
att(88,1245).
att(604,1302).
att(521,1471).
att(89,1250).
att(84,1249).
att(605,1306).
att(88,1266).
att(423,821).
att(560,1026).
att(144,1251).
att(525,1499).
att(605,1323).
att(92,1272).
att(517,1496).
att(416,848).
att(410,898).
att(89,1435).
att(417,950).
att(394,724).
att(393,718).
att(523,1555).
att(420,871).
att(413,898).
att(131,1297).
att(144,1445).
att(607,1362).
att(410,820).
att(144,1262).
att(607,1370).
att(141,1297).
att(606,1350).
att(598,1298).
att(519,1538).
att(158,1223).
att(423,1003).
att(599,1422).
att(1030,941).
att(589,1282).
att(602,1392).
att(169,1230).
att(157,1251).
att(408,945).
att(141,1510).
att(1019,909).
att(1019,906).
att(413,975).
att(396,797).
att(158,1253).
att(423,947).
att(419,977).
att(159,1247).
att(408,977).
att(417,906).
att(605,1424).
att(605,1428).
att(1001,976).
att(158,1272).
att(600,1496).
att(397,820).
att(599,1498).
att(161,1270).
att(1003,950).
att(1030,869).
att(161,1245).
att(601,1497).
att(1030,873).
att(1024,901).
att(585,1286).
att(392,770).
att(416,1002).
att(1024,898).
att(1005,894).
att(410,935).
att(606,1499).
att(383,768).
att(397,824).
att(606,1471).
att(394,846).
att(602,1473).
att(1030,901).
att(1030,900).
att(130,1262).
att(601,1565).
att(393,851).
att(137,1248).
att(137,1268).
att(587,1365).
att(133,1270).
att(392,850).
att(583,1368).
att(141,1247).
att(586,1370).
att(588,1300).
att(386,828).
att(159,1301).
att(133,1449).
att(584,1326).
att(133,1441).
att(383,823).
att(589,1362).
att(139,1257).
att(388,821).
att(171,1290).
att(581,1346).
att(159,1288).
att(395,947).
att(360,795).
att(366,794).
att(383,973).
att(370,775).
att(586,1425).
att(369,776).
att(394,941).
att(393,949).
att(165,1312).
att(131,1507).
att(139,1484).
att(370,806).
att(395,906).
att(169,1315).
att(157,1221).
att(388,872).
att(393,344).
att(1287,1032).
att(395,346).
att(1281,1033).
att(587,873).
att(583,898).
att(383,376).
att(369,184).
att(383,351).
att(394,347).
att(393,375).
att(1283,993).
att(580,843).
att(586,827).
att(1280,936).
att(1279,930).
att(1284,1025).
att(370,232).
att(1284,1020).
att(369,235).
att(362,217).
att(370,256).
att(1287,1020).
att(578,849).
att(586,1024).
att(577,769).
att(158,1433).
att(1279,1151).
att(174,1447).
att(575,770).
att(572,775).
att(584,1008).
att(1285,1171).
att(1285,1178).
att(1311,936).
att(582,937).
att(571,722).
att(368,235).
att(585,909).
att(577,797).
att(577,795).
att(588,1003).
att(370,315).
att(366,232).
att(571,720).
att(163,1521).
att(580,977).
att(1281,1169).
att(163,1549).
att(1285,1088).
att(337,108).
att(1286,1074).
att(543,1313).
att(369,346).
att(570,769).
att(362,314).
att(1281,1094).
att(547,1323).
att(572,843).
att(538,1287).
att(579,823).
att(576,868).
att(341,250).
att(567,716).
att(567,728).
att(575,866).
att(340,258).
att(567,722).
att(541,1296).
att(326,112).
att(332,109).
att(338,217).
att(360,343).
att(579,869).
att(367,412).
att(366,343).
att(364,342).
att(557,1347).
att(569,767).
att(569,775).
att(562,718).
att(574,907).
att(566,806).
att(540,1427).
att(547,1390).
att(336,239).
att(340,312).
att(340,316).
att(338,253).
att(358,412).
att(566,716).
att(338,259).
att(565,714).
att(566,724).
att(573,949).
att(340,235).
att(547,1420).
att(563,714).
att(334,254).
att(546,1461).
att(521,1281).
att(563,843).
att(525,1282).
att(566,843).
att(1287,938).
att(561,840).
att(527,1319).
att(336,285).
att(538,1496).
att(326,234).
att(560,799).
att(566,773).
att(566,771).
att(574,1002).
att(340,280).
att(566,899).
att(338,343).
att(371,415).
att(332,375).
att(545,1557).
att(330,343).
att(565,870).
att(564,900).
att(341,415).
att(564,903).
att(567,904).
att(521,1328).
att(521,1325).
att(528,1308).
att(525,1325).
att(332,263).
att(562,849).
att(337,319).
att(545,1537).
att(336,373).
att(125,622).
att(1304,1091).
att(334,2101).
att(543,1002).
att(560,219).
att(230,1509).
att(248,1230).
att(337,2173).
att(523,774).
att(1294,1090).
att(336,2098).
att(88,956).
att(1306,1110).
att(96,926).
att(1300,1033).
att(133,622).
att(84,956).
att(562,219).
att(330,2130).
att(527,768).
att(90,951).
att(1302,1072).
att(246,1248).
att(419,111).
att(413,123).
att(326,2169).
att(220,1259).
att(519,822).
att(561,372).
att(89,746).
att(128,659).
att(334,2186).
att(92,746).
att(240,1295).
att(240,1299).
att(139,646).
att(220,1493).
att(1311,1176).
att(528,828).
att(562,313).
att(139,638).
att(528,827).
att(1306,1052).
att(1302,1047).
att(564,406).
att(521,873).
att(231,1272).
att(296,753).
att(1368,1067).
att(1370,1031).
att(566,424).
att(606,795).
att(222,1315).
att(23,1480).
att(89,688).
att(419,202).
att(423,181).
att(560,376).
att(535,826).
att(96,653).
att(606,724).
att(565,427).
att(519,904).
att(525,850).
att(227,1437).
att(408,217).
att(249,1301).
att(565,400).
att(527,868).
att(517,902).
att(1298,1144).
att(222,1225).
att(599,715).
att(231,1437).
att(1367,1017).
att(1307,1118).
att(1368,1023).
att(23,1509).
att(24,1519).
att(422,262).
att(421,313).
att(1308,1171).
att(519,906).
att(249,1316).
att(601,792).
att(88,926).
att(526,947).
att(606,794).
att(602,715).
att(560,404).
att(144,673).
att(417,233).
att(90,926).
att(223,1221).
att(224,1241).
att(1307,1169).
att(98,887).
att(86,885).
att(92,893).
att(98,857).
att(420,233).
att(135,913).
att(163,610).
att(601,848).
att(413,279).
att(423,372).
att(395,106).
att(603,846).
att(1321,1049).
att(244,1245).
att(410,261).
att(408,285).
att(1326,1071).
att(420,372).
att(242,1256).
att(165,646).
att(276,1245).
att(410,235).
att(125,750).
att(422,279).
att(417,280).
att(157,655).
att(1311,1054).
att(397,123).
att(1329,1048).
att(245,1259).
att(264,1290).
att(242,1262).
att(278,1247).
att(1311,1066).
att(275,1275).
att(141,957).
att(604,868).
att(1284,1175).
att(392,204).
att(240,1490).
att(1284,1174).
att(266,1297).
att(419,343).
att(1311,999).
att(241,1480).
att(245,1493).
att(397,258).
att(141,761).
att(413,372).
att(396,207).
att(1286,1179).
att(1317,1017).
att(1287,1171).
att(266,1315).
att(167,688).
att(1287,1176).
att(1286,1174).
att(1329,995).
att(603,902).
att(417,344).
att(397,187).
att(397,186).
att(274,1316).
att(1313,1029).
att(1323,1120).
att(588,786).
att(135,652).
att(588,794).
att(584,714).
att(1304,980).
att(244,1297).
att(1307,980).
att(584,722).
att(125,673).
att(277,1293).
att(133,864).
att(1300,1021).
att(249,1441).
att(130,855).
att(249,1476).
att(221,1515).
att(249,1474).
att(1328,1122).
att(125,889).
att(240,1228).
att(413,427).
att(1328,1116).
att(125,893).
att(600,867).
att(222,1549).
att(240,1224).
att(133,863).
att(413,415).
att(277,1301).
att(222,1509).
att(252,1490).
att(1304,1020).
att(603,978).
att(1300,931).
att(602,974).
att(224,1549).
att(408,429).
att(602,978).
att(397,236).
att(388,185).
att(601,1019).
att(1328,1141).
att(1304,940).
att(276,1226).
att(130,881).
att(601,1002).
att(601,1008).
att(396,282).
att(395,281).
att(588,849).
att(584,848).
att(245,1236).
att(1326,1116).
att(585,841).
att(601,935).
att(242,1233).
att(604,1005).
att(396,314).
att(244,1236).
att(252,1517).
att(583,768).
att(139,883).
att(390,315).
att(583,772).
att(587,847).
att(1329,1088).
att(582,794).
att(585,770).
att(1325,1144).
att(163,622).
att(1426,996).
att(264,1433).
att(386,2095).
att(171,965).
att(393,2058).
att(163,751).
att(1422,1018).
att(1426,997).
att(1287,1608).
att(1428,996).
att(288,1293).
att(580,178).
att(1424,1017).
att(1287,1624).
att(1347,1138).
att(599,402).
att(589,237).
att(1345,1176).
att(1429,995).
att(302,1270).
att(290,1297).
att(1280,1606).
att(1345,1169).
att(581,205).
att(607,425).
att(1278,1587).
att(1278,1586).
att(1344,1120).
att(1425,936).
att(397,2070).
att(274,1493).
att(1422,1027).
att(288,1314).
att(388,2028).
att(598,345).
att(394,2092).
att(388,2034).
att(386,2151).
att(1426,934).
att(1282,1600).
att(296,1288).
att(1342,1110).
att(1285,1568).
att(1283,1601).
att(587,284).
att(1284,1602).
att(1350,1143).
att(366,2012).
att(364,1997).
att(274,1486).
att(358,1929).
att(358,1937).
att(582,234).
att(589,261).
att(1285,1604).
att(585,236).
att(581,260).
att(1347,1094).
att(367,1923).
att(1284,1533).
att(304,1484).
att(386,2056).
att(304,1474).
att(1343,1045).
att(1286,1603).
att(1284,1535).
att(589,317).
att(1279,1535).
att(586,234).
att(294,1225).
att(275,1486).
att(1427,1074).
att(586,351).
att(1423,1110).
att(364,2035).
att(270,1309).
att(577,116).
att(368,2053).
att(171,673).
att(1428,1071).
att(1328,1589).
att(584,375).
att(1323,1531).
att(277,1482).
att(169,865).
att(268,1229).
att(574,99).
att(1311,1530).
att(369,2032).
att(388,2122).
att(1313,1455).
att(368,1978).
att(275,1515).
att(1285,1718).
att(368,1981).
att(393,2173).
att(165,860).
att(266,1234).
att(1429,1108).
att(360,1981).
att(174,887).
att(390,2170).
att(169,893).
att(1325,1589).
att(578,116).
att(589,351).
att(578,112).
att(580,319).
att(163,969).
att(577,180).
att(1424,1065).
att(270,1233).
att(577,187).
att(1278,1705).
att(572,182).
att(1329,1564).
att(572,186).
att(174,876).
att(1422,1050).
att(274,1232).
att(571,203).
att(268,1254).
att(1420,1068).
att(1343,1138).
att(1285,1703).
att(1280,1633).
att(577,209).
att(573,108).
att(1424,981).
att(360,2028).
att(1329,1462).
att(1278,1626).
att(157,761).
att(174,969).
att(1328,1452).
att(1317,1464).
att(369,2094).
att(264,1259).
att(541,799).
att(1363,1090).
att(90,1305).
att(573,251).
att(545,801).
att(1362,1144).
att(360,2151).
att(1349,1022).
att(540,806).
att(86,1320).
att(547,769).
att(1369,1168).
att(92,1303).
att(300,1437).
att(1366,1139).
att(94,1299).
att(578,310).
att(84,1228).
att(94,1320).
att(290,1549).
att(96,1305).
att(541,726).
att(545,721).
att(547,786).
att(370,2155).
att(571,178).
att(1363,1078).
att(88,1229).
att(578,375).
att(541,843).
att(296,1509).
att(1362,1095).
att(336,1971).
att(334,1978).
att(366,2096).
att(101,1517).
att(574,311).
att(89,1240).
att(577,313).
att(96,1228).
att(1370,1093).
att(1364,1064).
att(577,287).
att(1367,1092).
att(1363,1033).
att(340,1981).
att(1366,1094).
att(326,1923).
att(560,118).
att(1344,1045).
att(545,898).
att(577,343).
att(1347,1045).
att(292,1253).
att(573,322).
att(300,1236).
att(1349,1110).
att(572,321).
att(1281,1534).
att(358,2185).
att(358,2168).
att(1282,1460).
att(1342,1000).
att(1347,1052).
att(574,347).
att(337,2048).
att(336,2048).
att(1279,1458).
att(538,828).
att(579,322).
att(1341,1067).
att(294,1243).
att(1368,1176).
att(525,716).
att(555,867).
att(557,850).
att(1286,1470).
att(1346,981).
att(565,233).
att(332,2057).
att(1287,1470).
att(1363,1172).
att(340,2155).
att(528,714).
att(543,872).
att(1345,1004).
att(296,1447).
att(371,2059).
att(560,215).
att(1349,980).
att(1364,1170).
att(1349,996).
att(565,258).
att(336,2094).
att(1363,1112).
att(1347,1017).
att(2226,997).
att(604,18).
att(2227,996).
att(1502,1048).
att(1308,1721).
att(599,8).
att(2235,1177).
att(2237,1114).
att(2234,1180).
att(1365,1464).
att(1289,1676).
att(1500,1095).
att(2233,1174).
att(605,18).
att(1304,1723).
att(601,42).
att(1075,472).
att(523,115).
att(1298,1624).
att(2229,1148).
att(1304,1702).
att(603,7).
att(560,2007).
att(602,1).
att(2227,1025).
att(528,83).
att(524,119).
att(601,2).
att(1362,1464).
att(1366,1566).
att(1087,387).
att(416,1851).
att(527,122).
att(1501,980).
att(395,1787).
att(423,1956).
att(607,45).
att(1086,532).
att(1307,1609).
att(1086,531).
att(1393,1139).
att(1393,1114).
att(2238,1176).
att(606,78).
att(1294,1611).
att(1499,1027).
att(2223,1050).
att(421,1955).
att(197,382).
att(1080,542).
att(1371,1460).
att(1503,1000).
att(420,1876).
att(1304,1646).
att(195,401).
att(419,1899).
att(606,53).
att(1397,1138).
att(603,20).
att(410,1838).
att(198,401).
att(419,1907).
att(1393,1168).
att(194,380).
att(1497,936).
att(2237,1138).
att(193,379).
att(422,1941).
att(1076,529).
att(1294,1630).
att(2220,1000).
att(1300,1582).
att(197,398).
att(1391,1115).
att(190,387).
att(1289,1582).
att(600,11).
att(2222,1108).
att(1497,1144).
att(2222,1094).
att(599,43).
att(603,80).
att(1370,1616).
att(602,68).
att(421,2005).
att(197,426).
att(1499,1144).
att(1075,556).
att(392,1787).
att(196,452).
att(600,50).
att(1367,1570).
att(195,451).
att(1502,1169).
att(395,1831).
att(603,50).
att(1498,1074).
att(417,1930).
att(198,458).
att(599,49).
att(1496,1146).
att(421,1934).
att(602,77).
att(421,1932).
att(1369,1584).
att(1431,1004).
att(408,1958).
att(1087,475).
att(393,1825).
att(1473,1139).
att(196,470).
att(413,1953).
att(1498,1093).
att(1363,1531).
att(1497,1110).
att(1363,1529).
att(1501,1078).
att(607,117).
att(1502,1089).
att(198,474).
att(2218,1023).
att(1430,939).
att(1430,938).
att(1087,490).
att(1502,1090).
att(196,490).
att(2209,944).
att(191,471).
att(2226,1139).
att(191,472).
att(1363,1559).
att(607,148).
att(196,500).
att(1364,1559).
att(194,478).
att(2227,1169).
att(599,73).
att(605,147).
att(586,9).
att(1362,1534).
att(2216,946).
att(1392,1000).
att(2228,1139).
att(1313,1608).
att(1398,1069).
att(1398,1068).
att(198,522).
att(1329,1704).
att(582,12).
att(2213,1069).
att(1302,1560).
att(1391,1054).
att(2219,1180).
att(1321,1645).
att(2212,1018).
att(195,530).
att(2211,1020).
att(194,516).
att(168,380).
att(603,107).
att(1429,1175).
att(390,1833).
att(395,1909).
att(583,20).
att(2217,1069).
att(2228,1120).
att(1397,1000).
att(2217,1051).
att(581,26).
att(1421,1118).
att(1326,1642).
att(582,52).
att(1326,1646).
att(588,76).
att(386,1960).
att(581,50).
att(1313,1603).
att(2216,1098).
att(584,43).
att(1397,1023).
att(168,399).
att(193,536).
att(1392,939).
att(164,379).
att(358,1783).
att(1390,938).
att(397,1983).
att(1317,1642).
att(393,1932).
att(582,51).
att(162,399).
att(393,1930).
att(2209,1034).
att(199,432).
att(160,403).
att(2211,1066).
att(1326,1569).
att(367,1795).
att(584,57).
att(1323,1606).
att(587,45).
att(392,1874).
att(1427,1170).
att(1397,930).
att(200,450).
att(580,58).
att(166,414).
att(1329,1585).
att(173,437).
att(1397,944).
att(589,82).
att(200,460).
att(585,43).
att(2213,1033).
att(2216,1050).
att(1426,1116).
att(585,152).
att(581,69).
att(362,1815).
att(2212,1072).
att(2287,936).
att(1393,1090).
att(200,470).
att(1298,1600).
att(1501,946).
att(392,2007).
att(1500,930).
att(2210,1091).
att(587,83).
att(1472,1004).
att(586,152).
att(388,2003).
att(1289,1603).
att(1294,1584).
att(582,77).
att(368,1815).
att(160,449).
att(1323,1736).
att(2218,1090).
att(360,1831).
att(1307,1600).
att(2214,1074).
att(1300,1529).
att(2217,1168).
att(586,65).
att(2210,1094).
att(162,473).
att(1391,1090).
att(2281,1029).
att(356,1836).
att(362,1834).
att(1328,1721).
att(2280,1020).
att(367,1900).
att(588,208).
att(160,478).
att(2215,1171).
att(1298,1556).
att(2211,1112).
att(544,595).
att(370,1872).
att(1289,1560).
att(370,1877).
att(575,17).
att(1311,1649).
att(170,514).
att(2209,1139).
att(162,498).
att(2209,1138).
att(2288,1054).
att(1321,1677).
att(2209,1148).
att(1395,1049).
att(1302,1556).
att(581,156).
att(1306,1556).
att(1298,1458).
att(1393,1054).
att(177,379).
att(370,1906).
att(587,216).
att(1307,1566).
att(2218,1178).
att(2210,1141).
att(1395,1093).
att(2210,1148).
att(1317,1673).
att(1537,1151).
att(1427,1568).
att(1563,1072).
att(1123,399).
att(356,1349).
att(1557,1095).
att(1563,1090).
att(1281,2101).
att(547,4).
att(1278,2153).
att(1282,2122).
att(1311,1924).
att(358,1344).
att(585,1934).
att(1423,1528).
att(1285,2155).
att(1343,1650).
att(1123,434).
att(1427,1602).
att(1130,456).
att(1121,430).
att(1423,1530).
att(1565,1098).
att(1328,1926).
att(1121,437).
att(1561,1072).
att(358,1371).
att(358,1372).
att(1537,1098).
att(2242,1004).
att(337,1283).
att(1536,1092).
att(1123,454).
att(1278,2094).
att(538,34).
att(1538,1095).
att(1426,1589).
att(1117,475).
att(364,1498).
att(364,1497).
att(582,2001).
att(1283,2032).
att(1346,1676).
att(1126,500).
att(1461,1173).
att(1279,2049).
att(1555,993).
att(1349,1649).
att(576,1843).
att(1563,1068).
att(1278,2033).
att(370,1497).
att(1428,1566).
att(1342,1702).
att(546,30).
att(1282,2079).
att(358,1423).
att(1344,1672).
att(569,1793).
att(555,12).
att(356,1467).
att(1429,1655).
att(1136,533).
att(1392,1454).
att(545,61).
att(1106,378).
att(576,1868).
att(1420,1678).
att(2244,1034).
att(1329,2094).
att(568,1800).
att(2243,1050).
att(1126,536).
att(543,62).
att(567,1799).
att(579,1941).
att(555,39).
att(1313,1977).
att(1426,1703).
att(555,34).
att(1325,2027).
att(555,41).
att(1428,1678).
att(1136,558).
att(1105,399).
att(358,1498).
att(543,16).
att(334,1317).
att(1117,534).
att(338,1311).
att(574,1900).
att(1421,1582).
att(2245,1072).
att(1100,409).
att(2242,1108).
att(1123,534).
att(1104,433).
att(1130,554).
att(562,1800).
att(1100,407).
att(540,79).
att(2244,1090).
att(1555,1120).
att(567,1813).
att(1323,1975).
att(1539,1175).
att(538,79).
att(1105,438).
att(1422,1627).
att(1117,548).
att(1117,559).
att(546,64).
att(2245,1108).
att(1319,2000).
att(1421,1600).
att(1557,1088).
att(577,1956).
att(1328,1975).
att(330,1300).
att(1100,434).
att(1321,2002).
att(1323,1998).
att(1102,438).
att(1278,2100).
att(2244,1093).
att(1538,1115).
att(547,77).
att(1311,2006).
att(575,1960).
att(574,1953).
att(1430,1071).
att(1461,1049).
att(541,152).
att(2246,1072).
att(338,1398).
att(1344,1528).
att(1469,1092).
att(561,1843).
att(2230,946).
att(1097,450).
att(544,124).
att(1349,1607).
att(1364,1721).
att(1465,1073).
att(1465,1071).
att(1344,1589).
att(340,1501).
att(1287,1923).
att(563,1820).
att(1368,1653).
att(2245,1140).
att(2248,1094).
att(1467,1046).
att(1467,1050).
att(330,1423).
att(330,1422).
att(1347,1556).
att(2241,1148).
att(1102,475).
att(1431,1111).
att(1346,1552).
att(1371,1726).
att(1459,1047).
att(1430,1031).
att(1465,1066).
att(2238,1021).
att(326,1501).
att(1100,498).
att(2232,980).
att(560,1841).
att(2235,1052).
att(541,214).
att(1499,1178).
att(332,1502).
att(555,122).
att(1364,1623).
att(1498,1174).
att(1371,1674).
att(527,54).
att(540,216).
att(1349,1556).
att(2247,1175).
att(527,55).
att(2236,1066).
att(564,1909).
att(1341,1466).
att(1099,491).
att(1104,533).
att(2245,1174).
att(535,2).
att(2239,1120).
att(1099,496).
att(1502,1173).
att(1102,512).
att(1364,1642).
att(337,1503).
att(1498,1114).
att(1432,1052).
att(330,1496).
att(545,189).
att(565,1908).
att(545,188).
att(523,32).
att(1431,1054).
att(336,1497).
att(1431,1052).
att(341,1431).
att(2236,993).
att(2243,1171).
att(564,1840).
att(521,26).
att(523,52).
att(521,44).
att(1555,1022).
att(423,1829).
att(1104,554).
att(521,49).
att(1467,1177).
att(1281,2047).
att(535,62).
att(417,1795).
att(2231,1047).
att(1463,1139).
att(1538,1069).
att(1101,550).
att(1538,1068).
att(527,73).
att(413,1787).
att(561,1958).
att(1076,381).
att(1278,2049).
att(563,1873).
att(1345,1642).
att(2238,996).
att(1342,1582).
att(1345,1644).
att(2235,1034).
att(525,56).
att(557,189).
att(2238,981).
att(528,48).
att(1079,414).
att(1563,1020).
att(1285,2047).
att(1537,980).
att(330,1555).
att(1459,1120).
att(1567,1023).
att(2234,1047).
att(561,1872).
att(1102,554).
att(524,52).
att(2229,1064).
att(564,1872).
att(2236,1168).
att(521,63).
att(1280,1937).
att(1282,2012).
att(1344,1581).
att(1469,1169).
att(525,64).
att(2231,1074).
att(560,1910).
att(2227,942).
att(525,66).
att(1459,1151).
att(1287,1976).
att(605,2).
att(605,1).
att(1538,1025).
att(527,147).
att(517,66).
att(1080,451).
att(1555,942).
att(1278,1996).
att(1281,1982).
att(2229,1073).
att(1285,2008).
att(1079,460).
att(1343,1531).
att(1365,1736).
att(1346,1605).
att(1463,1108).
att(517,76).
att(1349,1583).
att(416,1826).
att(565,1983).
att(1459,1072).
att(523,78).
att(2233,1077).
att(523,1874).
att(1501,1608).
att(526,1959).
att(419,1306).
att(1364,1971).
att(560,1467).
att(1300,2167).
att(422,1348).
att(524,1953).
att(1430,1460).
att(421,1370).
att(604,1785).
att(567,1565).
att(1500,1643).
att(419,1319).
att(1304,2168).
att(525,1899).
att(519,1839).
att(1473,1611).
att(561,1461).
att(413,1344).
att(600,1829).
att(1368,2002).
att(422,1420).
att(1368,2000).
att(525,1940).
att(525,2011).
att(1307,2124).
att(408,1350).
att(601,1826).
att(604,1815).
att(1500,1603).
att(1500,1602).
att(600,1799).
att(1502,1604).
att(1306,2152).
att(525,1961).
att(1370,2012).
att(416,1369).
att(420,1343).
att(601,1797).
att(1473,1570).
att(1430,1581).
att(1369,2128).
att(1430,1584).
att(599,1814).
att(410,1395).
att(421,1497).
att(1471,1603).
att(604,1835).
att(1501,1736).
att(423,1393).
att(1501,1725).
att(600,1818).
att(410,1342).
att(422,1391).
att(606,1837).
att(1371,2131).
att(605,1845).
att(1348,1925).
att(420,1393).
att(1350,1939).
att(1501,1648).
att(607,1872).
att(397,1298).
att(422,1565).
att(1473,1719).
att(397,1369).
att(1430,1526).
att(1430,1531).
att(417,1538).
att(605,1872).
att(1155,381).
att(1431,1531).
att(1496,1649).
att(604,1905).
att(1153,381).
att(392,1287).
att(423,1467).
att(397,1313).
att(1159,380).
att(397,1319).
att(601,1832).
att(1321,2122).
att(1395,1643).
att(1321,2098).
att(1391,1581).
att(587,1822).
att(1306,1982).
att(1311,2125).
att(1398,1645).
att(1157,401).
att(1311,2122).
att(383,1367).
att(602,1928).
att(1317,2171).
att(605,1932).
att(1313,2098).
att(1304,2000).
att(392,1298).
att(1304,1998).
att(1396,1583).
att(1396,1582).
att(419,1565).
att(1329,2104).
att(1323,2126).
att(1329,2125).
att(1398,1570).
att(1311,2128).
att(1298,1925).
att(601,1868).
att(1423,1737).
att(601,2007).
att(1321,2057).
att(1421,1674).
att(584,1815).
att(395,1398).
att(1398,1604).
att(383,1423).
att(397,1502).
att(394,1392).
att(1155,472).
att(1147,453).
att(393,1393).
att(1425,1649).
att(1425,1648).
att(1153,478).
att(1395,1526).
att(1311,2095).
att(1311,2092).
att(1397,1530).
att(601,1934).
att(388,1348).
att(1304,2074).
att(1496,1553).
att(584,1835).
att(367,1317).
att(1306,2070).
att(587,1899).
att(583,1900).
att(1498,1552).
att(1499,1562).
att(1147,491).
att(1499,1560).
att(1498,1558).
att(1391,1720).
att(1371,1929).
att(1392,1705).
att(393,1501).
att(1307,2095).
att(1142,498).
att(383,1396).
att(1302,2074).
att(1302,2073).
att(586,1837).
att(1155,537).
att(393,1496).
att(1396,1702).
att(356,1308).
att(1392,1611).
att(1394,1616).
att(1149,518).
att(588,1941).
att(572,1793).
att(1372,1650).
att(1503,1466).
att(1390,1609).
att(1128,382).
att(574,1789).
att(1153,549).
att(580,1870).
att(388,1555).
att(1391,1678).
att(1145,534).
att(582,1872).
att(1145,536).
att(1153,548).
att(1159,548).
att(388,1431).
att(1391,1643).
att(1323,2186).
att(1149,533).
att(1394,1628).
att(396,1538).
att(1321,2187).
att(1313,2171).
att(1134,426).
att(1294,2053).
att(577,1279).
att(1565,1672).
att(576,1284).
att(392,1005).
att(1323,179).
att(1567,1650).
att(1428,2070).
att(369,819).
att(1311,184).
att(1420,2092).
att(582,1422).
att(1286,402).
att(393,1003).
att(1420,2047).
att(362,806).
att(579,1287).
att(583,1398).
att(578,1278).
att(587,1472).
att(1321,203).
att(358,790).
att(1329,184).
att(582,1459).
att(1283,374).
att(1557,1645).
att(577,1304).
att(367,900).
att(576,1307).
att(1311,123).
att(584,1561).
att(1282,322).
att(586,1557).
att(1555,1612).
att(574,1294).
att(1311,112).
att(1557,1581).
att(577,1311).
att(1282,279).
att(1421,2000).
att(1343,2096).
att(362,849).
att(370,894).
att(572,1317).
att(1567,1632).
att(1347,2186).
att(369,894).
att(366,821).
att(1420,1977).
att(1282,347).
att(1278,281).
att(1281,374).
att(1304,112).
att(358,851).
att(571,1371).
att(1372,2047).
att(1308,111).
att(1329,351).
att(1304,109).
att(1396,2049).
att(544,1828).
att(572,1342).
att(1306,99).
att(547,1814).
att(546,1813).
att(366,950).
att(546,1815).
att(1392,2000).
att(371,722).
att(368,866).
att(1423,2100).
att(582,1537).
att(1395,1979).
att(1323,314).
att(581,1536).
att(1311,316).
att(1394,2010).
att(543,1789).
att(546,1822).
att(574,1363).
att(1372,2035).
att(541,1846).
att(577,1393).
att(330,794).
att(1424,2152).
att(330,799).
att(1328,286).
att(1329,310).
att(1425,2153).
att(1328,313).
att(567,1283).
att(1423,2074).
att(356,973).
att(356,979).
att(545,1817).
att(1422,2070).
att(540,1824).
att(545,1814).
att(330,716).
att(1428,2126).
att(1311,257).
att(1429,2131).
att(341,771).
att(575,1421).
att(1325,317).
att(578,1390).
att(543,1820).
att(541,1900).
att(1561,1460).
att(566,1323).
att(326,848).
att(562,1287).
att(573,1497).
att(545,1903).
att(544,1873).
att(1471,1676).
att(544,1875).
att(1281,183).
att(543,1901).
att(547,1872).
att(1278,201).
att(567,1307).
att(1471,1705).
att(546,1906).
att(571,1391).
att(371,826).
att(1344,2050).
att(1364,2167).
att(574,1501).
att(1342,1980).
att(1344,2048).
att(337,849).
att(1461,1643).
att(1286,203).
att(576,1432).
att(371,973).
att(1342,2008).
att(1431,1608).
att(338,870).
att(1286,123).
att(1346,1982).
att(1469,1633).
att(562,1304).
att(538,1953).
att(544,1928).
att(1365,2125).
att(1350,2047).
att(543,1953).
att(336,850).
att(1471,1642).
att(1364,2152).
att(1465,1581).
att(332,820).
att(528,1793).
att(338,905).
att(541,1874).
att(1368,2124).
att(555,1907).
att(1430,1630).
att(330,899).
att(1471,1586).
att(340,868).
att(1367,2174).
att(1344,1980).
att(1350,1976).
att(336,906).
att(1345,2124).
att(340,1001).
att(560,1341).
att(543,2007).
att(334,908).
att(1347,2100).
att(1565,1570).
att(371,1008).
att(337,937).
att(1283,311).
att(1349,2167).
att(1421,1925).
att(1348,2186).
att(1278,312).
att(546,2005).
att(1280,253).
att(528,1812).
att(1285,316).
att(326,873).
att(1347,2126).
att(1463,1737).
att(1557,1531).
att(1286,287).
att(330,868).
att(555,1911).
att(1278,237).
att(545,1984).
att(1278,219).
att(561,1344).
att(341,945).
att(544,2013).
att(330,948).
att(1279,239).
att(1345,2107).
att(1539,1582).
att(1561,1569).
att(1342,2128).
att(564,1472).
att(1348,2126).
att(1563,1534).
att(1348,2153).
att(1284,256).
att(416,1278).
att(1538,1605).
att(1282,184).
att(1430,1726).
att(1557,1466).
att(521,1850).
att(1461,1678).
att(1349,2073).
att(557,1985).
att(1463,1702).
att(337,1028).
att(524,1840).
att(1467,1721).
att(1305,981).
att(1299,981).
att(1368,314).
att(1465,1997).
att(1301,1029).
att(1318,1112).
att(1473,2174).
att(1266,1646).
att(1295,1025).
att(1247,1581).
att(1549,2035).
att(1295,1018).
att(1303,999).
att(1305,1023).
att(1305,1004).
att(1315,1143).
att(1510,1997).
att(1315,1168).
att(1362,251).
att(1510,1998).
att(1519,1982).
att(1299,1018).
att(1368,219).
att(1367,233).
att(1299,931).
att(1318,1141).
att(1314,1072).
att(1469,1937).
att(1513,1996).
att(1366,317).
att(1496,2131).
att(1270,1649).
att(1298,424).
att(1363,184).
att(1305,1049).
att(1496,2091).
att(1511,2034).
att(1253,1452).
att(1430,1925).
att(1515,2014).
att(1301,1070).
att(1369,259).
att(1503,2057).
att(1290,996).
att(1297,1051).
att(1251,1458).
att(1268,1705).
att(1275,1673).
att(1272,1675).
att(1300,343).
att(1307,415).
att(1507,2049).
att(1503,2094).
att(1247,1630).
att(1502,2094).
att(1295,1000).
att(1295,993).
att(1362,181).
att(1371,255).
att(1362,186).
att(1371,254).
att(1368,402).
att(1510,2070).
att(1292,1095).
att(1523,1925).
att(1234,1528).
att(1484,1933).
att(1346,182).
att(1299,1088).
att(1235,1535).
att(1253,1600).
att(1513,2074).
att(1287,722).
att(1347,187).
att(1362,400).
att(1290,1049).
att(1860,1766).
att(1268,1736).
att(1248,1721).
att(1510,2056).
att(1465,2057).
att(1350,256).
att(1287,720).
att(1362,429).
att(1510,2073).
att(1517,2128).
att(1299,1093).
att(1341,111).
att(1299,1095).
att(1511,2089).
att(1341,106).
att(1369,321).
att(1301,1092).
att(1368,343).
att(1471,2032).
att(1513,2094).
att(1509,2034).
att(1371,400).
att(1549,2058).
att(1367,412).
att(1853,1767).
att(1432,2095).
att(1505,2033).
att(1248,1649).
att(1347,202).
att(1549,2071).
att(1498,2168).
att(1856,1760).
att(1511,2125).
att(1253,1632).
att(1253,1630).
att(1513,2173).
att(1499,2171).
att(1341,116).
att(1476,1924).
att(1432,2032).
att(1511,2128).
att(1477,1931).
att(1252,1584).
att(1499,2098).
att(1509,2126).
att(1367,281).
att(1474,1929).
att(1503,2170).
att(1463,1996).
att(1480,1931).
att(1549,2107).
att(1295,1088).
att(1499,2101).
att(1471,1972).
att(1549,2123).
att(1471,1976).
att(1473,1926).
att(1484,2028).
att(1253,1683).
att(1478,2050).
att(1474,2054).
att(1500,1925).
att(1298,259).
att(1480,2031).
att(1242,1466).
att(1398,2131).
att(1306,234).
att(1394,2059).
att(1242,1454).
att(1482,2050).
att(1482,2049).
att(1472,1997).
att(1255,1678).
att(1252,1683).
att(1252,1681).
att(1299,1176).
att(1505,2098).
att(1291,1151).
att(1509,2125).
att(1294,260).
att(1305,1171).
att(1289,183).
att(1307,251).
att(1477,2090).
att(1252,1719).
att(1395,2089).
att(1296,205).
att(1223,1560).
att(1232,1649).
att(1221,1560).
att(1306,180).
att(1329,429).
att(1394,2032).
att(1255,1725).
att(1294,182).
att(1252,1651).
att(1392,2053).
att(1238,1560).
att(1421,2186).
att(1304,204).
att(1329,319).
att(1304,203).
att(1306,215).
att(1304,201).
att(1242,1554).
att(1250,1702).
att(1300,118).
att(1476,2053).
att(1300,114).
att(1394,2053).
att(1236,1460).
att(1255,1648).
att(1240,1564).
att(1289,109).
att(1238,1568).
att(1497,2052).
att(2043,1766).
att(1223,1604).
att(1367,209).
att(2036,1762).
att(1304,372).
att(1393,2168).
att(1241,1602).
att(1473,2047).
att(1232,1721).
att(1480,2128).
att(1306,351).
att(1482,2056).
att(1289,284).
att(1498,1972).
att(1434,1975).
att(1392,2123).
att(1304,282).
att(1397,2186).
att(1221,1633).
att(1439,1979).
att(1472,2053).
att(1390,2104).
att(1476,2125).
att(1237,1644).
att(1237,1646).
att(1478,2167).
att(1443,1979).
att(1394,2126).
att(1300,219).
att(1443,1978).
att(1499,1927).
att(1493,1978).
att(1499,1937).
att(1523,2174).
att(1395,2169).
att(1473,1976).
att(1523,2170).
att(1523,2186).
att(1427,343).
att(1391,116).
att(1372,211).
att(1424,373).
att(1242,1151).
att(1236,1095).
att(1423,318).
att(1439,1531).
att(1557,2124).
att(1325,819).
att(1435,1562).
att(1557,2098).
att(1242,1077).
att(1425,262).
att(1437,1532).
att(1493,1607).
att(1240,1093).
att(1236,1049).
att(1241,1093).
att(1490,1533).
att(1484,1717).
att(1477,1674).
att(1490,1529).
att(1325,840).
att(1230,981).
att(1242,1175).
att(1433,1570).
att(1321,774).
att(1284,1002).
att(1437,1644).
att(1425,310).
att(1488,1645).
att(1428,279).
att(1421,314).
att(1228,1020).
att(1326,776).
att(1229,938).
att(1317,786).
att(1226,942).
att(1226,940).
att(1284,906).
att(1328,767).
att(1241,1143).
att(1536,2171).
att(1222,1071).
att(1311,799).
att(1326,1028).
att(1326,1005).
att(1309,995).
att(1262,1454).
att(1304,770).
att(1328,1030).
att(1264,1462).
att(1437,1702).
att(1289,806).
att(1237,1177).
att(1439,1611).
att(1317,1028).
att(1441,1677).
att(1229,1000).
att(1302,799).
att(1304,786).
att(1393,254).
att(1397,237).
att(1230,1066).
att(1488,1611).
att(1236,1138).
att(1311,949).
att(1394,258).
att(1241,1177).
att(1441,1608).
att(1229,999).
att(1310,1032).
att(1257,1556).
att(1437,1718).
att(1451,1529).
att(1394,179).
att(1420,427).
att(1307,728).
att(1395,184).
att(1262,1560).
att(1321,902).
att(1443,1656).
att(1226,1047).
att(1262,1552).
att(1310,1070).
att(1265,1516).
att(1467,2170).
att(1257,1604).
att(1345,284).
att(1426,114).
att(1279,768).
att(1230,1113).
att(1244,1541).
att(1310,1073).
att(1536,2035).
att(1283,841).
att(1267,1512).
att(1316,940).
att(1348,373).
att(1276,1508).
att(1285,822).
att(1228,1141).
att(1276,1481).
att(1538,2055).
att(1341,280).
att(1256,1604).
att(1447,1587).
att(1265,1541).
att(1435,1718).
att(1536,1980).
att(1433,1726).
att(1257,1530).
att(1310,1110).
att(1469,2123).
att(1231,1146).
att(1286,843).
att(1231,1140).
att(1286,847).
att(1280,790).
att(1224,1109).
att(1276,1547).
att(1432,2171).
att(1469,2124).
att(1225,1110).
att(1434,1719).
att(1281,849).
att(1287,840).
att(1341,314).
att(1280,724).
att(1539,1925).
att(1345,219).
att(1463,2071).
att(1257,1643).
att(1224,1175).
att(1259,1612).
att(1270,1452).
att(1432,2098).
att(1261,1633).
att(1346,235).
att(1314,1023).
att(1459,2154).
att(1277,1339).
att(1344,314).
att(1262,1608).
att(1318,995).
att(1345,259).
att(1281,720).
att(1231,1175).
att(1244,1387).
att(1224,1120).
att(1259,1632).
att(1322,995).
att(1430,2128).
att(1445,1608).
att(1224,1170).
att(1459,2059).
att(1243,1458).
att(1264,1653).
att(1423,260).
att(1282,973).
att(1243,1452).
att(1275,1531).
att(1244,1263).
att(1270,1529).
att(1287,908).
att(1272,1532).
att(1563,2071).
att(1259,1651).
att(1565,2056).
att(1287,937).
att(1329,795).
att(1261,1676).
att(1312,1069).
att(1328,799).
att(1317,801).
att(1309,1180).
att(1310,1176).
att(1282,867).
att(1536,2072).
att(1343,319).
att(1325,726).
att(1248,1464).
att(1422,181).
att(1536,2056).
att(1249,1466).
att(1326,724).
att(1428,251).
att(1224,1173).
att(1266,1454).
att(1279,850).
att(1310,1175).
att(1243,1529).
att(1277,1453).
att(1285,872).
att(1345,344).
att(1421,114).
att(1344,342).
att(1324,1148).
att(1322,1170).
att(1343,373).
att(1278,904).
att(1567,2031).
att(1341,318).
att(1269,1487).
att(1279,904).
att(1268,1607).
att(1279,874).
att(1285,905).
att(1243,1559).
att(1264,1717).
att(1557,1981).
att(1270,1605).
att(1288,1046).
att(1884,1762).
att(1344,373).
att(1429,99).
att(1244,1512).
att(1279,844).
att(1281,819).
att(1322,1088).
att(1346,372).
att(1346,377).
att(1312,1046).
att(1261,1673).
att(1567,2051).
att(1281,905).
att(1247,1553).
att(1288,1033).
att(1327,1072).
att(1367,979).
att(1459,184).
att(1270,1047).
att(1366,975).
att(1249,1064).
att(1513,1468).
att(1266,1070).
att(1370,947).
att(1549,1564).
att(1257,1176).
att(1248,998).
att(1461,215).
att(1362,894).
att(1499,321).
att(1467,183).
att(1502,415).
att(1272,1070).
att(1469,187).
att(1370,978).
att(1459,185).
att(1350,728).
att(1501,322).
att(1249,1110).
att(1368,902).
att(1497,373).
att(1469,202).
att(1473,402).
att(1370,869).
att(1369,905).
att(1505,1556).
att(1366,850).
att(1431,178).
att(1505,1554).
att(1549,1602).
att(1248,1048).
att(1275,1111).
att(1249,1032).
att(1249,1034).
att(1467,123).
att(1469,108).
att(1499,281).
att(1370,905).
att(1365,849).
att(1471,118).
att(1549,1533).
att(1496,352).
att(1496,349).
att(1369,824).
att(1473,322).
att(1517,1646).
att(1249,1169).
att(1349,902).
att(1266,1116).
att(1513,1632).
att(1245,1169).
att(1348,904).
att(1280,1286).
att(1539,209).
att(1247,1091).
att(1517,1628).
att(1249,1078).
att(1344,845).
att(1283,1281).
att(1507,1604).
att(1266,1073).
att(1266,1088).
att(1515,1604).
att(1431,374).
att(1248,1077).
att(1510,1607).
att(1350,828).
att(1341,792).
att(1367,1003).
att(1365,945).
att(1253,1064).
att(1521,1468).
att(1762,218).
att(1363,1003).
att(1432,284).
att(1341,715).
att(1272,1178).
att(1511,1647).
att(1253,997).
att(1272,1180).
att(1245,1114).
att(1509,1630).
att(1247,1140).
att(1371,1028).
att(1233,940).
att(1343,714).
att(1233,946).
att(1243,1140).
att(1396,424).
att(1252,1094).
att(1396,412).
att(1253,1098).
att(1473,184).
att(1478,1558).
att(1394,319).
att(1486,1526).
att(1300,894).
att(1472,259).
att(1480,1558).
att(1482,1562).
att(1255,1110).
att(1511,1656).
att(1300,819).
att(1308,870).
att(1250,1067).
att(1390,347).
att(1397,345).
att(1505,1624).
att(1500,116).
att(1304,824).
att(1296,841).
att(1476,1534).
att(1240,942).
att(1521,1582).
att(1252,1072).
att(1234,1111).
att(1294,769).
att(1232,1093).
att(1253,1091).
att(1480,1534).
att(1233,1034).
att(1306,846).
att(1521,1600).
att(1254,1091).
att(1482,1531).
att(1222,1029).
att(1232,1113).
att(1367,841).
att(1474,1647).
att(1232,1138).
att(1370,819).
att(1236,1022).
att(1362,843).
att(1363,801).
att(1363,799).
att(1486,1628).
att(1496,229).
att(1362,792).
att(1250,1118).
att(1476,1606).
att(1370,849).
att(1289,906).
att(1482,1585).
att(1240,1020).
att(1369,770).
att(1255,1139).
att(1222,1070).
att(1441,1566).
att(1363,724).
att(1500,232).
att(1474,1675).
att(1364,718).
att(1433,1458).
att(1308,1028).
att(1437,1468).
att(1437,1464).
att(1364,714).
att(1370,775).
att(1296,909).
att(1304,1008).
att(1477,1623).
att(1490,1455).
att(1393,412).
att(1366,726).
att(1394,415).
att(1500,251).
att(1368,715).
att(1289,872).
att(1368,714).
att(1370,799).
att(1488,1460).
att(1302,947).
att(1371,799).
att(1477,1625).
att(1434,936).
att(1395,845).
att(1434,938).
att(1302,1286).
att(1425,1001).
att(1521,1176).
att(1521,1172).
att(1425,1028).
att(1523,1138).
att(1398,840).
att(1392,793).
att(1480,1143).
att(1427,1028).
att(1424,908).
att(1437,940).
att(1394,795).
att(1482,1072).
att(1391,776).
att(1423,1001).
att(1488,931).
att(1523,1170).
att(1477,1088).
att(1420,948).
att(1425,973).
att(1439,997).
att(1428,947).
att(1426,1005).
att(1398,799).
att(1474,1116).
att(1565,425).
att(1521,1180).
att(1486,1179).
att(1443,1098).
att(1435,1046).
att(1493,1090).
att(1502,716).
att(1397,975).
att(1398,949).
att(1490,1098).
att(1395,908).
att(1396,851).
att(1443,1031).
att(1439,1052).
att(1439,1069).
att(1473,726).
att(1472,721).
att(1372,977).
att(1264,938).
att(1264,939).
att(1397,894).
att(1300,1326).
att(1445,934).
att(1289,1321).
att(1398,894).
att(1394,820).
att(1398,905).
att(1437,1077).
att(1296,1284).
att(1451,942).
att(1307,1319).
att(1343,948).
att(1433,1122).
att(1264,981).
att(1437,1178).
att(1563,234).
att(1349,1008).
att(1425,797).
att(1445,998).
att(1434,1116).
att(1342,941).
att(1429,771).
att(1428,769).
att(1423,714).
att(1536,229).
att(1463,424).
att(1561,250).
att(1350,943).
att(1463,318).
att(1257,1054).
att(1344,866).
att(1557,201).
att(1261,1069).
att(1429,728).
att(1344,949).
att(1461,377).
att(1262,1064).
att(1461,351).
att(1343,823).
att(1451,1045).
att(1538,182).
att(1341,904).
att(1256,1000).
att(1257,1108).
att(1451,1146).
att(1565,319).
att(1424,901).
att(1555,344).
att(1423,825).
att(1557,263).
att(1565,374).
att(1427,898).
att(1259,1046).
att(1261,1046).
att(1311,1317).
att(1555,349).
att(1420,825).
att(1264,1118).
att(1257,1168).
att(1557,316).
att(1317,1278).
att(1248,1022).
att(1451,1171).
att(1557,286).
att(1319,1283).
att(1536,373).
att(1245,944).
att(1266,1025).
att(1245,930).
att(1425,846).
att(1422,770).
att(1451,1120).
att(1429,848).
att(1567,287).
att(1424,767).
att(1275,1004).
att(1567,310).
att(1517,973).
att(1523,721).
att(1444,1867).
att(1578,405).
att(1252,255).
att(1507,872).
att(1577,384).
att(1235,178).
att(1342,1321).
att(1339,1407).
att(1598,556).
att(1456,2046).
att(1591,533).
att(1295,2095).
att(1448,1867).
att(1590,530).
att(1268,427).
att(1572,378).
att(1491,1777).
att(1444,2038).
att(1461,847).
att(1571,391).
att(1519,851).
att(1578,432).
att(1463,848).
att(1573,389).
att(1347,1326).
att(1232,114).
att(1349,1306).
att(1268,318).
att(1438,1796).
att(1346,1317).
att(1343,1284).
att(1295,2034).
att(1590,553).
att(1295,2027).
att(1459,825).
att(1444,1852).
att(1491,1798).
att(1291,2055).
att(1431,894).
att(1453,2043).
att(1575,437).
att(1333,1335).
att(1459,773).
att(1499,1008).
att(1349,1319).
att(1480,806).
att(1235,251).
att(1579,452).
att(1290,2070).
att(1457,1896).
att(1254,310).
att(1292,2138).
att(1492,1807).
att(1498,907).
att(1517,935).
att(1235,257).
att(1496,937).
att(1498,937).
att(1486,799).
att(1247,400).
att(1250,257).
att(1503,1005).
att(1509,866).
att(1491,1801).
att(1494,1805).
att(1482,722).
att(1549,941).
att(1250,255).
att(1491,1974).
att(1505,869).
att(1543,1333).
att(1561,772).
att(1252,375).
att(1444,1802).
att(1540,1355).
att(1555,797).
att(1463,945).
att(1541,1351).
att(1463,943).
att(1467,1028).
att(1509,1024).
att(1250,262).
att(1476,775).
att(1565,773).
att(1474,770).
att(1509,1019).
att(1476,776).
att(1291,2124).
att(1457,1805).
att(1255,279).
att(1571,476).
att(1484,849).
att(1299,2168).
att(1461,976).
att(1258,1990).
att(1461,949).
att(1484,845).
att(1507,1005).
att(1573,477).
att(1469,907).
att(1469,906).
att(1557,728).
att(1576,492).
att(1561,790).
att(1253,312).
att(1471,908).
att(1545,1358).
att(1254,279).
att(1303,2185).
att(1523,847).
att(1459,909).
att(1505,935).
att(1251,312).
att(1338,1330).
att(1450,1995).
att(1253,400).
att(1446,1990).
att(1541,1399).
att(1467,974).
att(1239,181).
att(1250,400).
att(1446,2024).
att(1480,870).
att(1239,211).
att(1250,343).
att(1469,975).
att(1575,531).
att(1339,1357).
att(1340,1354).
att(1457,1965).
att(1448,2026).
att(1234,327).
att(1342,1294).
att(1444,2017).
att(1467,851).
att(1344,1366).
att(1238,207).
att(1469,870).
att(1343,1308).
att(1339,1380).
att(1340,1379).
att(1572,532).
att(1546,1401).
att(1734,414).
att(1341,1367).
att(1724,379).
att(1440,1771).
att(1728,407).
att(1490,792).
att(1497,847).
att(1573,531).
att(1520,1788).
att(1520,1784).
att(1731,435).
att(1731,432).
att(1489,1858).
att(1438,1890).
att(1734,430).
att(1491,1879).
att(1239,250).
att(1476,872).
att(1502,824).
att(1729,398).
att(1482,978).
att(1572,552).
att(1476,867).
att(1241,237).
att(1525,1806).
att(1235,402).
att(1473,841).
att(1497,768).
att(1441,714).
att(1495,1857).
att(1221,211).
att(1233,345).
att(1371,1326).
att(1474,1008).
att(1239,261).
att(1734,471).
att(1238,281).
att(1501,771).
att(1396,1030).
att(1501,776).
att(1481,1963).
att(1474,1019).
att(1236,286).
att(1476,945).
att(1722,453).
att(1477,1028).
att(1478,1008).
att(1722,460).
att(1397,909).
att(1435,790).
att(1486,1030).
att(1443,767).
att(1239,317).
att(1475,2017).
att(1481,1989).
att(1501,793).
att(1733,493).
att(1477,907).
att(1236,234).
att(1372,1030).
att(1337,1356).
att(1442,2024).
att(1310,116).
att(1489,1995).
att(1493,871).
att(1733,510).
att(1491,1966).
att(1467,794).
att(1439,827).
att(1503,937).
att(1332,1383).
att(1490,899).
att(1727,512).
att(1330,1400).
att(1434,841).
att(1229,118).
att(1226,123).
att(1443,825).
att(1711,378).
att(1711,391).
att(1493,905).
att(1472,937).
att(1729,516).
att(1724,515).
att(1361,1389).
att(1490,822).
att(1442,2041).
att(1435,873).
att(1707,385).
att(1451,806).
att(1494,1989).
att(1361,1374).
att(1492,2018).
att(1735,431).
att(1225,185).
att(1337,1414).
att(1708,407).
att(1363,1325).
att(1434,894).
att(1239,424).
att(1364,1329).
att(1367,1294).
att(1522,1774).
att(1437,871).
att(1367,1304).
att(1473,850).
att(1230,178).
att(1365,1326).
att(1237,321).
att(1495,2022).
att(1475,1796).
att(1225,215).
att(1709,418).
att(1492,2041).
att(1722,554).
att(1228,179).
att(1492,1867).
att(1395,1424).
att(1229,2049).
att(1226,2052).
att(1641,492).
att(1641,496).
att(1527,1884).
att(1514,1804).
att(1221,2125).
att(1310,1998).
att(1493,373).
att(1439,262).
att(1514,1810).
att(1236,2187).
att(1224,1971).
att(1490,377).
att(1551,1974).
att(1641,512).
att(1547,1967).
att(1373,1379).
att(1449,111).
att(1508,1964).
att(1439,287).
att(1622,387).
att(1490,263).
att(1634,515).
att(1309,2032).
att(1512,1987).
att(1618,384).
att(1433,344).
att(1636,513).
att(1437,404).
att(1259,217).
att(1261,215).
att(1614,380).
att(1629,518).
att(1398,1369).
att(1516,2026).
att(1518,1986).
att(1619,405).
att(1310,2052).
att(1227,2014).
att(1618,411).
att(1377,1400).
att(1514,2025).
att(1620,399).
att(1377,1381).
att(1451,211).
att(1518,2016).
att(1256,123).
att(1394,1317).
att(1447,235).
att(1525,2024).
att(1310,2058).
att(1327,1996).
att(1636,550).
att(1500,1300).
att(1527,1987).
att(1451,233).
att(1259,254).
att(1631,552).
att(1622,455).
att(1445,238).
att(1786,1762).
att(1622,454).
att(1619,454).
att(1485,2017).
att(1614,435).
att(1447,250).
att(1226,2059).
att(1356,1404).
att(1790,1763).
att(1227,2058).
att(1327,1933).
att(1501,1329).
att(1257,184).
att(1502,1319).
att(1506,1772).
att(1506,1775).
att(1770,1761).
att(1259,184).
att(1389,1387).
att(1483,2036).
att(1508,1772).
att(1447,257).
att(1499,1279).
att(1483,1866).
att(1447,260).
att(1320,1975).
att(1309,2124).
att(1518,1796).
att(1393,1392).
att(1501,1281).
att(1518,1792).
att(1621,478).
att(1259,262).
att(1475,1885).
att(1316,1975).
att(1514,1769).
att(1506,1805).
att(1548,1772).
att(1514,1774).
att(946,380).
att(1622,495).
att(1622,496).
att(1502,1280).
att(1619,496).
att(1617,470).
att(1391,1422).
att(1257,234).
att(1617,480).
att(1312,1939).
att(1525,1852).
att(1485,1885).
att(1618,513).
att(1613,495).
att(1248,207).
att(1268,204).
att(1555,898).
att(1315,2028).
att(1288,2047).
att(1615,491).
att(1322,2095).
att(1424,1371).
att(1543,1995).
att(1563,868).
att(1615,490).
att(1270,178).
att(1620,510).
att(1567,851).
att(1622,530).
att(1261,376).
att(1339,1970).
att(1422,1349).
att(1247,116).
att(1256,351).
att(1256,374).
att(1536,872).
att(1536,871).
att(1561,899).
att(1422,1294).
att(1275,201).
att(1421,1325).
att(1621,532).
att(1451,327).
att(1427,1368).
att(1537,870).
att(1540,2020).
att(1261,261).
att(1539,867).
att(1429,1368).
att(1595,399).
att(1248,259).
att(1510,716).
att(1561,827).
att(1420,1281).
att(1539,824).
att(1316,2058).
att(1594,407).
att(1320,2056).
att(1256,406).
att(1288,2076).
att(1256,429).
att(1262,425).
att(1338,2017).
att(1536,828).
att(1256,342).
att(1542,1854).
att(1549,720).
att(1549,718).
att(1775,1762).
att(1422,1287).
att(1555,773).
att(1544,2038).
att(1540,1862).
att(1594,437).
att(1563,845).
att(1312,2014).
att(1610,556).
att(1772,1758).
att(1245,209).
att(1772,1761).
att(1339,2046).
att(1318,2090).
att(1549,722).
att(1243,235).
att(1291,1925).
att(1771,1767).
att(1597,449).
att(1512,2043).
att(1272,284).
att(1299,1975).
att(1391,1280).
att(1301,1979).
att(1599,473).
att(1293,1933).
att(1318,2096).
att(1301,2004).
att(1598,475).
att(1245,229).
att(1507,786).
att(1243,219).
att(1275,262).
att(1291,1927).
att(1303,1982).
att(1243,238).
att(1395,1287).
att(1421,1425).
att(1546,1798).
att(1542,1806).
att(1272,314).
att(1543,1784).
att(1540,1807).
att(1555,1008).
att(1551,2038).
att(1555,1003).
att(1339,1779).
att(1555,1001).
att(1251,109).
att(1542,1968).
att(1299,2033).
att(1293,2054).
att(1272,342).
att(1301,2031).
att(1507,822).
att(1537,1003).
att(1425,1424).
att(1266,351).
att(1266,374).
att(1508,1888).
att(1339,1769).
att(1591,492).
att(1340,1769).
att(1305,2014).
att(1510,828).
att(1517,874).
att(1515,820).
att(1421,1362).
att(1423,1344).
att(1547,1882).
att(1548,1885).
att(1252,114).
att(1519,827).
att(1548,1890).
att(1578,380).
att(1511,840).
att(1312,2123).
att(1592,497).
att(1247,287).
att(1551,1879).
att(1579,378).
att(1266,279).
att(1579,389).
att(1515,842).
att(1546,1804).
att(1793,1021).
att(1519,315).
att(1519,310).
att(1020,449).
att(1235,1939).
att(1751,414).
att(1995,1767).
att(1513,287).
att(1750,409).
att(1301,1570).
att(1253,1931).
att(1537,1323).
att(1797,1017).
att(1266,2152).
att(1314,1723).
att(1537,1319).
att(1290,1534).
att(1295,1605).
att(1537,1326).
att(1027,456).
att(1539,1328).
att(1538,1323).
att(1567,1281).
att(1291,1533).
att(1785,1025).
att(1275,2124).
att(1275,2123).
att(1461,1422).
att(1748,438).
att(1751,434).
att(1757,470).
att(1255,1933).
att(1292,1535).
att(1252,1937).
att(1517,234).
att(1519,238).
att(1511,250).
att(1797,940).
att(1299,1601).
att(1456,1333).
att(1471,1397).
att(931,550).
att(1537,1281).
att(1457,1541).
att(1962,1767).
att(1290,1556).
att(1295,1533).
att(1021,418).
att(1748,458).
att(1751,450).
att(1248,2187).
att(1299,1611).
att(1235,1975).
att(1446,1389).
att(1513,375).
att(1750,458).
att(1266,2185).
att(1456,1360).
att(1509,315).
att(1469,1429).
att(1023,513).
att(1303,1608).
att(1268,2185).
att(1243,2100).
att(1254,2048).
att(1233,2006).
att(1255,2054).
att(1255,1975).
att(1511,314).
att(1234,2010).
att(1751,473).
att(1272,2173).
att(1305,1647).
att(1293,1585).
att(1513,282).
att(1243,2138).
att(1303,1644).
att(1440,1491).
att(1505,232).
att(994,385).
att(1799,1078).
att(1799,1077).
att(1244,1404).
att(1027,554).
att(1258,1436).
att(1511,346).
att(1519,427).
att(981,411).
att(997,401).
att(1557,1363).
att(1800,1077).
att(1746,381).
att(1301,1703).
att(1567,1348).
att(1271,1373).
att(1480,209).
att(1797,1107).
att(1303,1651).
att(1549,424).
att(1273,1354).
att(1265,1374).
att(1255,2079).
att(1482,211).
att(1265,1380).
att(1274,1379).
att(1787,1065).
att(1536,1349).
att(1450,1494).
att(1252,2031).
att(1797,1049).
att(1563,1369).
att(1800,1098).
att(1795,1045).
att(1446,1487).
att(1507,373).
att(1260,1494).
att(1505,261).
att(1753,556).
att(1232,1971).
att(1004,531).
att(1271,1402).
att(1233,1977).
att(1291,1646).
att(1482,116).
att(1538,1343).
att(980,382).
att(1523,217).
att(1004,533).
att(1748,537).
att(1255,2155).
att(1253,2126).
att(1740,381).
att(1747,426).
att(1799,1049).
att(1232,2073).
att(1973,1760).
att(1538,1370).
att(1973,1767).
att(1474,180).
att(1476,187).
att(993,430).
att(1017,550).
att(1785,1064).
att(1448,1520).
att(1482,255).
att(1233,2090).
att(1000,430).
att(1567,1302).
att(1523,233).
att(1538,1368).
att(1967,1767).
att(1022,553).
att(993,411).
att(1260,1542).
att(1463,1502).
att(1469,1431).
att(1290,1656).
att(1486,255).
att(1509,404).
att(1480,187).
att(1515,415).
att(1743,432).
att(997,426).
att(993,405).
att(1523,259).
att(999,405).
att(996,387).
att(1291,1705).
att(1292,1656).
att(1785,980).
att(1234,2123).
att(1745,472).
att(1487,1334).
att(1496,1422).
att(1438,1354).
att(936,435).
att(1232,2100).
att(1250,2101).
att(930,405).
att(1254,2168).
att(1746,475).
att(1242,1977).
att(1242,1971).
att(1237,2010).
att(1252,2098).
att(1222,1939).
att(1489,1354).
att(1238,2006).
att(1747,493).
att(1438,1383).
att(1742,491).
att(1498,1346).
att(1500,1372).
att(1473,1391).
att(1477,239).
att(1441,204).
att(1433,123).
att(1438,1412).
att(1435,99).
att(940,490).
att(1472,1429).
att(1743,497).
att(1476,280).
att(944,478).
att(1240,2034).
att(1742,520).
att(1523,322).
att(1639,381).
att(1434,123).
att(1738,498).
att(1499,1369).
att(1744,513).
att(1241,2049).
att(1487,1409).
att(1485,1527).
att(1223,1981).
att(1493,106).
att(930,434).
att(1640,385).
att(1472,1347).
att(1490,116).
att(1740,518).
att(944,539).
att(1025,385).
att(1474,412).
att(1474,400).
att(1436,1525).
att(1023,382).
att(1743,539).
att(1242,2071).
att(1738,531).
att(1477,404).
att(1640,411).
att(1440,1527).
att(1492,1522).
att(1740,539).
att(1490,179).
att(1471,1313).
att(939,490).
att(1467,1307).
att(1811,1764).
att(1461,1319).
att(1465,1289).
att(1482,412).
att(1489,1522).
att(1493,183).
att(1236,2031).
att(1242,2095).
att(1482,319).
att(931,473).
att(1437,202).
att(1240,2092).
att(1461,1313).
att(1440,1518).
att(946,495).
att(1222,2152).
att(1497,1502).
att(1489,1506).
att(1430,1308).
att(1493,282).
att(1488,317).
att(1022,382).
att(946,559).
att(1431,1307).
att(1431,1306).
att(1434,238).
att(1782,1762).
att(1223,2057).
att(938,529).
att(1498,1391).
att(1230,2002).
att(934,531).
att(930,512).
att(1469,1284).
att(1634,470).
att(1816,1067).
att(1239,1653).
att(1052,531).
att(1242,1719).
att(1817,1052).
att(1064,498).
att(1240,1673).
att(1488,2090).
att(1064,490).
att(1228,1559).
att(1813,1052).
att(1434,2049).
att(1479,1400).
att(1238,1675).
att(1226,1466).
att(1819,1067).
att(1818,1065).
att(1817,998).
att(1443,2028).
att(1816,993).
att(1240,1653).
att(1227,1470).
att(1821,1065).
att(1064,471).
att(1069,478).
att(1815,1067).
att(1226,1588).
att(1813,930).
att(1813,938).
att(1824,1144).
att(1829,1173).
att(1221,1726).
att(1816,1020).
att(1031,433).
att(1488,2098).
att(1237,1721).
att(1439,2056).
att(1821,1000).
att(1228,1589).
att(1524,1409).
att(1822,1114).
att(1225,1534).
att(2022,1759).
att(1223,1655).
att(1032,398).
att(1827,1143).
att(1819,1023).
att(1047,381).
att(1236,1721).
att(2021,1767).
att(1067,530).
att(1488,2075).
att(1822,1144).
att(1820,1022).
att(2016,1763).
att(1277,1773).
att(1812,936).
att(1048,458).
att(1443,2173).
att(1257,2008).
att(1262,1977).
att(1433,2096).
att(1819,1113).
att(1264,1977).
att(1437,2124).
att(1445,1975).
att(1483,1550).
att(1447,1975).
att(1817,1077).
att(1820,1151).
att(1226,1569).
att(1493,2167).
att(1816,1077).
att(1481,1540).
att(1812,1091).
att(1475,1546).
att(1259,1927).
att(1224,1600).
att(1259,1925).
att(1847,1025).
att(1818,1138).
att(1485,1335).
att(1327,1564).
att(1256,2050).
att(1033,513).
att(1315,1470).
att(1046,473).
att(1047,494).
att(1525,1541).
att(1318,1462).
att(1814,1090).
att(1229,1704).
att(1262,2053).
att(1821,1094).
att(1310,1645).
att(1264,2048).
att(1451,2033).
att(1031,498).
att(1815,1108).
att(1225,1646).
att(1512,1406).
att(1548,1373).
att(1274,1988).
att(1514,1400).
att(1257,2091).
att(997,495).
att(1565,1432).
att(1228,1720).
att(1551,1374).
att(1269,2045).
att(1561,1537).
att(996,450).
att(1256,2078).
att(1314,1558).
att(1822,993).
att(1824,936).
att(1288,1468).
att(1444,1773).
att(1831,980).
att(1267,2043).
att(1827,1017).
att(1246,1862).
att(1557,1390).
att(1324,1562).
att(1224,1702).
att(1277,2017).
att(1260,1776).
att(1448,1772).
att(999,455).
att(1309,1676).
att(1547,1406).
att(1831,996).
att(1457,1775).
att(1557,1422).
att(1264,2096).
att(1444,1769).
att(1826,944).
att(1272,1979).
att(1563,1393).
att(1316,1570).
att(1987,1760).
att(1563,1397).
att(1445,2122).
att(1245,1923).
att(1448,1790).
att(1256,2126).
att(1823,944).
att(1823,942).
att(1322,1586).
att(1567,1428).
att(1276,1896).
att(1541,1544).
att(1538,1396).
att(1783,1074).
att(1565,1429).
att(1445,2151).
att(996,477).
att(1456,1798).
att(1539,1393).
att(1318,1601).
att(1453,1769).
att(996,551).
att(1249,2035).
att(1272,2014).
att(1316,1609).
att(1512,1338).
att(1831,1151).
att(1820,942).
att(1299,1464).
att(1261,2167).
att(1519,109).
att(1259,2187).
att(1822,1090).
att(1272,2051).
att(1312,1644).
att(1245,1978).
att(1275,2014).
att(1257,2100).
att(1066,379).
att(1264,2171).
att(1518,1335).
att(1243,2006).
att(1327,1626).
att(1327,1625).
att(1548,1545).
att(1259,2168).
att(1249,1977).
att(1267,1969).
att(1067,414).
att(1259,2125).
att(1516,1332).
att(1269,1968).
att(1823,1110).
att(1247,1996).
att(1277,1810).
att(1069,387).
att(1275,2075).
att(1315,1672).
att(1066,455).
att(1248,2091).
att(1828,1034).
att(1246,1990).
att(1548,1360).
att(1246,1988).
att(1272,2075).
att(1507,181).
att(1064,451).
att(1054,475).
att(1508,1356).
att(1507,203).
att(1822,1033).
att(1551,1332).
att(1826,1108).
att(1069,455).
att(1248,2079).
att(1297,1458).
att(1518,1381).
att(1305,1562).
att(1322,1648).
att(1305,1552).
att(1565,1563).
att(1750,382).
att(1070,438).
att(1822,1070).
att(1318,1681).
att(1567,1538).
att(1828,1065).
att(1312,1623).
att(1509,106).
att(1516,1381).
att(1288,1616).
att(1753,437).
att(1327,1656).
att(1110,551).
att(1477,1843).
att(1835,1109).
att(1074,411).
att(1691,1453).
att(1679,1440).
att(1668,1354).
att(1687,1269).
att(1476,1820).
att(1090,382).
att(1505,2009).
att(1785,1600).
att(1903,944).
att(1072,407).
att(1295,1019).
att(1695,1269).
att(1833,1078).
att(1111,539).
att(1785,1588).
att(1670,1381).
att(1795,1504).
att(1834,1033).
att(1682,1520).
att(1697,1446).
att(1252,1398).
att(1110,536).
att(1665,1381).
att(1299,1024).
att(1658,1412).
att(1797,1532).
att(1486,1851).
att(1660,1400).
att(1835,1034).
att(1685,1438).
att(1795,1528).
att(1254,1395).
att(1295,937).
att(1251,1427).
att(1297,941).
att(1073,384).
att(1793,1564).
att(1235,1471).
att(1253,1461).
att(1841,1109).
att(1476,1840).
att(1679,1525).
att(1074,450).
att(779,1772).
att(788,2046).
att(1091,428).
att(1668,1414).
att(1680,1524).
att(1695,1442).
att(779,1778).
att(1254,1555).
att(1832,1049).
att(1832,1048).
att(760,2043).
att(1689,1551).
att(781,1782).
att(1682,1339).
att(1241,1317).
att(756,1852).
att(1478,1835).
att(1107,556).
att(1232,1392).
att(1232,1394).
att(1239,1283).
att(1680,1518).
att(1236,1285).
att(1842,1172).
att(1680,1550).
att(1072,437).
att(1251,1473).
att(1073,426).
att(1233,1390).
att(1291,1019).
att(1251,1498).
att(1904,1070).
att(964,1896).
att(1439,1787).
att(1241,1347).
att(762,1867).
att(789,1779).
att(1795,1683).
att(1238,1345).
att(1486,1938).
att(752,1810).
att(960,1854).
att(1657,1340).
att(1799,1674).
att(1907,1046).
att(1480,1911).
att(1658,1514).
att(1089,494).
att(1493,1818).
att(1223,1298).
att(1232,1565).
att(1785,1683).
att(1240,1348).
att(1660,1522).
att(749,1796).
att(1437,1797).
att(1826,1560).
att(1077,510).
att(1240,1346).
att(1899,1068).
att(758,1796).
att(1477,1870).
att(762,1896).
att(787,1788).
att(1838,1174).
att(1909,1067).
att(962,1880).
att(1830,1464).
att(1493,1797).
att(1787,1608).
att(964,1884).
att(1903,1068).
att(789,1769).
att(1074,473).
att(1237,1308).
att(1477,1874).
att(1670,1544).
att(1169,385).
att(1787,1584).
att(1900,942).
att(1665,1339).
att(787,1809).
att(1239,1391).
att(1072,548).
att(1239,1423).
att(1433,1830).
att(1437,1821).
att(1493,1845).
att(1791,1616).
att(1670,1545).
att(1783,1643).
att(762,1880).
att(1089,510).
att(1839,1140).
att(1474,1935).
att(1486,2005).
att(1238,1420).
att(1443,1814).
att(1660,1352).
att(1480,2007).
att(1221,1371).
att(1684,1274).
att(1221,1366).
att(1480,1932).
att(1074,520).
att(1833,1168).
att(1073,518).
att(1090,500).
att(1837,1122).
att(1146,381).
att(1523,2009).
att(1903,1023).
att(1662,1357).
att(1439,1826).
att(1845,1048).
att(1224,1280).
att(778,2036).
att(782,2019).
att(1441,1905).
att(1850,1093).
att(1108,385).
att(1493,1876).
att(1437,1841).
att(1047,531).
att(1689,1400).
att(1695,1381).
att(1222,1398).
att(811,1796).
att(1048,516).
att(1033,532).
att(1033,533).
att(1441,1833).
att(1222,1390).
att(1441,1832).
att(1435,1845).
att(1239,1393).
att(1045,496).
att(1847,1093).
att(785,2043).
att(815,1777).
att(1445,1787).
att(1848,1067).
att(816,1796).
att(1441,1957).
att(1447,1787).
att(1849,1064).
att(1433,1875).
att(778,1888).
att(1092,454).
att(1845,994).
att(1226,1289).
att(817,2037).
att(1451,1791).
att(1846,996).
att(1231,1368).
att(1237,1536).
att(1433,1901).
att(1237,1561).
att(1095,428).
att(1820,1172).
att(1225,1329).
att(1434,1906).
att(1048,558).
att(1849,994).
att(1047,558).
att(1309,1313).
att(817,1878).
att(1236,1536).
att(1111,382).
att(1048,549).
att(1240,1539).
att(1098,430).
att(808,1801).
att(810,1805).
att(1225,1325).
att(839,1794).
att(1110,385).
att(1111,379).
att(1434,1908).
att(1848,1174).
att(1092,491).
att(1684,1360).
att(1226,1424).
att(1093,492).
att(1230,1391).
att(1433,1930).
att(1850,1179).
att(783,1784).
att(1437,1930).
att(1098,490).
att(1687,1514).
att(760,1878).
att(1680,1339).
att(1445,1820).
att(1833,980).
att(1094,473).
att(1445,1812).
att(781,1963).
att(1262,1829).
att(1443,1910).
att(1697,1338).
att(781,1964).
att(781,1994).
att(1109,456).
att(1684,1359).
att(1108,452).
att(1256,1787).
att(1834,938).
att(783,1803).
att(1257,1795).
att(1850,1120).
att(1695,1542).
att(1850,1115).
att(1259,1795).
att(1689,1337).
att(1111,430).
att(1224,1364).
att(1434,1960).
att(785,1964).
att(1256,1849).
att(1691,1359).
att(1072,378).
att(1680,1374).
att(1259,1851).
att(1848,1112).
att(1844,1143).
att(1228,1496).
att(1111,498).
att(780,1989).
att(1256,1819).
att(1261,1812).
att(1840,940).
att(1230,1503).
att(1092,520).
att(1227,1396).
att(1257,1817).
att(1845,1110).
att(1847,1151).
att(1224,1429).
att(1098,518).
att(1850,1074).
att(1259,1816).
att(1228,1392).
att(1445,1844).
att(818,1966).
att(1682,1407).
att(785,1990).
att(1819,1627).
att(1318,715).
att(1872,1120).
att(1955,1023).
att(1118,493).
att(813,2040).
att(1877,1176).
att(1230,945).
att(835,1772).
att(829,1780).
att(1451,1346).
att(1961,999).
att(1322,720).
att(810,1866).
att(1122,472).
att(1225,870).
att(1953,1020).
att(1815,1609).
att(830,1796).
att(1815,1608).
att(1814,1626).
att(1941,1068).
att(811,1860).
att(1256,1304).
att(1876,1118).
att(1876,1116).
att(1447,1365).
att(1257,1304).
att(1821,1630).
att(1138,435).
att(1817,1583).
att(1871,1112).
att(833,1781).
att(1114,432).
att(1114,433).
att(1257,1426).
att(1118,529).
att(1309,945).
att(1819,1584).
att(1871,1074).
att(1327,844).
att(1813,1529).
att(1275,1278).
att(1876,1169).
att(1960,942).
att(1288,793).
att(1876,1141).
att(814,1892).
att(831,1806).
att(1259,1429).
att(1445,1372).
att(815,1878).
att(1961,942).
att(1954,942).
att(816,1885).
att(1228,1019).
att(1324,770).
att(1309,908).
att(1827,1736).
att(1318,786).
att(1226,937).
att(1257,1345).
att(1138,474).
att(829,1987).
att(1828,1719).
att(1316,795).
att(1228,906).
att(1259,1342).
att(1814,1602).
att(1318,795).
att(1874,1140).
att(1874,1151).
att(1312,714).
att(1449,1539).
att(1817,1721).
att(1257,1501).
att(1248,1328).
att(1248,1323).
att(1138,539).
att(1178,403).
att(1248,1321).
att(1264,1463).
att(1817,1719).
att(1315,819).
att(1846,1531).
att(1174,382).
att(1910,940).
att(1115,529).
att(1954,1088).
att(1175,403).
att(1262,1501).
att(1955,1045).
att(1847,1526).
att(1262,1497).
att(1819,1736).
att(1139,515).
att(1171,379).
att(1812,1674).
att(1225,1001).
att(1958,1073).
att(1312,768).
att(1120,539).
att(1314,901).
att(816,2026).
att(1510,1795).
att(812,2044).
att(1322,977).
att(1812,1683).
att(1817,1678).
att(1817,1676).
att(1324,976).
att(1171,453).
att(810,1991).
att(1842,1468).
att(814,1999).
att(1245,1296).
att(1846,1470).
att(1266,1363).
att(815,2025).
att(1819,1723).
att(1177,452).
att(1815,1656).
att(1275,1367).
att(1315,905).
att(1322,871).
att(1139,551).
att(810,2038).
att(1873,1177).
att(814,2026).
att(1324,903).
att(1451,1557).
att(1259,1461).
att(1868,1171).
att(1957,1000).
att(1261,1469).
att(1114,558).
att(1941,1046).
att(1256,1471).
att(1874,1022).
att(835,1853).
att(1315,908).
att(1327,1026).
att(1901,1073).
att(1249,1426).
att(1322,1005).
att(831,1880).
att(1270,1392).
att(1140,453).
att(1318,941).
att(1823,1581).
att(1507,1824).
att(833,1882).
att(1904,1120).
att(1318,935).
att(1868,942).
att(838,1864).
att(1825,1644).
att(1314,869).
att(1663,1804).
att(1327,935).
att(1549,1813).
att(1828,1605).
att(1905,1088).
att(1245,1366).
att(1900,1071).
att(1268,1350).
att(1251,1281).
att(1662,1992).
att(1824,1564).
att(1909,1077).
att(1249,1501).
att(1507,1840).
att(1906,1095).
att(1903,1089).
att(1825,1600).
att(1515,1839).
att(1268,1498).
att(1505,1849).
att(1169,458).
att(1663,1986).
att(1905,1032).
att(1288,947).
att(1789,1675).
att(1292,775).
att(1315,1028).
att(1511,1849).
att(1908,1092).
att(1312,1001).
att(1789,1678).
att(1905,1033).
att(1513,1850).
att(1828,1558).
att(1144,456).
att(1290,797).
att(1906,1047).
att(1787,1648).
att(1900,1033).
att(1243,1428).
att(1291,819).
att(1827,1673).
att(1118,398).
att(1517,1957).
att(834,2023).
att(1511,1872).
att(1831,1719).
att(1249,1555).
att(1831,1717).
att(829,2019).
att(1507,1906).
att(1253,1304).
att(1873,1047).
att(1250,1302).
att(1268,1537).
att(1815,1532).
att(1232,1313).
att(1870,1108).
att(1505,1904).
att(1874,1078).
att(1118,382).
att(1270,1537).
att(1297,819).
att(1146,532).
att(1234,1311).
att(1872,1067).
att(1168,490).
att(1822,1705).
att(1868,1054).
att(1299,819).
att(1247,1500).
att(1293,842).
att(1822,1675).
att(1872,1066).
att(1510,1909).
att(1825,1672).
att(1871,999).
att(1905,1178).
att(1138,418).
att(1871,998).
att(834,1866).
att(1827,1616).
att(1169,550).
att(1486,1820).
att(1657,1784).
att(1875,1064).
att(1515,1910).
att(1899,1172).
att(1290,870).
att(1821,1470).
att(1232,1362).
att(1233,1371).
att(1233,1368).
att(1482,1829).
att(1297,978).
att(1814,1466).
att(1114,405).
att(1905,1113).
att(838,1867).
att(1484,1829).
att(835,2042).
att(1141,553).
att(1658,1770).
att(1657,1810).
att(1871,1020).
att(1825,1609).
att(1253,1369).
att(1301,869).
att(1243,1537).
att(1826,1609).
att(1822,1643).
att(859,1788).
att(1234,821).
att(1517,1555).
att(1837,1650).
att(1292,372).
att(2011,1047).
att(787,1495).
att(886,1775).
att(1478,1321).
att(1905,1562).
att(888,1771).
att(1787,2030).
att(1507,1499).
att(854,1779).
att(856,1774).
att(1293,280).
att(1507,1498).
att(1301,372).
att(1513,1461).
att(1669,498).
att(1301,373).
att(1793,2072).
att(1254,904).
att(1476,1278).
att(1909,1529).
att(1909,1535).
att(760,1512).
att(1251,840).
att(1292,261).
att(1510,1499).
att(1292,262).
att(1793,2028).
att(1511,1496).
att(1234,845).
att(1699,529).
att(1701,529).
att(1797,2033).
att(886,1798).
att(756,1508).
att(1292,281).
att(1299,376).
att(888,1786).
att(1293,311).
att(1985,1032).
att(788,1483).
att(1832,1675).
att(1232,770).
att(1791,2091).
att(1661,513).
att(1505,1392).
att(1480,1280).
att(789,1547).
att(1252,948).
att(1667,542).
att(760,1339).
att(1793,2050).
att(1235,850).
att(1657,1685).
att(1787,1980).
att(2007,997).
att(1652,1689).
att(1789,1976).
att(1484,1343).
att(1293,427).
att(1301,425).
att(1509,1565).
att(1940,1180).
att(749,1339).
att(788,1518).
att(1476,1302).
att(1654,1668).
att(1242,724).
att(1251,850).
att(1836,1704).
att(1255,948).
att(1791,2032).
att(1984,1066).
att(892,1967).
att(1297,342).
att(1785,1998).
att(1833,1583).
att(1305,425).
att(1252,867).
att(1253,851).
att(1840,1611).
att(1834,1582).
att(888,1970).
att(1474,1329).
att(1985,980).
att(1486,1289).
att(1515,1538).
att(1911,1175).
att(1482,1294).
att(1477,1308).
att(1841,1623).
att(1911,1180).
att(787,1540).
att(1783,1975).
att(1523,1394).
att(1659,554).
att(1484,1398).
att(2003,1168).
att(1906,1632).
att(960,1333).
att(1238,774).
att(952,1389).
att(747,1271).
att(1905,1632).
att(1903,1616).
att(1822,1980).
att(2013,1115).
att(766,1542).
att(1239,794).
att(1521,1391).
att(1254,1030).
att(962,1335).
att(1899,1642).
att(962,1361).
att(964,1330).
att(1236,793).
att(1909,1623).
att(964,1356).
att(762,1337).
att(836,1682).
att(760,1273).
att(1241,786).
att(763,1334).
att(1908,1630).
att(960,1359).
att(1907,1647).
att(747,1444).
att(1985,1114).
att(1290,404).
att(1242,806).
att(1909,1632).
att(1521,1428).
att(1480,1341).
att(1291,424).
att(1795,2171).
att(1825,1978).
att(758,1246).
att(2003,1146).
att(2001,1141).
att(1237,840).
att(762,1356).
att(1434,1281).
att(1834,1717).
att(763,1352).
att(1903,1601).
att(1486,1432).
att(1903,1600).
att(2011,1089).
att(752,1494).
att(1905,1607).
att(1905,1604).
att(954,1402).
att(756,1267).
att(1233,1024).
att(1437,1287).
att(1233,1028).
att(1482,1501).
att(1787,2126).
att(1482,1498).
att(1791,2125).
att(1985,1168).
att(1787,2089).
att(763,1380).
att(2003,1034).
att(2005,1034).
att(1476,1428).
att(1830,1925).
att(1906,1535).
att(1482,1395).
att(1221,799).
att(788,1448).
att(1825,1933).
att(2001,1108).
att(788,1453).
att(1240,845).
att(1477,1557).
att(886,1862).
att(1930,1000).
att(884,1807).
att(781,1546).
att(782,1518).
att(1848,1677).
att(896,1852).
att(1242,949).
att(1849,1703).
att(925,1790).
att(1239,871).
att(896,1862).
att(1493,1368).
att(1476,1469).
att(1841,1560).
att(1443,1300).
att(1178,495).
att(1851,1648).
att(1476,1461).
att(1836,1566).
att(1240,872).
att(1482,1567).
att(1836,1560).
att(780,1339).
att(1439,1311).
att(933,1794).
att(886,1892).
att(886,1888).
att(1956,1118).
att(1490,1300).
att(1435,1325).
att(1180,454).
att(1938,980).
att(1443,1321).
att(890,1880).
att(1842,1645).
att(1954,1175).
att(1437,1328).
att(1493,1296).
att(1846,1643).
att(1493,1300).
att(1521,1555).
att(1476,1499).
att(1847,1702).
att(784,1340).
att(882,1967).
att(1177,472).
att(886,1880).
att(1841,1470).
att(1911,1054).
att(928,1973).
att(1848,1646).
att(1928,930).
att(1309,718).
att(1849,1647).
att(1961,1116).
att(1175,554).
att(1443,1424).
att(1242,1002).
att(1851,1626).
att(1941,1176).
att(1180,513).
att(1957,1144).
att(1173,518).
att(780,1358).
att(1439,1345).
att(1241,941).
att(811,1246).
att(1842,1582).
att(1845,1604).
att(1238,950).
att(1173,510).
att(1175,530).
att(1936,946).
att(1936,944).
att(1230,799).
att(1180,490).
att(1954,1170).
att(1843,1586).
att(1229,849).
att(787,1337).
att(1793,2002).
att(1837,1584).
att(1837,1569).
att(1443,1502).
att(1309,767).
att(1449,1321).
att(1834,1606).
att(1936,1169).
att(1832,1568).
att(1230,842).
att(1800,1982).
att(2001,944).
att(1985,1018).
att(1783,1996).
att(1222,1002).
att(1928,1144).
att(1846,1725).
att(1930,1111).
att(895,1993).
att(1434,1420).
att(888,1987).
att(1239,1008).
att(1930,1093).
att(1435,1424).
att(1171,552).
att(1239,1005).
att(1227,771).
att(1834,1535).
att(1239,1030).
att(756,1389).
att(1839,1601).
att(1180,529).
att(1437,1423).
att(1488,1397).
att(1840,1581).
att(890,1989).
att(1940,1071).
att(789,1352).
att(1174,531).
att(859,2018).
att(1434,1426).
att(1434,1429).
att(787,1352).
att(818,1453).
att(1449,1370).
att(1264,1302).
att(1224,822).
att(1833,1532).
att(892,2017).
att(1224,823).
att(1434,1469).
att(1441,1538).
att(780,1551).
att(884,1769).
att(886,2037).
att(928,1771).
att(1935,1046).
att(1844,1704).
att(923,1777).
att(1309,842).
att(1310,845).
att(1443,1463).
att(878,1792).
att(1846,1683).
att(1841,1534).
att(1221,1019).
att(779,1525).
att(890,2041).
att(1231,824).
att(1848,1717).
att(1848,1725).
att(780,1518).
att(1225,843).
att(1434,1501).
att(787,1402).
att(811,1361).
att(1816,2130).
att(1955,1604).
att(1230,285).
att(1959,1581).
att(1960,1568).
att(1310,229).
att(1961,1585).
att(932,1860).
att(1451,767).
att(1710,438).
att(808,1336).
att(1445,776).
att(1224,238).
att(816,1541).
att(1445,769).
att(1712,476).
att(966,1801).
att(915,1962).
att(1712,478).
att(1815,2073).
att(968,1803).
att(1873,1717).
att(1816,2071).
att(1848,1933).
att(808,1373).
att(911,1965).
att(1310,179).
att(933,1884).
att(1227,256).
att(1960,1600).
att(972,1806).
att(1815,2152).
att(1954,1607).
att(1434,949).
att(1815,2128).
att(919,1995).
att(1961,1600).
att(1706,458).
att(1735,497).
att(1819,2074).
att(1953,1455).
att(1315,114).
att(1451,903).
att(972,1962).
att(1872,1650).
att(1706,472).
att(1735,515).
att(1960,1529).
att(830,1263).
att(1877,1718).
att(811,1374).
att(1706,474).
att(1813,2094).
att(1815,2034).
att(1433,1002).
att(1960,1562).
att(834,1489).
att(810,1385).
att(836,1271).
att(1451,844).
att(808,1404).
att(917,2024).
att(811,1399).
att(970,2026).
att(1819,2056).
att(1870,1674).
att(1941,1528).
att(830,1494).
att(1327,260).
att(783,1374).
att(1957,1676).
att(1849,2093).
att(783,1381).
att(1259,871).
att(1259,904).
att(1941,1718).
att(1708,534).
att(1955,1656).
att(780,1412).
att(1261,899).
att(1735,554).
att(1715,414).
att(1226,319).
att(1229,346).
att(919,1776).
att(783,1399).
att(1264,902).
att(1686,381).
att(1257,823).
att(925,2022).
att(1224,318).
att(1316,114).
att(1709,537).
att(1231,342).
att(1316,106).
att(1953,1609).
att(1961,1676).
att(808,1481).
att(1850,2015).
att(1445,901).
att(1954,1704).
att(1229,321).
att(1716,437).
att(839,1453).
att(1318,202).
att(1320,215).
att(782,1399).
att(919,1777).
att(1688,411).
att(925,2039).
att(1315,236).
att(1694,435).
att(1960,1625).
att(968,1773).
att(1272,771).
att(927,2042).
att(1261,948).
att(814,1495).
att(933,2017).
att(1272,792).
att(1316,251).
att(808,1550).
att(1314,257).
att(1847,2034).
att(1954,1627).
att(815,1479).
att(933,2044).
att(1256,977).
att(1318,234).
att(1320,219).
att(919,1786).
att(811,1550).
att(1843,2052).
att(1961,1627).
att(1288,186).
att(1322,219).
att(1819,2168).
att(1955,1568).
att(921,1809).
att(1257,867).
att(814,1520).
att(917,1798).
att(1696,452).
att(1821,2185).
att(1849,1978).
att(972,1778).
att(1843,1975).
att(1847,2052).
att(811,1544).
att(1515,1278).
att(1247,770).
att(1314,313).
att(1688,460).
att(1510,1287).
att(834,1356).
att(1549,1311).
att(1869,1554).
att(1876,1605).
att(1692,450).
att(1820,1939).
att(1871,1531).
att(1823,2056).
att(1314,316).
att(1318,280).
att(1868,1528).
att(1870,1604).
att(1266,842).
att(1243,776).
att(1899,1737).
att(1288,286).
att(1877,1607).
att(1262,1026).
att(1871,1554).
att(1257,907).
att(766,1999).
att(1315,286).
att(1670,1271).
att(1827,2078).
att(1693,496).
att(1906,1648).
att(836,1353).
att(1871,1553).
att(1875,1529).
att(1657,1489).
att(954,2016).
att(1899,1650).
att(1906,1673).
att(1904,1717).
att(1688,491).
att(833,1385).
att(834,1373).
att(1447,1019).
att(1668,1271).
att(962,2024).
att(831,1399).
att(834,1409).
att(964,2044).
att(1698,513).
att(1305,179).
att(1519,1368).
att(960,2020).
att(1907,1673).
att(954,2021).
att(1701,378).
att(1822,2032).
att(1513,1296).
att(1831,2092).
att(1823,2034).
att(1290,108).
att(1509,1321).
att(1826,2078).
att(766,1988).
att(1505,1329).
att(1248,826).
att(1824,1982).
att(1904,1624).
att(760,1777).
att(958,2043).
att(1316,347).
att(1322,321).
att(752,1784).
att(1908,1676).
att(2011,1178).
att(2005,1114).
att(1690,516).
att(1822,2053).
att(1831,2034).
att(765,2020).
att(1668,1436).
att(1870,1468).
att(1903,1704).
att(1247,845).
att(1899,1627).
att(2001,1173).
att(966,2017).
att(1297,260).
att(1251,720).
att(1305,238).
att(834,1479).
att(966,2045).
att(1511,1344).
att(1959,1462).
att(1519,1424).
att(1234,714).
att(1299,234).
att(1877,1704).
att(1312,404).
att(1253,716).
att(1513,1344).
att(1314,400).
att(1812,2035).
att(1870,1705).
att(1250,726).
att(1954,1468).
att(1813,2054).
att(1869,1611).
att(816,1402).
att(1813,2052).
att(1275,909).
att(1505,1366).
att(1515,1347).
att(966,2018).
att(1288,406).
att(1515,1343).
att(1295,250).
att(766,1771).
att(1270,950).
att(964,1784).
att(1316,400).
att(1874,1624).
att(1245,851).
att(1252,718).
att(1292,179).
att(1828,2169).
att(1249,867).
att(952,1786).
att(829,1550).
att(1701,451).
att(1877,1612).
att(1669,433).
att(1701,455).
att(921,1852).
att(1813,1981).
att(1823,2187).
att(1303,259).
att(966,1862).
att(1248,1030).
att(1874,1643).
att(1661,435).
att(1824,2154).
att(968,1856).
att(762,1790).
att(834,1340).
att(1666,449).
att(1292,310).
att(1659,437).
att(1293,314).
att(1875,1646).
att(1301,316).
att(1253,772).
att(1822,2123).
att(1876,1642).
att(960,1792).
att(1243,907).
att(1515,1391).
att(1823,2124).
att(1813,2008).
att(1700,478).
att(1505,1425).
att(766,1805).
att(1875,1570).
att(1659,458).
att(1249,945).
att(1270,1019).
att(1699,493).
att(1830,2125).
att(1816,1931).
att(829,1358).
att(1666,478).
att(1266,943).
att(1822,2152).
att(1232,726).
att(1831,2123).
att(1247,979).
att(1295,238).
att(1900,1971).
att(1826,114).
att(1800,319).
att(1799,345).
att(1827,116).
att(955,1612).
att(967,1566).
att(1831,215).
att(955,1627).
att(961,1678).
att(1443,591).
att(1906,2052).
att(673,1172).
att(1476,697).
att(969,1556).
att(1831,211).
att(1793,281).
att(2007,1643).
att(965,1683).
att(1241,60).
att(1787,287).
att(1478,703).
att(684,1052).
att(1830,112).
att(1795,281).
att(1907,2049).
att(1835,2098).
att(1441,592).
att(675,1114).
att(1832,2174).
att(1480,695).
att(1474,704).
att(1233,113).
att(764,1703).
att(1791,372).
att(673,1138).
att(676,1174).
att(914,1533).
att(1474,803).
att(1797,287).
att(1435,611).
att(1904,2004).
att(686,1078).
att(967,1588).
att(1474,727).
att(1476,732).
att(1906,2012).
att(1906,2008).
att(1841,2167).
att(1221,44).
att(1905,2004).
att(956,1718).
att(918,1530).
att(1439,628).
att(957,1725).
att(1836,2169).
att(1241,71).
att(1906,2006).
att(920,1535).
att(2003,1534).
att(2001,1531).
att(1799,317).
att(1441,613).
att(1985,1568).
att(1984,1586).
att(1797,234).
att(1841,2098).
att(2005,1526).
att(961,1673).
att(1437,647).
att(1493,613).
att(1833,2128).
att(1237,48).
att(1833,2126).
att(1490,704).
att(660,1027).
att(1877,1926).
att(1872,1939).
att(1906,2138).
att(1239,121).
att(1443,710).
att(631,942).
att(652,1169).
att(1443,705).
att(1827,239).
att(916,1644).
att(916,1587).
att(1239,147).
att(1493,705).
att(918,1584).
att(1906,2152).
att(1868,1933).
att(1224,6).
att(1870,2008).
att(2005,1648).
att(1787,425).
att(1907,2126).
att(1229,6).
att(2005,1672).
att(668,944).
att(1435,615).
att(668,942).
att(912,1504).
att(1476,805).
att(653,1093).
att(1223,76).
att(679,1090).
att(916,1602).
att(969,1570).
att(1240,150).
att(913,1588).
att(688,1170).
att(913,1607).
att(1237,67).
att(1445,632).
att(1826,183).
att(914,1612).
att(922,1704).
att(1309,14).
att(885,1470).
att(652,1174).
att(1226,56).
att(1435,696).
att(1829,250).
att(653,1177).
att(668,1069).
att(681,1177).
att(1985,1723).
att(657,994).
att(924,1464).
att(1445,594).
att(913,1627).
att(1224,30).
att(1439,708).
att(660,981).
att(1238,214).
att(683,1180).
att(1787,352).
att(1795,327).
att(2003,1609).
att(2007,1702).
att(1905,2034).
att(1829,178).
att(910,1642).
att(1226,16).
att(1449,596).
att(661,1022).
att(1437,712).
att(1906,2033).
att(1984,1672).
att(2013,1676).
att(1488,699).
att(1237,83).
att(1822,203).
att(1490,703).
att(2001,1677).
att(1785,321).
att(1825,185).
att(633,1050).
att(914,1651).
att(1845,2104).
att(1262,613).
att(1849,2186).
att(1936,1647).
att(885,1531).
att(1264,629).
att(1846,2107).
att(663,1098).
att(1800,112).
att(1839,1975).
att(969,1717).
att(926,1530).
att(1836,2006).
att(1447,639).
att(1261,632).
att(1449,629).
att(1226,50).
att(668,1094).
att(967,1651).
att(1443,736).
att(1940,1570).
att(1850,2123).
att(881,1458).
att(1439,744).
att(920,1656).
att(1844,2096).
att(660,1143).
att(1930,1533).
att(883,1582).
att(1844,2075).
att(1262,667).
att(1315,9).
att(924,1630).
att(1264,689).
att(1227,67).
att(1840,2012).
att(1322,3).
att(1324,8).
att(1228,152).
att(1445,667).
att(1940,1602).
att(1259,682).
att(1324,2).
att(1434,796).
att(1434,802).
att(1959,1719).
att(914,1720).
att(1226,71).
att(661,1088).
att(1262,690).
att(668,1151).
att(1257,625).
att(1264,693).
att(1851,2154).
att(1934,1562).
att(1231,63).
att(881,1533).
att(1844,2057).
att(1229,218).
att(660,1174).
att(1320,18).
att(1837,2073).
att(1449,739).
att(877,1643).
att(1327,57).
att(648,1065).
att(1934,1655).
att(1315,14).
att(875,1643).
att(1264,707).
att(1841,2154).
att(2011,1526).
att(926,1609).
att(1324,15).
att(1445,695).
att(1833,2058).
att(660,1176).
att(883,1612).
att(638,1020).
att(1256,669).
att(1936,1650).
att(2001,1454).
att(1312,21).
att(1314,3).
att(1935,1673).
att(877,1583).
att(1938,1648).
att(1264,667).
att(1315,3).
att(1789,202).
att(1800,258).
att(1910,1720).
att(1910,1719).
att(1224,152).
att(1261,662).
att(1800,251).
att(640,1032).
att(1837,2027).
att(1793,211).
att(648,1098).
att(1256,740).
att(1314,53).
att(1247,593).
att(1257,742).
att(877,1705).
att(1835,2054).
att(893,1532).
att(1264,727).
att(1928,1681).
att(887,1562).
att(1940,1702).
att(1800,187).
att(887,1566).
att(926,1648).
att(1940,1676).
att(852,1470).
att(877,1675).
att(1312,53).
att(646,1065).
att(858,1460).
att(1310,206).
att(1322,49).
att(1264,696).
att(1451,740).
att(1315,11).
att(1839,2049).
att(1315,13).
att(1940,1612).
att(659,1178).
att(893,1454).
att(926,1677).
att(1259,695).
att(1409,1759).
att(1324,62).
att(1797,123).
att(638,981).
att(1445,740).
att(1930,1616).
att(876,1625).
att(883,1675).
att(1800,211).
att(1984,1462).
att(1816,425).
att(1845,185).
att(885,1112).
att(1848,259).
att(1816,412).
att(885,1139).
att(1449,206).
att(1817,424).
att(1275,12).
att(1270,15).
att(1959,2073).
att(1910,1929).
att(1961,2056).
att(1843,256).
att(1262,154).
att(1262,155).
att(877,1090).
att(877,1089).
att(1268,3).
att(858,930).
att(1270,42).
att(860,946).
att(1959,2090).
att(881,1146).
att(924,1169).
att(1272,1).
att(1225,1985).
att(1312,1820).
att(1266,5).
att(1256,70).
att(1318,1849).
att(1320,1877).
att(1288,1908).
att(1327,1954).
att(1517,651).
att(761,1564).
att(891,1045).
att(1848,203).
att(1315,1872).
att(1517,641).
att(893,1050).
att(755,1468).
att(1312,1908).
att(876,1177).
att(893,1052).
att(1257,115).
att(1288,1835).
att(893,1064).
att(1324,1904).
att(1259,107).
att(1272,17).
att(1960,2054).
att(1818,343).
att(1268,19).
att(1318,1899).
att(1327,1985).
att(1549,693).
att(858,1107).
att(753,1529).
att(1511,619).
att(1932,1982).
att(855,1092).
att(1299,1819).
att(1511,621).
att(1272,72).
att(887,1094).
att(1293,1791).
att(1851,318).
att(1324,1934).
att(1940,2051).
att(1940,2049).
att(1505,595).
att(1505,594).
att(1848,284).
att(1315,1958).
att(1955,2101).
att(1288,1872).
att(1248,43).
att(761,1526).
att(1299,1831).
att(887,1034).
att(1850,280).
att(887,1048).
att(1249,58).
att(748,1455).
att(1846,311).
att(1507,591).
att(1245,55).
att(1312,1872).
att(1940,1971).
att(1247,60).
att(1847,374).
att(1847,352).
att(1847,351).
att(1509,592).
att(858,1033).
att(1928,1925).
att(893,1112).
att(676,938).
att(1957,2128).
att(1272,120).
att(1305,1833).
att(1517,707).
att(1930,1923).
att(893,1139).
att(1272,113).
att(748,1581).
att(755,1587).
att(1519,664).
att(1293,1814).
att(1850,310).
att(1290,1819).
att(1509,692).
att(1295,1848).
att(1847,283).
att(1303,1841).
att(1911,1981).
att(1320,2001).
att(1254,2).
att(1291,1822).
att(755,1584).
att(1292,1816).
att(1940,1937).
att(1850,232).
att(1249,76).
att(1324,2003).
att(751,1588).
att(676,998).
att(865,1070).
att(753,1624).
att(1818,179).
att(1814,204).
att(1829,406).
att(1826,344).
att(1831,404).
att(1305,1873).
att(1519,742).
att(1252,62).
att(1815,204).
att(864,995).
att(1293,1838).
att(1293,1832).
att(857,1113).
att(1507,708).
att(1232,41).
att(861,994).
att(1253,12).
att(1515,700).
att(764,1458).
att(1823,280).
att(1868,1971).
att(1292,1838).
att(1828,352).
att(1819,207).
att(750,1584).
att(857,1151).
att(1513,711).
att(1816,111).
att(1247,149).
att(1268,83).
att(751,1633).
att(1819,123).
att(956,1559).
att(1874,2048).
att(677,1033).
att(1869,2000).
att(761,1737).
att(1819,108).
att(1824,313).
att(1873,1977).
att(1299,1953).
att(1480,645).
att(1509,740).
att(1824,261).
att(1290,1869).
att(1290,1868).
att(1510,731).
att(1291,1872).
att(1233,56).
att(1291,1899).
att(746,1625).
att(1549,729).
att(1297,1871).
att(761,1650).
att(753,1703).
att(1305,1961).
att(1523,649).
att(863,1045).
att(1255,47).
att(1292,1870).
att(1828,287).
att(1872,2008).
att(674,1052).
att(1486,643).
att(1905,2101).
att(1877,1979).
att(1507,694).
att(1872,2006).
att(1480,594).
att(853,1175).
att(862,1069).
att(1291,1934).
att(1240,2).
att(1815,311).
att(1815,310).
att(1252,156).
att(1818,279).
att(1819,261).
att(1821,261).
att(1873,2096).
att(1955,1996).
att(953,1601).
att(1293,2001).
att(959,1607).
att(1873,2124).
att(1250,71).
att(1956,2004).
att(1871,2174).
att(1815,262).
att(1295,2001).
att(956,1605).
att(1868,2125).
att(1233,74).
att(746,1674).
att(956,1529).
att(1291,1957).
att(677,1098).
att(1510,800).
att(1959,1996).
att(1252,68).
att(1876,2098).
att(959,1535).
att(1960,1997).
att(1486,621).
att(1290,1958).
att(1474,637).
att(1295,1935).
att(673,1031).
att(1812,229).
att(1254,69).
att(951,1554).
att(1521,689).
att(1251,79).
att(1255,70).
att(688,993).
att(956,1643).
att(956,1642).
att(1234,120).
att(1813,184).
att(1875,2138).
att(1820,233).
att(1480,713).
att(1868,2058).
att(1476,670).
att(1221,8).
att(1961,1925).
att(963,1612).
att(1476,658).
att(688,1018).
att(1824,345).
att(684,1025).
att(1820,257).
att(1875,2075).
att(1474,693).
att(953,1602).
att(955,1589).
att(1235,64).
att(1876,2070).
att(951,1589).
att(1480,656).
att(1240,41).
att(1870,2057).
att(1236,1).
att(1821,256).
att(1251,1934).
att(2003,2128).
att(1828,775).
att(2005,2155).
att(2009,2124).
att(1253,1930).
att(1679,1969).
att(1908,279).
att(951,1034).
att(1695,1781).
att(1697,1782).
att(1904,236).
att(1903,234).
att(1685,1964).
att(1684,2024).
att(1800,1019).
att(1831,771).
att(955,1064).
att(1909,286).
att(1679,1999).
att(1291,1538).
att(1695,1804).
att(2003,2126).
att(1291,1565).
att(1254,1928).
att(1242,1823).
att(1251,1961).
att(1783,935).
att(1822,795).
att(1490,39).
att(1685,1986).
att(1691,2026).
att(2007,2072).
att(1684,2020).
att(1797,977).
att(1901,183).
att(1685,1989).
att(961,1120).
att(1474,64).
att(1493,34).
att(1800,941).
att(1443,4).
att(1476,63).
att(1680,2025).
att(1822,721).
att(1437,7).
att(1236,1844).
att(963,1120).
att(1791,947).
att(2001,2059).
att(957,1146).
att(1484,154).
att(969,939).
att(1235,1983).
att(922,940).
att(1789,899).
att(1799,979).
att(1679,2037).
att(1830,714).
att(961,1073).
att(1480,67).
att(1679,2046).
att(1480,69).
att(1521,156).
att(1476,82).
att(2005,2030).
att(956,1074).
att(1985,2070).
att(2001,2093).
att(1985,2059).
att(913,994).
att(1222,1907).
att(1824,898).
att(1870,180).
att(1441,60).
att(1829,976).
att(922,1067).
att(1828,851).
att(955,1173).
att(967,1032).
att(1899,406).
att(951,1116).
att(1654,2018).
att(1660,1991).
att(1242,1877).
att(1236,1904).
att(1237,1903).
att(1439,14).
att(1901,375).
att(1907,402).
att(1900,372).
att(1237,1835).
att(1238,1909).
att(1907,412).
att(1238,1908).
att(1828,874).
att(1875,181).
att(1829,868).
att(910,1018).
att(1242,1908).
att(1242,1907).
att(1433,6).
att(916,1022).
att(1654,2042).
att(1662,2037).
att(1822,898).
att(1490,73).
att(1829,905).
att(1663,1862).
att(1907,321).
att(2005,2174).
att(1872,114).
att(1229,1828).
att(1830,898).
att(1229,1823).
att(1239,1928).
att(910,1066).
att(918,1033).
att(1493,73).
att(1236,1954).
att(1868,114).
att(1228,1831).
att(1241,1935).
att(1899,377).
att(1831,894).
att(2009,2185).
att(1434,59).
att(1829,828).
att(1789,1001).
att(1658,1878).
att(1907,349).
att(1697,1784).
att(1826,843).
att(1907,347).
att(1697,1786).
att(1434,58).
att(1238,1954).
att(1685,1782).
att(1679,1803).
att(1826,841).
att(912,999).
att(916,1064).
att(1437,56).
att(1488,48).
att(1828,849).
att(1900,262).
att(969,1045).
att(1240,1957).
att(1680,1809).
att(1876,111).
att(922,1148).
att(1228,1842).
att(1447,3).
att(1834,256).
att(885,946).
att(1437,154).
att(1839,233).
att(1839,232).
att(918,1072).
att(912,1107).
att(967,1170).
att(2013,1931).
att(1911,2123).
att(1434,72).
att(1832,178).
att(1239,1985).
att(1230,1848).
att(1846,402).
att(967,1141).
att(1834,186).
att(1797,716).
att(1493,69).
att(1839,260).
att(1910,2153).
att(1310,1789).
att(920,1078).
att(876,1018).
att(1833,211).
att(1309,1840).
att(1837,185).
att(877,1025).
att(1449,60).
att(1934,2014).
att(912,1120).
att(1838,186).
att(1837,178).
att(1936,2089).
att(1310,1844).
att(1910,2070).
att(1449,13).
att(1259,39).
att(1928,2095).
att(1911,2073).
att(920,1174).
att(1843,424).
att(1837,205).
att(1848,342).
att(1225,1845).
att(877,938).
att(1838,217).
att(875,936).
att(929,1021).
att(1310,1816).
att(967,1139).
att(1227,1845).
att(1451,28).
att(1848,415).
att(913,1143).
att(883,1004).
att(1441,83).
att(1256,62).
att(1837,345).
att(1687,2039).
att(1907,187).
att(879,1048).
att(1838,322).
att(929,1111).
att(1257,58).
att(1687,2037).
att(1679,2041).
att(912,1174).
att(2013,2014).
att(1839,322).
att(1908,186).
att(1259,54).
att(1833,321).
att(1261,60).
att(1689,2041).
att(1793,819).
att(1932,2167).
att(877,997).
att(1435,213).
att(1435,216).
att(2007,2055).
att(929,1032).
att(1907,207).
att(1257,15).
att(1904,118).
att(1840,327).
att(1904,114).
att(1832,352).
att(1985,2014).
att(1230,1868).
att(1434,189).
att(1445,56).
att(1985,2032).
att(1691,1856).
att(1909,205).
att(1932,2096).
att(1837,263).
att(1840,349).
att(1270,8).
att(875,1107).
att(1938,2173).
att(1800,823).
att(1231,2009).
att(1451,67).
att(1797,840).
att(1839,279).
att(1984,2053).
att(1324,1819).
att(926,1074).
att(1783,841).
att(1228,2005).
att(1785,786).
att(1834,236).
att(1447,74).
att(1836,313).
att(2007,2008).
att(2009,1996).
att(1835,237).
att(879,1093).
att(1932,2155).
att(1840,262).
att(1257,43).
att(1257,47).
att(1795,775).
att(1797,771).
att(1838,313).
att(1324,1827).
att(881,1046).
att(1697,1890).
att(1911,2170).
att(1288,1329).
att(1843,820).
att(1956,373).
att(1262,1868).
att(1264,1870).
att(1316,1302).
att(1846,819).
att(1225,1469).
att(1229,1565).
att(1327,1302).
att(1844,843).
att(1262,1905).
att(1257,1832).
att(1259,1840).
att(1960,376).
att(1324,1321).
att(1312,1281).
att(1961,377).
att(1955,310).
att(1275,1814).
att(1449,2009).
att(1958,285).
att(1843,769).
att(1449,2013).
att(1243,1787).
att(1910,109).
att(1268,1829).
att(1955,236).
att(1819,1005).
att(1955,219).
att(1941,313).
att(1956,233).
att(1322,1349).
att(1249,1799).
att(1955,229).
att(1227,1557).
att(1225,1536).
att(1850,768).
att(1845,908).
att(1928,234).
att(1832,792).
att(1288,1424).
att(1511,1).
att(1519,7).
att(1842,947).
att(1249,1815).
att(1324,1396).
att(1938,313).
att(1318,1396).
att(1910,262).
att(757,946).
att(1247,1820).
att(1844,1002).
att(1268,1847).
att(1843,1030).
att(1940,317).
att(1268,1821).
att(1928,256).
att(759,939).
att(1928,254).
att(1248,1815).
att(1264,2013).
att(1930,256).
att(1839,797).
att(1843,906).
att(1932,251).
att(1834,714).
att(1266,1817).
att(1243,1836).
att(1955,429).
att(761,1067).
att(1316,1430).
att(1845,868).
att(1932,185).
att(1270,1868).
att(1837,724).
att(748,1022).
att(1851,945).
att(748,1021).
att(1519,15).
att(1850,974).
att(1953,404).
att(1272,1901).
att(1519,12).
att(1245,1833).
att(1509,41).
att(1268,1908).
att(1290,1281).
att(1843,973).
att(1934,179).
att(1268,1905).
att(1839,716).
att(1268,1904).
att(1844,894).
att(1955,343).
att(759,993).
att(1322,1431).
att(1305,1329).
att(748,1023).
att(1959,429).
att(1511,26).
att(761,996).
att(1934,207).
att(1266,1837).
att(1507,4).
att(1243,1851).
att(1303,1326).
att(1297,1368).
att(1941,111).
att(1824,1026).
att(1251,1797).
att(1297,1363).
att(1292,1369).
att(1234,1795).
att(1299,1349).
att(755,1095).
att(1876,347).
att(1235,1800).
att(1299,1362).
att(755,1046).
att(757,1048).
att(1301,1369).
att(751,1032).
att(1515,48).
att(757,1050).
att(751,1033).
att(1254,1831).
att(1288,1536).
att(1868,283).
att(1303,1369).
att(1315,1537).
att(1816,767).
att(1292,1306).
att(1292,1296).
att(1270,1953).
att(1252,1797).
att(1875,283).
att(1823,1001).
att(1511,12).
att(1299,1300).
att(1507,15).
att(750,993).
att(1266,1871).
att(1312,1461).
att(1813,771).
att(1320,1561).
att(1505,18).
att(746,997).
att(1874,317).
att(755,1146).
att(1824,950).
att(1868,250).
att(1828,945).
att(1820,771).
att(1252,1850).
att(1876,287).
att(1292,1424).
att(1828,907).
att(1828,906).
att(1825,1005).
att(1235,1828).
att(1235,1823).
att(1812,794).
att(1826,1008).
att(1291,1365).
att(1511,77).
att(1815,715).
att(1830,945).
att(1819,790).
att(1253,1818).
att(755,1110).
att(1876,238).
att(1247,1955).
att(745,1045).
att(1303,1463).
att(1234,1841).
att(1477,42).
att(1958,232).
att(1292,1503).
att(1299,1431).
att(750,1116).
att(953,1025).
att(755,1171).
att(953,1023).
att(1820,943).
att(1819,937).
att(1293,1394).
att(759,1179).
att(1232,1843).
att(1486,32).
att(1476,9).
att(1476,7).
att(1941,317).
att(1812,974).
att(1510,122).
att(1234,1848).
att(748,1148).
att(1484,42).
att(1511,156).
att(1819,948).
att(1511,152).
att(1252,1833).
att(1253,1840).
att(1293,1397).
att(755,1139).
att(1960,251).
att(750,1074).
att(1486,8).
att(1232,1821).
att(1821,976).
att(1301,1394).
att(764,1004).
att(1843,726).
att(1954,258).
att(1812,867).
att(764,1020).
att(1250,1842).
att(1816,903).
att(1482,54).
att(1523,45).
att(1234,1870).
att(1293,1561).
att(1235,1868).
att(1814,851).
att(1812,903).
att(1290,1465).
att(1295,1536).
att(951,981).
att(1232,1899).
att(1233,1907).
att(1851,720).
att(1851,716).
att(764,1050).
att(1291,1471).
att(1953,215).
att(1868,343).
att(753,1173).
att(1511,188).
att(1234,1909).
att(963,1066).
att(965,1068).
att(959,1000).
att(1513,216).
att(961,980).
att(1868,347).
att(1480,15).
att(956,1000).
att(1305,1537).
att(2005,402).
att(2005,400).
att(1823,1362).
att(1904,948).
att(1908,909).
att(2005,427).
att(1905,949).
att(1899,949).
att(1823,1349).
att(1873,720).
att(1903,907).
att(1831,1425).
att(2009,424).
att(1789,1537).
att(1907,950).
att(1826,1365).
att(1905,868).
att(1877,716).
att(1831,1347).
att(1795,1557).
att(1904,900).
att(1899,874).
att(1985,404).
att(1783,1565).
att(1984,425).
att(2007,412).
att(1828,1289).
att(2007,376).
att(1903,822).
att(2011,349).
att(1828,1325).
att(2007,321).
att(1831,1300).
att(2001,374).
att(1813,1283).
att(1826,1459).
att(1869,849).
att(1821,1296).
att(1901,1026).
att(1901,1001).
att(1875,822).
att(1822,1502).
att(1868,844).
att(1877,822).
att(1901,906).
att(1830,1503).
att(1872,776).
att(1830,1502).
att(1899,1005).
att(1826,1420).
att(1830,1397).
att(1869,714).
att(1875,770).
att(1823,1426).
att(1774,1992).
att(1775,1802).
att(1787,1308).
att(1936,400).
att(1936,415).
att(1833,904).
att(1789,1308).
att(1934,342).
att(2011,183).
att(1773,1966).
att(1908,724).
att(2011,186).
att(1773,1995).
att(1783,1362).
att(1836,976).
att(1928,402).
att(1787,1326).
att(1785,1319).
att(1772,1987).
att(1789,1313).
att(1832,900).
att(2007,116).
att(1833,848).
att(1779,1990).
att(2009,114).
att(1777,2016).
att(2007,109).
att(1797,1329).
att(1789,1282).
att(1835,844).
att(1910,322).
att(1789,1287).
att(1932,281).
att(1783,1323).
att(1841,899).
att(1791,1279).
att(1832,768).
att(1834,768).
att(1932,287).
att(1797,1286).
att(1911,372).
att(1791,1325).
att(1911,375).
att(1797,1278).
att(1795,1501).
att(2003,317).
att(1901,767).
att(1905,843).
att(1797,1473).
att(1904,840).
att(2005,314).
att(1787,1394).
att(1984,352).
att(1828,1278).
att(1909,828).
att(1900,799).
att(1834,907).
att(1829,1287).
att(1768,1781).
att(1800,1503).
att(1793,1472).
att(1833,1003).
att(1774,1788).
att(1832,1024).
att(1838,937).
att(1772,1781).
att(1900,714).
att(1907,776).
att(1776,1794).
att(1904,797).
att(1906,806).
att(1905,790).
att(1778,1798).
att(1791,1343).
att(1836,975).
att(1776,1808).
att(1772,1970).
att(1777,1780).
att(1903,806).
att(1909,801).
att(1837,1278).
att(1786,1988).
att(1936,845).
att(1956,1026).
att(1848,1499).
att(1846,1394).
att(1790,1987).
att(1911,774).
att(1932,795).
att(1960,1008).
att(1788,2016).
att(1851,1501).
att(1957,947).
att(1938,771).
att(1910,842).
att(1940,772).
att(1848,1427).
att(1849,1423).
att(1845,1341).
att(1930,728).
att(1938,792).
att(1796,2019).
att(1842,1348).
att(1960,945).
att(1847,1397).
att(1953,979).
att(1956,867).
att(1780,1806).
att(1941,908).
att(1790,1857).
att(1940,726).
att(1938,721).
att(1785,1800).
att(1776,2041).
att(1768,1882).
att(1779,2042).
att(1777,1857).
att(1777,1853).
att(1983,793).
att(1838,1343).
att(1910,945).
att(1770,1796).
att(1773,1864).
att(1983,790).
att(1832,1347).
att(1836,1428).
att(1788,1786).
att(1839,1347).
att(1836,1363).
att(1846,1563).
att(1846,1538).
att(1834,1308).
att(1837,1367).
att(1911,949).
att(1774,1878).
att(1934,904).
att(1983,728).
att(1774,1882).
att(1774,1890).
att(1778,1896).
att(1833,1317).
att(1845,1467).
att(1845,1432).
att(1844,1469).
att(1847,1557).
att(1911,850).
att(1835,1319).
att(1777,1888).
att(1911,851).
att(1836,1323).
att(1784,1993).
att(1838,1326).
att(1837,1328).
att(1928,826).
att(1788,1999).
att(1841,1307).
att(1928,825).
att(1805,2022).
att(1956,797).
att(1875,1019).
att(1877,1001).
att(1960,776).
att(1813,1428).
att(1941,843).
att(1808,2020).
att(1870,1003).
att(1814,1395).
att(1821,1394).
att(1815,1341).
att(1780,1856).
att(1869,873).
att(1781,1852).
att(1781,1862).
att(1961,790).
att(1782,1857).
att(1824,1557).
att(1780,1884).
att(1819,1349).
att(1869,905).
att(1869,903).
att(1807,1879).
att(1812,1366).
att(1874,868).
att(1814,1289).
att(1826,1557).
att(1874,873).
att(1874,870).
att(1875,871).
att(1868,901).
att(1814,1368).
att(1782,1801).
att(1847,1364).
att(1843,1296).
att(1796,1884).
att(1961,870).
att(1790,1879).
att(1956,901).
att(1812,1536).
att(1851,1341).
att(1911,722).
att(1796,1892).
att(1781,1970).
att(1847,1371).
att(1847,1321).
att(1954,840).
att(1954,843).
att(1805,1999).
att(1848,1319).
att(1848,1329).
att(1961,827).
att(1821,1471).
att(1821,1432).
att(1810,1974).
att(1819,1536).
att(1842,1283).
att(1814,1467).
att(1868,1001).
att(1818,1469).
att(1851,1319).
att(1811,1994).
att(2113,637).
att(2113,643).
att(2109,608).
att(2134,731).
att(1877,1366).
att(1877,1371).
att(2145,732).
att(2149,719).
att(2143,740).
att(2109,630).
att(2147,719).
att(2140,736).
att(1903,1565).
att(2119,649).
att(2113,690).
att(2119,672).
att(1901,1393).
att(2111,689).
att(1874,1319).
att(1908,1471).
att(1873,1282).
att(2007,1028).
att(2137,803).
att(2111,611).
att(2143,777).
att(2013,1026).
att(2013,1001).
att(1874,1498).
att(1872,1398).
att(1958,1282).
att(1959,1279).
att(2109,709).
att(1813,1831).
att(1874,1397).
att(2118,704).
att(2120,697).
att(2117,712).
att(2121,702).
att(1868,1424).
att(2118,733).
att(2121,803).
att(1814,1787).
att(1874,1344).
att(1868,1298).
att(1820,1822).
att(2120,729).
att(1812,1795).
att(1821,1825).
att(1900,1281).
att(1904,1325).
att(1834,1473).
att(1900,1278).
att(2011,821).
att(2113,725).
att(2007,841).
att(2009,842).
att(2013,840).
att(1985,768).
att(1840,1500).
att(1932,947).
att(2009,773).
att(1928,1001).
att(2013,776).
att(1985,790).
att(1834,1347).
att(1835,1343).
att(1934,978).
att(1835,1350).
att(1985,773).
att(1900,1348).
att(2011,935).
att(1899,1425).
att(1900,1369).
att(1904,1349).
att(1908,1427).
att(2009,851).
att(1825,1783).
att(1900,1304).
att(1903,1368).
att(1905,1367).
att(1905,1371).
att(1828,1795).
att(1827,1783).
att(1909,1347).
att(2003,825).
att(1839,1538).
att(2009,901).
att(1900,1313).
att(2003,823).
att(1839,1567).
att(2013,898).
att(1553,381).
att(2255,596).
att(1470,559).
att(1566,398).
att(2259,704).
att(1558,378).
att(1468,551).
att(1464,532).
att(1564,401).
att(1832,1793).
att(1466,559).
att(1556,381).
att(1838,1825).
att(1554,378).
att(1936,1342).
att(1464,516).
att(2262,704).
att(1452,515).
att(1841,1818).
att(1935,1367).
att(2258,619).
att(2259,740).
att(1562,478).
att(1564,473).
att(2268,807).
att(2257,628).
att(2265,730).
att(1932,1300).
att(1552,431).
att(2256,619).
att(2267,791).
att(1553,428).
att(1832,1800).
att(1839,1783).
att(2255,621).
att(1839,1793).
att(1934,1296).
att(2257,639).
att(1556,431).
att(1960,1563).
att(2257,643).
att(1936,1304).
att(2264,736).
att(1562,449).
att(1554,428).
att(1938,1306).
att(1960,1555).
att(1928,1308).
att(1452,551).
att(1954,1536).
att(1907,1799).
att(2250,619).
att(4,999).
att(1984,1371).
att(2009,1300).
att(2003,1313).
att(2013,1296).
att(2255,664).
att(1552,470).
att(1984,1369).
att(1928,1536).
att(2262,800).
att(2262,796).
att(1934,1472).
att(1910,1536).
att(2261,725).
att(9,1066).
att(1940,1469).
att(1983,1289).
att(9,1064).
att(1940,1465).
att(2252,623).
att(2,997).
att(1911,1563).
att(1559,454).
att(1934,1499).
att(1558,537).
att(1985,1278).
att(1534,398).
att(2253,704).
att(1533,401).
att(1930,1393).
att(1535,389).
att(1934,1372).
att(1984,1311).
att(6,934).
att(1928,1423).
att(1836,1847).
att(1838,1848).
att(1837,1846).
att(1938,1372).
att(2250,685).
att(2250,691).
att(2253,710).
att(2249,672).
att(1566,520).
att(1834,1813).
att(2256,713).
att(1460,387).
att(2258,723).
att(1941,1347).
att(1458,385).
att(2148,651).
att(2257,729).
att(2250,699).
att(2150,645).
att(1961,1348).
att(2253,723).
att(1845,1795).
att(2258,737).
att(2258,736).
att(1941,1362).
att(1869,1467).
att(1955,1300).
att(2257,731).
att(1959,1365).
att(2145,592).
att(2249,703).
att(1954,1371).
att(1953,1304).
att(1460,438).
att(1460,433).
att(1954,1313).
att(1460,430).
att(1959,1296).
att(1468,434).
att(1462,398).
att(1460,407).
att(1869,1392).
att(2143,647).
att(1869,1398).
att(1874,1469).
att(2254,719).
att(1454,382).
att(1957,1286).
att(2134,643).
att(1452,385).
att(2252,719).
att(1941,1308).
att(2255,800).
att(1957,1287).
att(2143,662).
att(1936,1329).
att(1956,1496).
att(1959,1463).
att(1959,1461).
att(2147,707).
att(1911,1306).
att(1464,449).
att(1466,471).
att(1460,450).
att(2150,656).
att(2250,798).
att(1959,1502).
att(1938,1281).
att(2147,667).
att(1960,1498).
att(1464,438).
att(1842,1849).
att(1468,531).
att(1464,512).
att(1959,1390).
att(1454,498).
att(1955,1425).
att(2120,635).
att(1957,1428).
att(1956,1425).
att(2140,696).
att(1961,1390).
att(1910,1282).
att(2145,740).
att(1848,1818).
att(2149,696).
att(1954,1347).
att(1460,493).
att(2148,699).
att(1462,492).
att(2147,697).
att(1960,1422).
att(1954,1429).
att(1470,491).
att(1961,1422).
att(1941,1372).
att(1961,1429).
att(1871,1841).
att(12,931).
att(30,1144).
att(13,930).
att(11,1004).
att(1876,1903).
att(28,1114).
att(32,1078).
att(38,1140).
att(14,930).
att(16,934).
att(1605,450).
att(16,946).
att(1603,418).
att(1876,1836).
att(12,946).
att(1606,438).
att(39,1077).
att(41,1151).
att(1874,1847).
att(42,1146).
att(1873,1819).
att(26,1074).
att(20,931).
att(32,1045).
att(42,1071).
att(34,1078).
att(1868,1831).
att(1873,1823).
att(36,1072).
att(1607,472).
att(2043,1896).
att(1601,534).
att(1605,550).
att(17,1094).
att(1605,554).
att(1587,380).
att(1960,1819).
att(1607,532).
att(1587,381).
att(2038,1888).
att(2043,1862).
att(12,1093).
att(1602,518).
att(17,1033).
att(1585,379).
att(1959,1824).
att(1959,1823).
att(2037,1888).
att(1604,536).
att(1600,516).
att(14,1108).
att(1958,1800).
att(26,1178).
att(1585,428).
att(1570,434).
att(1868,1905).
att(14,1064).
att(1607,554).
att(1903,1850).
att(1529,431).
att(38,930).
att(8,1140).
att(8,1151).
att(42,1020).
att(1901,1816).
att(2001,1397).
att(6,1112).
att(1553,549).
att(1535,426).
att(1904,1818).
att(9,1151).
att(1532,431).
att(1558,553).
att(1533,428).
att(1556,549).
att(1905,1812).
att(1906,1818).
att(1531,379).
att(2,1089).
att(1908,1846).
att(1885,1888).
att(3,1034).
att(6,1109).
att(2003,1363).
att(2009,1349).
att(1529,471).
att(2013,1341).
att(4,1052).
att(1532,474).
att(1529,449).
att(2146,380).
att(1930,1557).
att(1528,450).
att(1882,1886).
att(1934,1561).
att(8,1050).
att(1534,456).
att(1535,451).
att(6,1094).
att(6,1093).
att(1906,1791).
att(1604,389).
att(2003,1565).
att(36,1049).
att(42,1110).
att(41,1032).
att(1531,494).
att(2133,414).
att(1901,1909).
att(2009,1465).
att(30,1029).
att(1601,414).
att(1530,556).
att(1605,437).
att(2011,1467).
att(1905,1909).
att(21,1112).
att(39,981).
att(4,1139).
att(2013,1469).
att(2146,460).
att(2135,451).
att(1531,539).
att(2141,471).
att(2133,451).
att(38,1025).
att(2007,1496).
att(1602,384).
att(1531,533).
att(1533,551).
att(2135,470).
att(2144,480).
att(34,993).
att(1588,407).
att(1526,515).
att(1985,1467).
att(2135,478).
att(2,1113).
att(1632,529).
att(1609,381).
att(1932,1876).
att(2009,1789).
att(51,1048).
att(1,1553).
att(1940,1961).
att(1936,1868).
att(1932,1903).
att(1932,1907).
att(1633,495).
att(2,1470).
att(48,1047).
att(1940,1871).
att(46,1025).
att(1930,1840).
att(1928,1838).
att(1936,1899).
att(1936,1901).
att(1940,1905).
att(49,1029).
att(1609,398).
att(45,934).
att(1632,550).
att(1646,534).
att(1628,559).
att(1644,532).
att(43,934).
att(1611,381).
att(74,938).
att(49,1139).
att(3,1570).
att(2009,1832).
att(47,1168).
att(81,980).
att(1624,453).
att(78,1022).
att(79,1023).
att(5,1612).
att(82,999).
att(1983,1905).
att(76,946).
att(1616,472).
att(74,1004).
att(1609,456).
att(1626,438).
att(1609,450).
att(8,1584).
att(8,1568).
att(78,938).
att(46,1090).
att(50,1143).
att(80,934).
att(4,1603).
att(77,1027).
att(77,1004).
att(2007,1821).
att(46,1108).
att(2007,1820).
att(6,1601).
att(1985,1817).
att(2013,1828).
att(2003,1826).
att(8,1588).
att(1985,1849).
att(1611,500).
att(2001,1800).
att(8,1534).
att(1624,480).
att(1616,493).
att(2011,1822).
att(1,1529).
att(1611,476).
att(1934,1957).
att(1585,498).
att(54,1021).
att(17,1172).
att(60,1065).
att(1956,1906).
att(59,1050).
att(55,1070).
att(13,1143).
att(11,1116).
att(1959,1909).
att(57,1027).
att(1958,1899).
att(1957,1837).
att(1960,1904).
att(62,998).
att(1584,473).
att(1954,1907).
att(12,1115).
att(1570,471).
att(62,996).
att(13,1090).
att(59,1017).
att(59,1022).
att(60,1023).
att(16,1151).
att(19,1115).
att(53,944).
att(1584,533).
att(1941,1908).
att(1568,539).
att(18,1168).
att(19,1144).
att(1960,1844).
att(62,944).
att(1569,518).
att(1957,1812).
att(1646,430).
att(1910,1836).
att(1938,1843).
att(1938,1850).
att(1932,1816).
att(1932,1815).
att(1628,432).
att(53,1095).
att(1642,378).
att(58,1111).
att(1934,1822).
att(1910,1850).
att(61,1092).
att(62,1098).
att(1910,1817).
att(54,1048).
att(1910,1814).
att(57,1054).
att(57,1051).
att(1643,435).
att(60,1046).
att(1957,1872).
att(62,1046).
att(1936,1785).
att(53,1054).
att(55,1046).
att(1938,1795).
att(70,1144).
att(70,1141).
att(13,1533).
att(1674,399).
att(19,1585).
att(70,1169).
att(1648,431).
att(1672,398).
att(155,946).
att(1967,2036).
att(1703,542).
att(1801,1885).
att(72,1077).
att(68,1111).
att(1672,385).
att(11,1532).
att(1677,537).
att(64,1065).
att(1672,455).
att(1968,1886).
att(41,1736).
att(1973,1880).
att(68,1034).
att(1655,470).
att(14,1534).
att(1655,475).
att(1674,438).
att(76,1175).
att(36,1705).
att(18,1556).
att(1655,458).
att(28,1681).
att(19,1552).
att(69,1067).
att(72,1031).
att(1674,407).
att(66,1049).
att(1649,514).
att(1804,1964).
att(1649,515).
att(1649,512).
att(13,1625).
att(60,1560).
att(17,1703).
att(147,1052).
att(11,1702).
att(14,1653).
att(18,1725).
att(1809,1880).
att(1803,1999).
att(1653,513).
att(59,1464).
att(1653,514).
att(154,1070).
att(1969,1966).
att(1969,1994).
att(149,1069).
att(1649,478).
att(1801,2046).
att(1649,553).
att(148,931).
att(1648,551).
att(1656,554).
att(147,1022).
att(1803,2045).
att(67,1179).
att(66,1171).
att(1804,2041).
att(12,1603).
att(67,1141).
att(1721,409).
att(151,934).
att(11,1585).
att(20,1642).
att(1802,2044).
att(147,938).
att(66,1138).
att(1609,559).
att(36,1530).
att(2007,1930).
att(2009,1910).
att(2001,1953).
att(1963,1882).
att(2003,1958).
att(1611,551).
att(32,1564).
att(1624,530).
att(1962,1886).
att(1683,405).
att(1994,1860).
att(1623,518).
att(1677,378).
att(1627,513).
att(2013,1932).
att(1612,530).
att(2003,1876).
att(3,1704).
att(2003,1874).
att(41,1528).
att(81,1095).
att(1625,511).
att(8,1651).
att(8,1650).
att(1675,380).
att(32,1466).
att(1983,1934).
att(78,1098).
att(77,1109).
att(26,1554).
att(7,1678).
att(36,1462).
att(7,1675).
att(1676,454).
att(1704,431).
att(78,1051).
att(79,1068).
att(41,1559).
att(2009,1869).
att(73,1070).
att(1677,434).
att(1705,399).
att(1991,1989).
att(1991,2023).
att(1985,1900).
att(77,994).
att(1986,2016).
att(43,1122).
att(1988,2024).
att(1683,437).
att(1705,387).
att(1987,1988).
att(1,1608).
att(82,1066).
att(1677,407).
att(30,1645).
att(1676,500).
att(32,1633).
att(79,1173).
att(66,1070).
att(1705,455).
att(63,998).
att(34,1702).
att(75,1140).
att(1683,480).
att(41,1624).
att(1962,2039).
att(72,996).
att(1965,2045).
att(28,1644).
att(2003,2009).
att(28,1601).
att(1992,2044).
att(70,1029).
att(1705,500).
att(1965,2037).
att(32,1603).
att(1705,496).
att(1966,2043).
att(42,1569).
att(30,1531).
att(77,1146).
att(76,1111).
att(1677,496).
att(2001,2007).
att(77,1144).
att(206,1017).
att(121,1177).
att(214,1000).
att(124,1172).
att(21,1972).
att(49,1646).
att(117,1151).
att(213,1020).
att(49,1645).
att(6,1975).
att(210,936).
att(46,1583).
att(121,1175).
att(1,1972).
att(188,995).
att(189,931).
att(3,1926).
att(9,1981).
att(52,1630).
att(6,1979).
att(48,1630).
att(52,1647).
att(6,1937).
att(2016,2037).
att(43,1534).
att(2,1939).
att(2021,2044).
att(3,2073).
att(208,1095).
att(47,1720).
att(79,1603).
att(2,2130).
att(7,2057).
att(50,1721).
att(1986,1857).
att(216,1108).
att(50,1736).
att(1989,2040).
att(2025,2016).
att(188,1091).
att(9,2152).
att(45,1705).
att(46,1683).
att(74,1468).
att(77,1554).
att(3,2030).
att(4,2015).
att(47,1683).
att(2023,1862).
att(2024,1862).
att(2024,1864).
att(78,1455).
att(119,1179).
att(5,2078).
att(4,2051).
att(206,1070).
att(189,1045).
att(60,1633).
att(56,1586).
att(1723,470).
att(62,1630).
att(1717,454).
att(119,938).
att(58,1582).
att(1720,434).
att(1674,558).
att(62,1583).
att(1651,558).
att(1674,542).
att(12,1721).
att(54,1535).
att(1725,492).
att(2038,1866).
att(55,1553).
att(1737,460).
att(1737,450).
att(1736,456).
att(11,1649).
att(1723,476).
att(153,1072).
att(1723,474).
att(153,1078).
att(58,1655).
att(61,1721).
att(2016,1857).
att(46,1552).
att(1736,516).
att(55,1720).
att(119,1049).
att(53,1650).
att(55,1725).
att(57,1723).
att(1719,516).
att(107,1049).
att(57,1676).
att(1736,493).
att(59,1736).
att(2046,2041).
att(2046,1867).
att(115,1000).
att(49,1466).
att(60,1677).
att(121,1065).
att(51,1462).
att(147,1174).
att(2017,1892).
att(148,1173).
att(2022,1885).
att(51,1452).
att(121,981).
att(2044,1886).
att(152,1114).
att(155,1174).
att(156,1171).
att(1720,531).
att(2046,1892).
att(68,1648).
att(150,1560).
att(149,1554).
att(71,1725).
att(2162,498).
att(155,1528).
att(11,2076).
att(20,2059).
att(12,2079).
att(69,1676).
att(2159,493).
att(71,1655).
att(15,2079).
att(156,1553).
att(152,1454).
att(2156,510).
att(2163,531).
att(66,1681).
att(2164,407).
att(14,2028).
att(2156,531).
att(12,1998).
att(30,2101).
att(1403,382).
att(2158,533).
att(2163,554).
att(1413,414).
att(14,2049).
att(30,2173).
att(14,2054).
att(149,1643).
att(153,1625).
att(2165,449).
att(83,1470).
att(1413,437).
att(18,2185).
att(154,1628).
att(55,1998).
att(155,1645).
att(1408,426).
att(155,1643).
att(156,1630).
att(53,2002).
att(156,1642).
att(20,2098).
att(61,2010).
att(57,1929).
att(1408,456).
att(1415,474).
att(1415,475).
att(14,2124).
att(155,1604).
att(60,1924).
att(1413,494).
att(11,2072).
att(14,2126).
att(13,2057).
att(1405,491).
att(62,1924).
att(1403,496).
att(75,1609).
att(2164,530).
att(208,1173).
att(26,2034).
att(2165,537).
att(63,1460).
att(1403,511).
att(75,1644).
att(38,2035).
att(210,1116).
att(1382,384).
att(38,2047).
att(38,2051).
att(79,1626).
att(32,1981).
att(2166,550).
att(34,2015).
att(218,1173).
att(1405,530).
att(66,1468).
att(2165,558).
att(72,1464).
att(74,1609).
att(72,1462).
att(74,1608).
att(1378,381).
att(1405,542).
att(26,2048).
att(1378,387).
att(1403,534).
att(4,2104).
att(28,1996).
att(1417,432).
att(21,2100).
att(210,1170).
att(30,1997).
att(81,1608).
att(2,2167).
att(80,1646).
att(1386,405).
att(1419,432).
att(1405,556).
att(1386,403).
att(1419,438).
att(75,1589).
att(214,1140).
att(80,1569).
att(21,2126).
att(26,2008).
att(82,1644).
att(189,1122).
att(1418,451).
att(80,1570).
att(6,2170).
att(1418,453).
att(34,1982).
att(2,2100).
att(16,2008).
att(1417,476).
att(16,2004).
att(70,1645).
att(72,1646).
att(42,2187).
att(1417,490).
att(1417,495).
att(26,2138).
att(42,2098).
att(39,2126).
att(1419,495).
att(26,2152).
att(17,1929).
att(79,1721).
att(1416,512).
att(32,2092).
att(65,1564).
att(20,1937).
att(19,1923).
att(63,1535).
att(81,1721).
att(66,1558).
att(80,1649).
att(80,1656).
att(30,2029).
att(34,2059).
att(1388,520).
att(69,1564).
att(1419,542).
att(66,1535).
att(2190,426).
att(3,238).
att(45,2151).
att(43,2138).
att(47,2152).
att(2193,435).
att(6,263).
att(1,313).
att(7,236).
att(2191,456).
att(49,2152).
att(6,239).
att(2193,453).
att(47,2059).
att(218,1606).
att(44,2128).
att(43,2058).
att(212,1504).
att(208,1566).
att(2188,455).
att(2192,473).
att(117,1672).
att(2196,492).
att(210,1553).
att(43,2076).
att(188,1588).
att(218,1528).
att(9,235).
att(213,1566).
att(121,1655).
att(47,2031).
att(3,203).
att(122,1650).
att(210,1466).
att(2189,493).
att(2196,516).
att(8,181).
att(5,255).
att(2191,516).
att(214,1653).
att(2193,518).
att(38,184).
att(76,2015).
att(2179,391).
att(8,400).
att(21,346).
att(213,1718).
att(74,2076).
att(73,2093).
att(2176,378).
att(2190,529).
att(2191,539).
att(7,318).
att(32,114).
att(2197,551).
att(2178,382).
att(2179,407).
att(77,2095).
att(2191,554).
att(5,429).
att(73,2034).
att(2190,556).
att(6,376).
att(74,1981).
att(9,321).
att(188,1675).
att(216,1624).
att(8,347).
att(47,2174).
att(2177,405).
att(2182,433).
att(188,1703).
att(8,373).
att(43,2169).
att(206,1627).
att(189,1703).
att(49,2187).
att(50,2174).
att(2,313).
att(50,2186).
att(51,2173).
att(2177,430).
att(42,123).
att(4,313).
att(206,1647).
att(5,372).
att(42,109).
att(49,1923).
att(51,1931).
att(2181,473).
att(62,2154).
att(83,1583).
att(59,2122).
att(2180,498).
att(2180,496).
att(120,1534).
att(121,1531).
att(147,1649).
att(62,2073).
att(2198,510).
att(107,1554).
att(83,1605).
att(83,1604).
att(124,1535).
att(2176,496).
att(54,2049).
att(154,1653).
att(61,2092).
att(59,2075).
att(2176,516).
att(151,1608).
att(60,2032).
att(154,1676).
att(2183,385).
att(2182,529).
att(13,2169).
att(55,2047).
att(58,2052).
att(2178,514).
att(2160,378).
att(155,1675).
att(2177,513).
att(2177,510).
att(124,1466).
att(58,2047).
att(53,2052).
att(148,1608).
att(83,1562).
att(149,1676).
att(2157,378).
att(2175,531).
att(120,1704).
att(120,1702).
att(7,209).
att(3,118).
att(51,2029).
att(2184,434).
att(2175,549).
att(2157,411).
att(45,1976).
att(50,2054).
att(7,114).
att(2162,428).
att(51,2049).
att(2158,398).
att(53,2168).
att(5,209).
att(2183,458).
att(51,2051).
att(2157,438).
att(49,1981).
att(48,1978).
att(115,1583).
att(9,123).
att(53,2100).
att(2158,434).
att(122,1647).
att(56,2170).
att(52,2047).
att(49,2012).
att(2160,475).
att(56,2153).
att(47,1937).
att(117,1601).
att(58,2131).
att(2159,458).
att(2163,473).
att(2087,529).
att(1333,2022).
att(153,2032).
att(2084,542).
att(13,262).
att(1330,2046).
att(1335,1995).
att(2069,405).
att(58,114).
att(11,349).
att(2081,533).
att(2081,537).
att(12,349).
att(13,311).
att(2060,380).
att(2083,533).
att(1334,2018).
att(16,261).
att(68,2171).
att(2082,531).
att(12,312).
att(67,2168).
att(19,372).
att(2069,434).
att(11,282).
att(2066,398).
att(1360,1991).
att(61,106).
att(1331,2046).
att(2066,409).
att(156,2047).
att(156,2051).
att(149,2035).
att(1351,1777).
att(1332,2040).
att(1332,1866).
att(1358,1775).
att(70,2167).
att(153,1981).
att(1330,1864).
att(1335,2036).
att(2067,434).
att(1356,1777).
att(65,2155).
att(1331,1853).
att(16,316).
att(2066,438).
att(2065,450).
att(1332,1862).
att(2061,431).
att(1334,1854).
att(64,2075).
att(2067,451).
att(14,287).
att(2062,432).
att(1389,1773).
att(14,316).
att(1351,1809).
att(72,2125).
att(1333,1782).
att(1361,1778).
att(150,2128).
att(117,1937).
att(2064,478).
att(2065,490).
att(54,232).
att(1340,2037).
att(2065,494).
att(113,2008).
att(107,1927).
att(53,235).
att(1336,1790).
att(2064,497).
att(152,2056).
att(1335,1782).
att(53,260).
att(1545,1878).
att(2062,478).
att(2061,491).
att(1331,1811).
att(1338,1856).
att(1361,1770).
att(2061,500).
att(56,181).
att(59,253).
att(1333,1999).
att(57,182).
att(1330,1992).
att(1335,1802).
att(12,415).
att(155,2070).
att(1336,1804).
att(153,2091).
att(2202,387).
att(16,342).
att(151,2014).
att(62,187).
att(155,2090).
att(156,2078).
att(152,2015).
att(2061,542).
att(147,2028).
att(1336,1994).
att(2207,403).
att(1360,1974).
att(156,2095).
att(2060,537).
att(74,2125).
att(2066,551).
att(76,2123).
att(76,2122).
att(76,2101).
att(38,279).
att(1357,2022).
att(2201,385).
att(2208,426).
att(19,109).
att(2204,414).
att(1374,1771).
att(1374,1777).
att(1359,2021).
att(75,2128).
att(2202,432).
att(2202,433).
att(1352,1862).
att(2204,428).
att(65,1926).
att(42,263).
att(26,313).
att(28,286).
att(1355,1856).
att(2201,430).
att(2206,480).
att(1357,1854).
att(79,2131).
att(80,2155).
att(71,2012).
att(1383,1776).
att(78,2104).
att(1374,1805).
att(77,2101).
att(63,1937).
att(216,1723).
att(38,257).
att(4,415).
att(2201,452).
att(2206,491).
att(1380,1973).
att(212,1655).
att(2204,473).
att(38,253).
att(2204,471).
att(1377,1780).
att(1389,1864).
att(1383,1798).
att(2200,477).
att(1359,1885).
att(1379,1969).
att(18,219).
att(2199,478).
att(64,2058).
att(12,258).
att(1351,1973).
att(1351,1974).
att(1354,1993).
att(64,2034).
att(2201,496).
att(16,179).
att(19,254).
att(13,204).
att(2205,514).
att(39,400).
att(1357,1801).
att(15,179).
att(1389,1780).
att(1353,1973).
att(1355,1986).
att(32,349).
att(2208,548).
att(14,203).
att(2195,409).
att(2202,537).
att(13,99).
att(70,2091).
att(18,183).
att(1354,1986).
att(2200,537).
att(1354,2025).
att(64,1976).
att(1356,1987).
att(2201,537).
att(2195,434).
att(39,376).
att(71,2014).
att(2201,542).
att(69,2053).
att(1353,2026).
att(2196,431).
att(46,406).
att(45,427).
att(38,716).
att(38,728).
att(81,219).
att(38,726).
att(78,251).
att(210,2092).
att(1375,1896).
att(80,254).
att(2129,478).
att(82,235).
att(39,715).
att(1387,2037).
att(2132,478).
att(1414,1792).
att(1383,1857).
att(2146,520).
att(1402,1796).
att(216,2091).
att(212,2033).
att(1400,1782).
att(51,406).
att(212,2015).
att(1387,1857).
att(2135,518).
att(2132,492).
att(42,728).
att(212,2030).
att(2146,530).
att(51,321).
att(50,345).
att(1399,1962).
att(1385,1878).
att(216,2030).
att(2,898).
att(1,900).
att(214,2052).
att(3,849).
att(2133,542).
att(2102,382).
att(50,373).
att(2108,382).
att(2116,399).
att(117,2170).
att(1399,1991).
att(81,201).
att(2135,554).
att(79,106).
att(2132,529).
att(213,2014).
att(1400,1993).
att(218,2049).
att(218,2048).
att(2136,548).
att(78,351).
att(70,201).
att(1377,1962).
att(2108,414).
att(68,99).
att(1373,1994).
att(2129,556).
att(42,898).
att(2127,553).
att(82,319).
att(68,118).
att(2127,552).
att(2132,553).
att(2099,418).
att(41,822).
att(75,313).
att(30,769).
att(73,261).
att(218,2169).
att(76,311).
att(21,1026).
att(39,843).
att(78,347).
att(208,2173).
att(2112,470).
att(2103,456).
att(1387,1989).
att(2110,470).
att(8,1028).
att(1375,2045).
att(78,311).
att(216,2104).
att(21,935).
att(21,947).
att(1385,1986).
att(81,285).
att(218,2096).
att(74,314).
att(28,775).
att(77,263).
att(30,722).
att(36,795).
att(2110,500).
att(188,2096).
att(1381,2045).
att(30,720).
att(30,728).
att(2,935).
att(2112,515).
att(34,772).
att(39,786).
att(42,774).
att(121,2092).
att(1409,1857).
att(48,184).
att(46,202).
att(50,187).
att(53,346).
att(47,211).
att(47,217).
att(2088,384).
att(2102,515).
att(2110,529).
att(2084,381).
att(58,374).
att(2108,522).
att(59,412).
att(120,2048).
att(2116,559).
att(124,2035).
att(152,2187).
att(2097,539).
att(2086,411).
att(2080,401).
att(2080,405).
att(57,313).
att(117,2012).
att(121,1975).
att(155,2174).
att(2105,559).
att(53,317).
att(2099,552).
att(53,286).
att(115,2125).
att(45,312).
att(1414,1994).
att(45,311).
att(1409,1962).
att(1414,1999).
att(216,1980).
att(1402,1990).
att(1401,2044).
att(52,352).
att(119,2124).
att(189,2050).
att(45,262).
att(82,112).
att(122,2107).
att(1404,1991).
att(43,237).
att(119,2151).
att(83,2174).
att(216,2002).
att(4,790).
att(1412,1990).
att(206,2008).
att(113,2122).
att(218,2002).
att(188,1978).
att(51,313).
att(46,258).
att(45,255).
att(45,251).
att(2077,470).
att(214,1924).
att(113,2155).
att(44,233).
att(43,250).
att(218,1931).
att(216,1926).
att(83,2101).
att(1414,2041).
att(1409,1866).
att(1399,1882).
att(52,238).
att(2088,530).
att(54,429).
att(120,2128).
att(2085,532).
att(16,1005).
att(60,847).
att(60,842).
att(56,770).
att(17,1001).
att(156,281).
att(62,846).
att(20,1008).
att(156,316).
att(62,768).
att(11,935).
att(153,239).
att(60,794).
att(1507,940).
att(13,948).
att(1549,1023).
att(156,229).
att(13,899).
att(65,321).
att(67,404).
att(19,973).
att(62,720).
att(63,429).
att(54,899).
att(122,258).
att(1513,995).
att(1505,1018).
att(60,866).
att(153,427).
att(59,866).
att(1511,1021).
att(155,400).
att(115,209).
att(121,180).
att(124,180).
att(148,343).
att(150,415).
att(148,321).
att(52,724).
att(54,874).
att(113,106).
att(149,372).
att(60,901).
att(147,375).
att(1517,1047).
att(60,826).
att(1511,1069).
att(56,848).
att(58,842).
att(83,209).
att(147,284).
att(1484,942).
att(63,251).
att(41,1030).
att(64,236).
att(1549,1170).
att(1517,1088).
att(1511,1110).
att(16,716).
att(72,238).
att(26,976).
att(68,250).
att(32,869).
att(63,255).
att(34,947).
att(64,209).
att(1478,1018).
att(1474,1004).
att(18,724).
att(26,873).
att(20,724).
att(69,185).
att(1510,1122).
att(66,257).
att(73,424).
att(1484,1020).
att(1478,934).
att(1474,944).
att(67,207).
att(28,904).
att(63,205).
att(77,400).
att(1510,1170).
att(15,894).
att(70,406).
att(1478,1054).
att(16,899).
att(69,346).
att(17,900).
att(1476,1000).
att(1505,1171).
att(69,343).
att(1484,1034).
att(152,211).
att(156,187).
att(16,826).
att(18,904).
att(12,841).
att(18,903).
att(12,845).
att(1486,1054).
att(1509,1138).
att(70,374).
att(18,828).
att(69,262).
att(71,349).
att(16,848).
att(71,377).
att(1482,1109).
att(1482,1107).
att(156,106).
att(11,846).
att(66,349).
att(1474,1034).
att(13,792).
att(39,1019).
att(28,1028).
att(28,1317).
att(74,821).
att(74,828).
att(34,1294).
att(4,1471).
att(32,1317).
att(81,872).
att(2,1561).
att(6,1463).
att(208,284).
att(38,1326).
att(214,377).
att(32,1283).
att(6,1561).
att(6,1537).
att(34,1308).
att(218,373).
att(78,843).
att(77,842).
att(77,846).
att(5,1431).
att(82,826).
att(82,819).
att(82,823).
att(74,806).
att(77,772).
att(75,790).
att(3,1424).
att(212,237).
att(206,316).
att(42,1278).
att(70,848).
att(19,1283).
att(39,1393).
att(71,843).
att(26,1390).
att(78,941).
att(66,799).
att(78,907).
att(68,806).
att(73,907).
att(80,909).
att(28,1365).
att(36,1347).
att(77,973).
att(79,979).
att(69,724).
att(42,1429).
att(76,904).
att(38,1366).
att(206,427).
att(120,374).
att(3,1284).
att(49,823).
att(107,263).
att(47,844).
att(50,823).
att(21,1279).
att(9,1300).
att(48,902).
att(43,843).
att(45,771).
att(113,313).
att(120,282).
att(49,844).
att(83,349).
att(58,1019).
att(44,846).
att(107,313).
att(120,347).
att(43,774).
att(188,108).
att(49,773).
att(9,1282).
att(62,906).
att(53,948).
att(43,720).
att(124,234).
att(45,974).
att(216,236).
att(75,724).
att(208,256).
att(189,286).
att(80,806).
att(76,724).
att(81,771).
att(21,1343).
att(208,183).
att(79,714).
att(4,1362).
att(45,894).
att(213,181).
att(2,1306).
att(189,178).
att(119,319).
att(6,1294).
att(49,904).
att(46,828).
att(49,899).
att(122,342).
att(9,1365).
att(120,400).
att(57,1348).
att(119,724).
att(117,720).
att(122,806).
att(149,909).
att(151,867).
att(150,869).
att(53,1371).
att(124,716).
att(124,724).
att(62,1368).
att(13,1503).
att(18,1565).
att(19,1555).
att(60,1304).
att(15,1561).
att(147,821).
att(121,874).
att(43,1280).
att(60,1557).
att(113,905).
att(51,1289).
att(52,1362).
att(107,828).
att(52,1323).
att(55,1459).
att(52,1302).
att(55,1465).
att(151,1001).
att(148,945).
att(56,1396).
att(44,1287).
att(107,773).
att(124,840).
att(51,1284).
att(54,1395).
att(51,1281).
att(60,1396).
att(154,1008).
att(107,718).
att(115,793).
att(121,771).
att(121,776).
att(151,908).
att(117,801).
att(152,909).
att(15,1362).
att(70,949).
att(15,1367).
att(32,1555).
att(69,866).
att(155,728).
att(156,726).
att(16,1302).
att(17,1298).
att(26,1561).
att(39,1557).
att(39,1567).
att(20,1365).
att(26,1555).
att(41,1555).
att(66,904).
att(36,1499).
att(36,1496).
att(70,824).
att(38,1498).
att(67,841).
att(38,1503).
att(42,1469).
att(63,849).
att(150,848).
att(55,1283).
att(18,1461).
att(58,1283).
att(12,1502).
att(13,1426).
att(67,1005).
att(15,1397).
att(64,945).
att(150,773).
att(151,770).
att(63,1008).
att(69,1026).
att(156,841).
att(70,1005).
att(13,1350).
att(16,1420).
att(65,975).
att(152,790).
att(15,1350).
att(153,793).
att(65,873).
att(63,948).
att(64,948).
att(155,786).
att(36,1838).
att(1388,529).
att(74,1397).
att(1388,539).
att(79,1472).
att(1386,536).
att(26,1840).
att(1418,552).
att(28,1840).
att(1378,532).
att(73,1496).
att(42,1899).
att(3,2001).
att(34,1846).
att(75,1423).
att(75,1428).
att(32,1821).
att(30,1829).
att(21,1934).
att(42,1848).
att(39,1818).
att(216,947).
att(42,1846).
att(26,1818).
att(78,1350).
att(34,1823).
att(2,1956).
att(32,1799).
att(4,1955).
att(8,1911).
att(41,1813).
att(5,1984).
att(9,2001).
att(212,866).
att(9,2007).
att(213,908).
att(189,945).
att(26,1830).
att(12,1793).
att(14,1826).
att(66,1344).
att(68,1345).
att(65,1369).
att(15,1823).
att(32,1953).
att(34,2001).
att(36,1955).
att(64,1302).
att(38,1955).
att(69,1366).
att(36,1873).
att(63,1313).
att(36,1876).
att(74,1469).
att(18,1783).
att(65,1317).
att(41,1961).
att(34,1941).
att(39,1873).
att(42,1961).
att(80,1561).
att(42,1941).
att(28,1876).
att(42,1957).
att(75,1500).
att(28,1834).
att(77,1463).
att(32,1837).
att(39,1907).
att(39,1904).
att(41,1872).
att(73,1459).
att(34,1876).
att(26,1903).
att(82,1567).
att(213,774).
att(213,770).
att(46,1429).
att(49,1392).
att(117,908).
att(44,1372).
att(4,1813).
att(107,908).
att(52,1500).
att(119,947).
att(113,1026).
att(218,767).
att(21,1812).
att(107,945).
att(218,772).
att(43,1423).
att(115,977).
att(5,1817).
att(214,801).
att(51,1423).
att(124,943).
att(210,721).
att(212,722).
att(214,792).
att(113,907).
att(48,1341).
att(122,950).
att(214,722).
att(9,1820).
att(7,1824).
att(119,871).
att(119,870).
att(189,799).
att(107,867).
att(113,950).
att(51,1341).
att(121,851).
att(119,903).
att(83,975).
att(43,1294).
att(188,728).
att(213,867).
att(213,866).
att(47,1563).
att(4,1874).
att(208,900).
att(81,1341).
att(210,894).
att(216,872).
att(213,950).
att(39,1789).
att(212,894).
att(80,1369).
att(206,821).
att(79,1302).
att(214,900).
att(3,1905).
att(212,825).
att(45,1539).
att(206,844).
att(47,1473).
att(208,841).
att(76,1282).
att(212,843).
att(4,1835).
att(43,1473).
att(5,1873).
att(218,821).
att(117,1001).
att(77,1287).
att(2,1848).
att(51,1472).
att(213,841).
att(216,843).
att(1,1839).
att(21,1844).
att(340,405).
att(159,1366).
att(357,1856).
att(276,718).
att(1926,495).
att(2008,385).
att(359,2036).
att(370,552).
att(61,1954).
att(348,1878).
att(353,1854).
att(354,1852).
att(169,1350).
att(161,1368).
att(50,1797).
att(356,536).
att(49,1785).
att(350,1864).
att(119,1298).
att(340,426).
att(158,1366).
att(326,382).
att(334,399).
att(355,1862).
att(154,1561).
att(340,430).
att(365,1862).
att(272,872).
att(1925,477).
att(159,1294).
att(266,894).
att(60,1873).
att(354,1857).
att(147,1430).
att(1929,492).
att(117,1317).
att(354,1858).
att(83,1367).
att(55,1870).
att(371,454).
att(276,774).
att(148,1393).
att(1998,380).
att(1933,556).
att(359,1880).
att(58,1840).
att(117,1285).
att(60,1901).
att(244,770).
att(61,1908).
att(157,1425).
att(169,1473).
att(157,1421).
att(330,432).
att(122,1319).
att(270,906).
att(332,431).
att(155,1463).
att(171,1397).
att(119,1279).
att(334,451).
att(304,1028).
att(2010,405).
att(147,1501).
att(243,792).
att(266,949).
att(2008,403).
att(154,1472).
att(149,1390).
att(149,1393).
att(340,480).
att(337,471).
att(161,1429).
att(278,776).
att(278,797).
att(270,978).
att(155,1502).
att(171,1422).
att(340,490).
att(371,498).
att(53,1845).
att(270,979).
att(163,1343).
att(326,452).
att(156,1498).
att(276,795).
att(2008,480).
att(340,495).
att(131,1319).
att(277,905).
att(357,1963).
att(115,1390).
att(213,1283).
att(596,1029).
att(2008,473).
att(133,1323).
att(169,1471).
att(594,980).
att(361,1780).
att(2012,454).
att(326,473).
att(47,1847).
att(353,1974).
att(350,1962).
att(361,1811).
att(363,1993).
att(595,938).
att(241,771).
att(174,1471).
att(338,511).
att(45,1816).
att(270,1001).
att(161,1393).
att(353,1994).
att(270,1003).
att(245,770).
att(597,936).
att(270,1019).
att(326,497).
att(595,1023).
att(83,1496).
att(590,939).
att(240,899).
att(276,869).
att(365,1987).
att(355,2044).
att(133,1366).
att(49,1817).
att(338,529).
att(115,1346).
att(1998,472).
att(359,1993).
att(119,1344).
att(337,542).
att(46,1822).
att(338,537).
att(117,1347).
att(1996,478).
att(137,1366).
att(340,549).
att(363,1991).
att(53,1932).
att(131,1371).
att(341,553).
att(60,1940).
att(60,1938).
att(244,905).
att(107,1298).
att(330,530).
att(61,1930).
att(337,553).
att(46,1800).
att(353,2036).
att(60,1932).
att(163,1538).
att(338,549).
att(2002,477).
att(60,1930).
att(47,1793).
att(58,1957).
att(1996,460).
att(275,901).
att(276,902).
att(43,1799).
att(47,1783).
att(16,1907).
att(68,1430).
att(131,1425).
att(151,1326).
att(154,1307).
att(252,770).
att(13,1835).
att(154,1306).
att(248,769).
att(66,1567).
att(243,973).
att(14,1877).
att(11,1904).
att(149,1283).
att(131,1346).
att(133,1345).
att(153,1321).
att(15,1833).
att(154,1311).
att(16,1834).
att(155,1313).
att(11,1838).
att(153,1287).
att(30,2001).
att(125,1390).
att(126,1396).
att(133,1500).
att(139,1471).
att(126,1390).
att(71,1501).
att(135,1430).
att(72,1500).
att(98,1284).
att(221,771).
att(137,1500).
att(92,1284).
att(1937,384).
att(155,1279).
att(14,1840).
att(70,1395).
att(126,1423).
att(144,1280).
att(11,1822).
att(133,1398).
att(71,1396).
att(32,1936).
att(98,1285).
att(70,1397).
att(19,1846).
att(243,908).
att(244,1002).
att(248,866).
att(155,1372).
att(1929,435).
att(13,1932).
att(16,2011).
att(153,1390).
att(1939,434).
att(62,1851).
att(221,823).
att(246,899).
att(12,2001).
att(53,1816).
att(126,1431).
att(84,1329).
att(53,1818).
att(252,871).
att(133,1430).
att(220,843).
att(15,1932).
att(141,1536).
att(55,1828).
att(148,1371).
att(223,820).
att(224,827).
att(96,1298).
att(150,1342).
att(154,1423).
att(1927,418).
att(1923,380).
att(130,1473).
att(155,1423).
att(17,1928).
att(92,1323).
att(125,1500).
att(147,1344).
att(14,2011).
att(11,1930).
att(222,842).
att(88,1279).
att(84,1365).
att(220,869).
att(89,1342).
att(24,722).
att(90,1348).
att(224,948).
att(149,1367).
att(60,1822).
att(224,973).
att(90,1347).
att(1925,452).
att(65,1555).
att(154,1350).
att(1925,453).
att(18,1930).
att(228,726).
att(20,1940).
att(57,1785).
att(88,1371).
att(155,1349).
att(223,871).
att(230,715).
att(15,1877).
att(1931,458).
att(1924,437).
att(154,1364).
att(1923,435).
att(144,1349).
att(2050,401).
att(66,1815).
att(74,1936).
att(410,477).
att(419,491).
att(73,1984).
att(249,373).
att(2055,411).
att(1982,550).
att(421,513).
att(248,327).
att(2053,405).
att(2050,382).
att(2054,399).
att(645,1111).
att(96,824).
att(64,1789).
att(249,349).
att(2052,405).
att(86,849).
att(92,849).
att(635,1109).
att(410,497).
att(2054,471).
att(408,511).
att(66,1799).
att(641,1064).
att(98,979).
att(419,532).
att(88,902).
att(413,530).
att(80,1961).
att(86,894).
att(225,187).
att(635,1034).
att(22,209).
att(2048,455).
att(420,549).
att(416,530).
att(23,209).
att(396,409).
att(69,1793).
att(89,873).
att(226,183).
att(223,344).
att(647,1068).
att(393,414).
att(77,1869).
att(637,994).
att(98,872).
att(249,404).
att(74,1900).
att(228,209).
att(92,899).
att(632,1173).
att(396,431).
att(94,903).
att(228,204).
att(632,1176).
att(639,1051).
att(1971,551).
att(2054,435).
att(12,17).
att(291,795).
att(394,432).
att(227,317).
att(292,806).
att(298,768).
att(92,1001).
att(625,1052).
att(395,451).
att(396,449).
att(2055,500).
att(22,253).
att(225,236).
att(228,235).
att(88,974).
att(629,1034).
att(84,977).
att(94,935).
att(2035,511).
att(94,947).
att(230,316).
att(89,943).
att(155,1795).
att(15,14).
att(298,806).
att(2050,472).
att(66,1899).
att(621,998).
att(70,1868).
att(292,724).
att(292,720).
att(383,437).
att(611,999).
att(22,183).
att(2035,500).
att(88,867).
att(393,472).
att(103,806).
att(393,474).
att(613,980).
att(388,458).
att(298,825).
att(37,116).
att(64,1847).
att(643,1179).
att(395,492).
att(292,846).
att(2031,414).
att(70,1908).
att(88,1005).
att(294,848).
att(2034,384).
att(392,478).
att(23,316).
att(84,1005).
att(2027,378).
att(2033,382).
att(231,351).
att(2055,533).
att(2055,537).
att(67,1851).
att(66,1844).
att(90,1024).
att(66,1843).
att(90,1005).
att(66,1849).
att(227,282).
att(20,4).
att(628,1029).
att(300,840).
att(395,514).
att(69,1849).
att(69,1848).
att(92,1028).
att(94,1003).
att(230,263).
att(70,1835).
att(2052,536).
att(23,238).
att(635,1141).
att(2049,511).
att(71,1840).
att(296,769).
att(103,844).
att(45,1953).
att(2010,552).
att(77,1827).
att(2006,529).
att(593,1031).
att(24,345).
att(595,1110).
att(596,1098).
att(2002,534).
att(25,342).
att(46,1956).
att(228,406).
att(31,179).
att(370,391).
att(2010,549).
att(590,1108).
att(1996,510).
att(595,1072).
att(80,1826).
att(52,2001).
att(388,522).
att(24,372).
att(10,118).
att(189,1362).
att(115,1537).
att(47,1876).
att(370,409).
att(47,1875).
att(294,874).
att(33,114).
att(81,1825).
att(43,1875).
att(594,1093).
att(367,418).
att(226,351).
att(230,346).
att(368,407).
att(44,1955).
att(632,1064).
att(394,550).
att(590,1046).
att(394,548).
att(390,549).
att(596,1054).
att(1980,455).
att(364,418).
att(383,536).
att(392,551).
att(121,1565).
att(1998,554).
att(117,1431).
att(367,432).
att(296,948).
att(1975,432).
att(115,1536).
att(595,1047).
att(35,238).
att(82,1793).
att(386,558).
att(43,1905).
att(124,1557).
att(218,1304).
att(120,1461).
att(300,949).
att(120,1469).
att(25,424).
att(272,726).
att(304,715).
att(630,1004).
att(117,1502).
att(31,251).
att(22,404).
att(33,258).
att(210,1278).
att(630,1020).
att(226,415).
att(630,1025).
att(46,1834).
att(226,402).
att(302,722).
att(83,1567).
att(594,1064).
att(107,1503).
att(188,1296).
att(1996,534).
att(2012,558).
att(218,1325).
att(369,470).
att(1981,411).
att(103,974).
att(265,771).
att(645,996).
att(10,311).
att(28,42).
att(366,455).
att(593,1116).
att(33,261).
att(266,772).
att(266,767).
att(641,1018).
att(1980,491).
att(218,1432).
att(76,1836).
att(632,1120).
att(29,287).
att(356,455).
att(37,282).
att(171,1287).
att(643,1068).
att(292,945).
att(1981,473).
att(274,775).
att(79,1836).
att(294,1001).
att(593,1170).
att(1982,460).
att(362,474).
att(40,310).
att(1982,454).
att(632,1151).
att(1975,453).
att(32,21).
att(76,1846).
att(82,1909).
att(632,1169).
att(10,373).
att(167,1304).
att(161,1328).
att(264,841).
att(651,1029).
att(632,1071).
att(43,1984).
att(31,349).
att(265,844).
att(49,2009).
att(592,1110).
att(45,1936).
att(360,516).
att(274,828).
att(337,378).
att(597,1073).
att(40,343).
att(174,1294).
att(1976,498).
att(590,1089).
att(1971,475).
att(364,531).
att(362,520).
att(37,347).
att(29,284).
att(270,844).
att(212,1342).
att(2094,470).
att(2093,476).
att(31,2101).
att(43,2).
att(52,11).
att(49,11).
att(443,1888).
att(115,1835).
att(572,435).
att(666,1017).
att(2089,460).
att(121,1905).
att(890,1761).
att(120,1901).
att(268,286).
att(444,1886).
att(124,1908).
att(47,42).
att(157,714).
att(664,997).
att(578,473).
att(350,1334).
att(682,1122).
att(446,1880).
att(119,1832).
att(467,1806).
att(148,2003).
att(158,714).
att(579,474).
att(307,314).
att(174,776).
att(2093,450).
att(457,1991).
att(115,1848).
att(174,774).
att(290,424).
att(353,1335).
att(462,1804).
att(122,1838).
att(348,1356).
att(83,1905).
att(350,1358).
att(578,494).
att(468,1804).
att(468,1963).
att(83,1842).
att(578,500).
att(165,819).
att(151,2003).
att(174,898).
att(457,2021).
att(113,1813).
att(348,1407).
att(692,1144).
att(268,374).
att(353,1381).
att(264,312).
att(361,1337).
att(278,106).
att(27,2185).
att(693,1168).
att(152,1985).
att(270,283).
att(29,2185).
att(107,1821).
att(669,1029).
att(2095,492).
att(29,2186).
att(275,111).
att(579,513).
att(669,1004).
att(276,123).
att(365,1354).
att(122,1845).
att(272,285).
att(682,1050).
att(359,1373).
att(579,512).
att(83,1815).
att(124,1823).
att(307,347).
att(157,771).
att(264,235).
att(361,1358).
att(685,1071).
att(467,1986).
att(155,2013).
att(152,1911).
att(350,1414).
att(2078,497).
att(159,904).
att(446,1989).
att(2094,553).
att(159,898).
att(579,536).
att(276,179).
att(241,215).
att(244,179).
att(442,2044).
att(568,391).
att(214,1819).
att(264,343).
att(568,382).
att(122,1983).
att(206,1824).
att(2089,534).
att(163,904).
att(440,2026).
att(578,551).
att(339,1353).
att(265,318).
att(469,1992).
att(188,1846).
att(171,867).
att(571,512).
att(567,403).
att(2075,381).
att(2095,537).
att(662,1089).
att(446,1991).
att(595,1526).
att(266,349).
att(2076,556).
att(159,828).
att(442,2040).
att(443,2017).
att(272,342).
att(107,1869).
att(241,123).
att(357,1485).
att(277,183).
att(597,1504).
att(121,1928).
att(268,322).
att(357,1520).
att(565,409).
att(121,1936).
att(2072,384).
att(630,1559).
att(324,1407).
att(457,1773).
att(2079,537).
att(2079,534).
att(210,1800).
att(333,1406).
att(212,1787).
att(275,209).
att(595,1588).
att(270,373).
att(594,1600).
att(594,1607).
att(441,2040).
att(567,433).
att(2089,511).
att(240,253).
att(355,1512).
att(591,1452).
att(139,771).
att(241,258).
att(277,314).
att(468,1777).
att(593,1462).
att(597,1564).
att(131,786).
att(365,1522).
att(365,1527).
att(592,1452).
att(2056,477).
att(2073,451).
att(128,795).
att(361,1475).
att(216,1793).
att(348,1508).
att(656,1070).
att(461,1778).
att(216,1799).
att(461,1775).
att(672,1049).
att(214,1797).
att(361,1487).
att(135,790).
att(590,1552).
att(83,1938).
att(188,1830).
att(167,949).
att(442,1882).
att(357,1542).
att(658,1017).
att(468,1786).
att(565,450).
att(46,19).
att(278,219).
att(596,1460).
att(141,797).
att(169,908).
att(48,54).
att(128,724).
att(128,722).
att(161,868).
att(461,1798).
att(457,1805).
att(565,460).
att(171,976).
att(275,259).
att(667,993).
att(678,1172).
att(563,454).
att(165,950).
att(2057,434).
att(350,1339).
att(662,1070).
att(159,870).
att(442,1885).
att(148,1814).
att(159,1028).
att(65,2007).
att(126,771).
att(691,1023).
att(62,4).
att(483,1962).
att(482,2025).
att(2027,434).
att(625,1143).
att(56,6).
att(693,1020).
att(479,1992).
att(693,1029).
att(276,262).
att(158,1003).
att(152,1842).
att(567,497).
att(152,1850).
att(240,316).
att(2033,438).
att(147,1824).
att(2051,549).
att(628,1146).
att(625,1089).
att(60,7).
att(141,849).
att(487,1992).
att(625,1074).
att(128,801).
att(619,1140).
att(2031,426).
att(243,219).
att(159,906).
att(276,316).
att(165,1003).
att(567,513).
att(158,937).
att(2030,382).
att(615,1046).
att(2032,500).
att(149,1827).
att(133,902).
att(220,116).
att(2014,512).
att(502,1777).
att(2033,494).
att(68,1930).
att(150,1828).
att(2028,472).
att(483,2045).
att(248,180).
att(613,1092).
att(619,1074).
att(128,819).
att(629,1089).
att(422,387).
att(563,520).
att(2033,478).
att(64,1910).
att(489,1990).
att(126,848).
att(561,518).
att(277,345).
att(139,894).
att(2031,474).
att(479,1853).
att(149,1789).
att(242,351).
att(629,1111).
att(611,1033).
att(563,533).
att(569,554).
att(613,1045).
att(2030,430).
att(240,282).
att(2014,476).
att(567,559).
att(83,1824).
att(153,1932).
att(421,398).
att(2093,381).
att(220,179).
att(2076,409).
att(144,794).
att(486,1768).
att(223,256).
att(153,1935).
att(464,1867).
att(689,1046).
att(115,1800).
att(117,1791).
att(422,437).
att(691,1071).
att(682,1031).
att(2076,385).
att(564,548).
att(240,425).
att(365,1406).
att(240,342).
att(692,1031).
att(464,1862).
att(689,1054).
att(126,894).
att(416,407).
att(2033,515).
att(223,178).
att(487,1778).
att(98,728).
att(2027,495).
att(147,1872).
att(240,318).
att(423,458).
att(416,428).
att(2090,418).
att(682,1018).
att(153,1871).
att(420,456).
att(421,451).
att(416,437).
att(465,1864).
att(55,14).
att(482,1969).
att(148,1833).
att(249,285).
att(155,1868).
att(98,770).
att(459,1882).
att(222,219).
att(88,799).
att(481,1780).
att(88,797).
att(137,1030).
att(485,1970).
att(625,1120).
att(2093,409).
att(682,934).
att(421,473).
att(628,1177).
att(89,792).
att(2076,432).
att(482,1965).
att(133,947).
att(96,768).
att(89,786).
att(466,1885).
att(154,1904).
att(628,1174).
att(487,1794).
att(2079,414).
att(467,1892).
att(2034,532).
att(488,1807).
att(615,1116).
att(2096,382).
att(63,53).
att(641,1683).
att(90,186).
att(70,73).
att(528,551).
att(625,1564).
att(65,55).
att(696,1066).
att(249,2074).
att(623,1566).
att(2104,382).
att(504,1999).
att(701,1045).
att(71,79).
att(246,2092).
att(600,380).
att(2138,537).
att(603,385).
att(501,2025).
att(2154,497).
att(2154,498).
att(252,2074).
att(247,2030).
att(621,1460).
att(2130,512).
att(621,1470).
att(602,398).
att(90,217).
att(133,346).
att(90,209).
att(696,996).
att(221,2015).
att(621,1455).
att(602,414).
att(221,2048).
att(635,1677).
att(649,1705).
att(698,1033).
att(139,406).
att(63,30).
att(606,449).
att(710,1173).
att(325,1798).
att(328,1786).
att(603,430).
att(64,38).
att(917,1758).
att(92,239).
att(71,60).
att(608,1646).
att(67,13).
att(702,1070).
att(915,1759).
att(702,1069).
att(84,258).
att(698,1070).
att(2098,418).
att(324,1774).
att(230,2006).
att(645,1675).
att(629,1454).
att(320,1784).
att(506,2041).
att(502,1888).
att(647,1633).
att(2124,378).
att(90,258).
att(695,946).
att(63,6).
att(231,1925).
att(602,451).
att(694,930).
att(325,1811).
att(603,451).
att(2153,533).
att(67,39).
att(919,1762).
att(67,38).
att(911,1758).
att(606,473).
att(227,1923).
att(606,480).
att(328,1811).
att(641,1570).
att(125,400).
att(329,1779).
att(125,404).
att(645,1612).
att(94,255).
att(220,2079).
att(223,2057).
att(643,1625).
att(701,1022).
att(223,2186).
att(486,1853).
att(2098,475).
att(506,1784).
att(702,1179).
att(96,373).
att(621,1642).
att(147,7).
att(738,1018).
att(602,478).
att(697,1170).
att(153,13).
att(606,496).
att(628,1625).
att(504,1788).
att(221,2185).
att(741,1021).
att(607,495).
att(101,123).
att(694,1120).
att(701,1115).
att(223,2171).
att(615,1630).
att(485,1854).
att(220,2100).
att(247,2186).
att(698,1174).
att(103,114).
att(155,16).
att(613,1630).
att(615,1600).
att(598,472).
att(2123,433).
att(90,287).
att(602,495).
att(487,1862).
att(64,71).
att(2098,455).
att(738,934).
att(606,518).
att(503,1970).
att(507,1811).
att(2107,454).
att(623,1582).
att(499,1803).
att(2101,433).
att(600,494).
att(2125,409).
att(22,1933).
att(22,1923).
att(481,1888).
att(735,936).
att(699,1118).
att(23,1925).
att(248,2173).
att(2104,451).
att(90,321).
att(96,425).
att(615,1529).
att(103,184).
att(641,1723).
att(502,1993).
att(589,378).
att(153,4).
att(599,498).
att(499,1966).
att(697,1092).
att(697,1098).
att(22,2055).
att(499,1969).
att(743,939).
att(144,400).
att(488,1885).
att(625,1602).
att(84,352).
att(94,344).
att(89,344).
att(231,2092).
att(598,513).
att(90,349).
att(696,1047).
att(615,1564).
att(695,1049).
att(25,2035).
att(606,558).
att(603,533).
att(628,1605).
att(649,1719).
att(702,1071).
att(88,351).
att(615,1558).
att(228,2051).
att(300,111).
att(2107,490).
att(220,2173).
att(625,1535).
att(613,1504).
att(2101,471).
att(78,59).
att(593,1609).
att(291,256).
att(710,1054).
att(77,60).
att(710,1052).
att(189,1873).
att(328,2040).
att(649,1468).
att(300,234).
att(584,398).
att(632,1624).
att(588,431).
att(331,2025).
att(75,16).
att(218,1869).
att(585,433).
att(339,1989).
att(923,1761).
att(320,1867).
att(632,1626).
att(704,994).
att(632,1625).
att(589,450).
att(2073,477).
att(213,1903).
att(206,1837).
att(328,1864).
att(329,2036).
att(335,1867).
att(630,1632).
att(357,1788).
att(2072,474).
att(292,180).
att(2073,472).
att(79,11).
att(76,34).
att(79,17).
att(704,1023).
att(708,1021).
att(75,38).
att(82,55).
att(226,2094).
att(595,1677).
att(354,1772).
att(664,1171).
att(705,999).
att(189,1874).
att(706,930).
att(2057,554).
att(25,2107).
att(2128,409).
att(671,1116).
att(589,477).
att(705,930).
att(75,6).
att(656,1146).
att(667,1144).
att(581,450).
att(359,1777).
att(230,2167).
att(230,2186).
att(590,1630).
att(325,1878).
att(291,317).
att(298,262).
att(333,1896).
att(24,2153).
att(2074,513).
att(2126,387).
att(206,1821).
att(82,2).
att(292,237).
att(672,1146).
att(208,1819).
att(585,490).
att(2059,516).
att(188,1841).
att(101,311).
att(290,255).
att(189,1838).
att(296,239).
att(218,1843).
att(218,1850).
att(296,229).
att(291,239).
att(227,2104).
att(705,940).
att(37,2027).
att(2128,450).
att(589,515).
att(31,2014).
att(300,327).
att(639,1606).
att(645,1586).
att(706,1089).
att(641,1600).
att(649,1584).
att(328,1970).
att(33,2032).
att(699,939).
att(703,1027).
att(71,42).
att(506,1885).
att(268,109).
att(339,1770).
att(509,1856).
att(29,2053).
att(509,1857).
att(706,1141).
att(270,106).
att(103,346).
att(291,374).
att(69,9).
att(582,495).
att(584,515).
att(75,73).
att(2151,382).
att(274,123).
att(588,536).
att(641,1534).
att(329,1969).
att(576,380).
att(584,514).
att(22,2124).
att(709,1146).
att(33,1978).
att(581,513).
att(704,1108).
att(2151,380).
att(324,1969).
att(509,1890).
att(639,1554).
att(707,1047).
att(710,1111).
att(78,81).
att(597,1721).
att(587,552).
att(709,1107).
att(75,51).
att(630,1649).
att(2138,500).
att(214,1940).
att(33,2075).
att(268,257).
att(588,550).
att(635,1532).
att(704,1047).
att(577,414).
att(581,542).
att(651,1604).
att(206,1940).
att(709,1089).
att(574,414).
att(298,424).
att(304,180).
att(77,51).
att(213,1961).
att(73,56).
att(637,1460).
att(74,54).
att(75,61).
att(630,1675).
att(210,1875).
att(708,1051).
att(33,2089).
att(294,424).
att(645,1553).
att(296,318).
att(582,553).
att(581,558).
att(651,1532).
att(27,2029).
att(206,1959).
att(270,203).
att(709,1093).
att(291,345).
att(240,1848).
att(125,8).
att(241,1849).
att(727,1074).
att(163,150).
att(188,39).
att(216,4).
att(130,6).
att(158,155).
att(723,1168).
att(124,150).
att(130,3).
att(656,1601).
att(662,1584).
att(727,1092).
att(120,70).
att(667,1504).
att(110,196).
att(104,1085).
att(733,1072).
att(270,2011).
att(243,1818).
att(723,1090).
att(163,65).
att(124,69).
att(188,7).
att(590,1923).
att(719,1093).
att(100,1076).
att(158,67).
att(275,1846).
att(662,1607).
att(188,5).
att(2174,548).
att(120,82).
att(729,1033).
att(131,53).
att(289,1152).
att(278,1954).
att(119,52).
att(733,1093).
att(723,1095).
att(124,82).
att(137,56).
att(137,17).
att(689,1702).
att(113,55).
att(97,142).
att(682,1625).
att(277,1877).
att(125,30).
att(117,59).
att(161,216).
att(133,32).
att(242,1839).
att(95,145).
att(124,50).
att(275,1901).
att(656,1462).
att(592,2028).
att(798,1064).
att(798,1070).
att(705,1455).
att(206,59).
att(220,1787).
att(804,1050).
att(656,1705).
att(713,1534).
att(212,59).
att(188,81).
att(712,1566).
att(807,1031).
att(221,1791).
att(591,2095).
att(632,2027).
att(791,1069).
att(125,50).
att(671,1683).
att(796,996).
att(139,73).
att(805,1051).
att(128,58).
att(712,1468).
att(135,50).
att(717,1175).
att(729,1174).
att(249,1785).
att(669,1673).
att(803,1032).
att(188,46).
att(299,132).
att(125,59).
att(100,85).
att(807,1070).
att(222,1812).
att(670,1627).
att(731,1178).
att(804,995).
att(249,1840).
att(135,120).
att(594,2015).
att(216,20).
att(802,1018).
att(137,153).
att(672,1626).
att(289,200).
att(729,1139).
att(594,2027).
att(594,2032).
att(246,1842).
att(220,1831).
att(731,1114).
att(252,1850).
att(805,1023).
att(248,1844).
att(666,1587).
att(672,1643).
att(210,7).
att(135,69).
att(275,2011).
att(130,79).
att(297,197).
att(222,1830).
att(125,78).
att(212,7).
att(240,1936).
att(739,1110).
att(142,1083).
att(2125,529).
att(680,1556).
att(740,1111).
att(2096,552).
att(2098,553).
att(737,1049).
att(743,1077).
att(155,68).
att(690,1529).
att(88,42).
att(97,1103).
att(678,1531).
att(131,213).
att(137,212).
att(2169,384).
att(685,1604).
att(142,1105).
att(739,1049).
att(85,1145).
att(739,1048).
att(141,188).
att(617,1681).
att(133,117).
att(611,1656).
att(740,1046).
att(154,77).
att(625,1648).
att(130,155).
att(2125,491).
att(2101,510).
att(143,1121).
att(248,1911).
att(132,140).
att(89,44).
att(738,1066).
att(248,1940).
att(689,1462).
att(86,52).
att(145,1152).
att(90,43).
att(628,1650).
att(741,1066).
att(625,1705).
att(613,1705).
att(678,1460).
att(252,1954).
att(252,1955).
att(147,38).
att(738,995).
att(224,1875).
att(149,12).
att(98,57).
att(98,58).
att(692,1464).
att(613,1623).
att(152,12).
att(84,74).
att(120,62).
att(719,1022).
att(691,1704).
att(102,1157).
att(85,160).
att(2186,478).
att(227,1847).
att(2174,500).
att(671,1468).
att(93,140).
att(221,2007).
att(298,3).
att(119,19).
att(678,1626).
att(86,74).
att(87,175).
att(671,1464).
att(95,134).
att(222,1932).
att(717,993).
att(717,999).
att(680,1611).
att(682,1581).
att(2171,490).
att(89,74).
att(107,8).
att(142,176).
att(740,1116).
att(744,1176).
att(2174,478).
att(24,1822).
att(25,1829).
att(2185,460).
att(122,20).
att(744,1174).
att(117,36).
att(2185,451).
att(95,168).
att(124,14).
att(736,1113).
att(739,1176).
att(220,1961).
att(2169,455).
att(682,1607).
att(91,195).
att(92,189).
att(737,1090).
att(729,938).
att(744,1138).
att(148,153).
att(294,39).
att(717,934).
att(685,1647).
att(97,192).
att(717,942).
att(144,107).
att(742,1143).
att(291,5).
att(692,1582).
att(151,72).
att(24,1845).
att(120,7).
att(2167,518).
att(87,1086).
att(227,1842).
att(88,70).
att(300,2).
att(735,1077).
att(222,2009).
att(94,149).
att(723,942).
att(101,39).
att(175,1101).
att(298,1818).
att(90,1932).
att(291,1822).
att(695,1624).
att(699,1675).
att(695,1612).
att(132,1152).
att(613,2006).
att(645,2186).
att(699,1630).
att(176,1142).
att(617,2000).
att(300,1830).
att(129,1163).
att(177,1121).
att(694,1630).
att(629,2053).
att(140,1147).
att(225,1362).
att(637,2169).
att(611,1975).
att(699,1581).
att(296,1846).
att(103,1834).
att(697,1588).
att(641,2152).
att(625,1997).
att(176,1163).
att(269,888).
att(225,1398).
att(651,2187).
att(635,2096).
att(230,1503).
att(225,1393).
att(103,1840).
att(175,1147).
att(694,1587).
att(703,1647).
att(231,1391).
att(639,2059).
att(625,1937).
att(24,1420).
att(651,2098).
att(702,1584).
att(696,1535).
att(300,1850).
att(269,927).
att(308,854).
att(704,1736).
att(629,2010).
att(88,1940).
att(230,1398).
att(613,1937).
att(226,1422).
att(296,1821).
att(296,1815).
att(696,1736).
att(10,1326).
att(292,1899).
att(31,1306).
att(228,1539).
att(225,1536).
att(619,2101).
att(40,1294).
att(40,1298).
att(736,1589).
att(231,1459).
att(296,1835).
att(292,1840).
att(738,1531).
att(127,1079).
att(10,1281).
att(136,195).
att(619,2126).
att(629,2155).
att(230,1469).
att(621,2131).
att(177,173).
att(685,1939).
att(738,1588).
att(619,2152).
att(736,1452).
att(291,1954).
att(623,2076).
att(134,1086).
att(699,1649).
att(735,1452).
att(737,1458).
att(700,1651).
att(40,1346).
att(611,2078).
att(629,2073).
att(33,1365).
att(296,1959).
att(695,1672).
att(619,2073).
att(103,1957).
att(302,1787).
att(298,1955).
att(101,1960).
att(302,1791).
att(302,1797).
att(619,2095).
att(613,2015).
att(611,2027).
att(292,1983).
att(805,1138).
att(804,1139).
att(174,6).
att(305,839).
att(213,188).
att(632,2125).
att(803,1176).
att(637,1933).
att(10,1341).
att(590,2104).
att(266,1827).
att(289,882).
att(608,1929).
att(594,2171).
att(649,2000).
att(643,1975).
att(105,890).
att(651,1971).
att(100,880).
att(31,1465).
att(165,14).
att(159,38).
att(597,2154).
att(159,36).
att(213,65).
att(593,2059).
att(218,71).
att(169,18).
att(212,77).
att(632,2057).
att(651,2008).
att(190,196).
att(271,1697).
att(643,2000).
att(265,1841).
att(643,2008).
att(803,1146).
att(29,1390).
att(265,1847).
att(299,960).
att(299,765).
att(213,77).
att(671,1725).
att(630,2079).
att(159,6).
att(303,1697).
att(800,1050).
att(266,1845).
att(293,763).
att(266,1846).
att(713,1605).
att(295,966).
att(632,2078).
att(708,1552).
att(190,1080).
att(651,1937).
att(104,915).
att(268,1849).
att(197,1087).
att(705,1528).
att(713,1602).
att(662,1736).
att(710,1736).
att(651,2128).
att(264,1875).
att(269,952).
att(167,51).
att(708,1650).
att(701,1529).
att(705,1725).
att(164,1081).
att(171,52).
att(629,1926).
att(171,44).
att(270,1868).
att(643,2155).
att(265,1903).
att(168,1086).
att(274,1876).
att(649,2093).
att(162,1097).
att(274,1877).
att(269,754).
att(608,2029).
att(649,2091).
att(199,195).
att(169,56).
att(712,1672).
att(706,1672).
att(706,1649).
att(240,1829).
att(243,1823).
att(798,1174).
att(647,2030).
att(705,1678).
att(270,1910).
att(172,1101).
att(802,1174).
att(172,1104).
att(698,1564).
att(635,2029).
att(276,1819).
att(160,1142).
att(267,808).
att(805,1176).
att(707,1644).
att(800,1112).
att(265,1957).
att(243,1789).
att(798,1115).
att(649,2053).
att(162,1147).
att(266,1957).
att(274,1940).
att(807,1179).
att(308,778).
att(711,1624).
att(264,1954).
att(705,1611).
att(796,1177).
att(278,1826).
att(242,1797).
att(206,214).
att(637,2054).
att(166,1147).
att(173,1134).
att(243,1311).
att(595,250).
att(725,1673).
att(591,178).
att(244,1306).
att(274,1567).
att(304,1536).
att(169,1868).
att(265,1430).
att(807,1531).
att(171,1868).
att(243,1319).
att(664,2030).
att(731,1649).
att(658,2047).
att(796,1460).
att(597,186).
att(667,2032).
att(307,1563).
att(717,1681).
att(670,2056).
att(243,1281).
att(632,215).
att(807,1554).
att(265,1502).
att(731,1678).
att(139,1818).
att(804,1468).
att(278,1429).
att(133,1787).
att(169,1930).
att(171,1930).
att(594,181).
att(719,1608).
att(243,1364).
att(159,1941).
att(240,1307).
att(159,1869).
att(241,1307).
att(174,1930).
att(133,1797).
att(270,1536).
att(672,2049).
att(672,2054).
att(158,1874).
att(658,1981).
att(669,2032).
att(593,261).
att(706,1978).
att(131,1849).
att(244,1394).
att(666,2173).
att(133,1843).
att(805,1612).
att(597,351).
att(804,1623).
att(706,1972).
att(594,318).
att(242,1425).
att(706,2052).
att(635,109).
att(672,2167).
att(245,1423).
att(707,2010).
att(802,1581).
att(630,310).
att(805,1643).
att(597,280).
att(630,316).
att(662,2173).
att(135,1815).
att(137,1818).
att(632,313).
att(658,2123).
att(139,1875).
att(222,1284).
att(133,1899).
att(592,234).
att(777,1632).
att(240,1473).
att(276,1469).
att(796,1584).
att(777,1645).
att(708,1926).
att(596,237).
att(125,1843).
att(710,1939).
att(252,1328).
att(777,1603).
att(796,1528).
att(597,238).
att(223,1281).
att(252,1323).
att(126,1842).
att(133,1839).
att(245,1498).
att(804,1607).
att(710,1931).
att(658,2056).
att(669,2104).
att(630,253).
att(242,1394).
att(662,2138).
att(669,2122).
att(131,1840).
att(737,1625).
att(220,1307).
att(247,1364).
att(89,1799).
att(94,1785).
att(687,2034).
att(682,2035).
att(723,1458).
att(223,1363).
att(744,1653).
att(96,1828).
att(725,1452).
att(249,1367).
att(733,1560).
att(92,1800).
att(137,1958).
att(736,1677).
att(739,1655).
att(247,1366).
att(729,1455).
att(678,2028).
att(247,1367).
att(222,1311).
att(126,1904).
att(224,1304).
att(242,1471).
att(275,1539).
att(125,1907).
att(680,2053).
att(244,1538).
att(89,1820).
att(144,1844).
att(615,2124).
att(742,1608).
att(84,1824).
att(623,2173).
att(89,1813).
att(224,1422).
att(692,2052).
att(90,1812).
att(249,1391).
att(130,1928).
att(743,1626).
att(88,1825).
att(687,2052).
att(126,1960).
att(737,1604).
att(739,1587).
att(144,1815).
att(248,1425).
att(743,1643).
att(735,1581).
att(246,1343).
att(126,1941).
att(685,1979).
att(248,1431).
att(248,1471).
att(227,1325).
att(90,1839).
att(228,1325).
att(221,1500).
att(658,2008).
att(94,1834).
att(84,1815).
att(737,1720).
att(725,1605).
att(89,1844).
att(90,1849).
att(671,2012).
att(86,1847).
att(246,1396).
att(86,1813).
att(671,2006).
att(247,1398).
att(717,1604).
att(682,2094).
att(89,1868).
att(231,1369).
att(739,1720).
att(680,2091).
att(741,1719).
att(670,1924).
att(740,1737).
att(86,1876).
att(672,1931).
att(247,1536).
att(662,1931).
att(222,1463).
att(23,1317).
att(230,1300).
att(248,1538).
att(689,2078).
att(739,1673).
att(691,2058).
att(731,1535).
att(221,1467).
att(246,1465).
att(691,2126).
att(680,2094).
att(252,1537).
att(144,1877).
att(738,1717).
att(231,844).
att(615,237).
att(625,316).
att(743,1980).
att(702,2170).
att(298,1279).
att(702,2168).
att(228,843).
att(88,1428).
att(246,1028).
att(92,1390).
att(222,947).
att(84,1423).
att(225,770).
att(90,1426).
att(625,236).
att(742,2004).
att(92,1372).
att(25,797).
att(615,250).
att(696,2070).
att(23,722).
att(695,2128).
att(94,1420).
att(698,2101).
att(252,1028).
att(89,1461).
att(699,2058).
att(86,1467).
att(623,255).
att(25,823).
att(86,1471).
att(696,2089).
att(611,259).
att(625,251).
att(694,2058).
att(699,2126).
att(290,1282).
att(226,821).
att(296,1284).
att(700,2093).
att(222,1003).
att(697,2029).
att(222,1005).
att(22,768).
att(695,2079).
att(89,1473).
att(695,2078).
att(611,178).
att(298,1350).
att(623,402).
att(228,976).
att(228,977).
att(687,179).
att(294,1370).
att(230,948).
att(288,1296).
att(741,2089).
att(741,2095).
att(744,2057).
att(692,256).
att(296,1369).
att(613,402).
att(682,114).
att(231,873).
att(737,2035).
att(24,904).
att(692,182).
att(742,2090).
att(84,1430).
att(101,1369).
att(226,902).
att(101,1363).
att(84,1469).
att(101,1362).
att(84,1461).
att(613,322).
att(226,899).
att(623,352).
att(10,797).
att(742,2030).
att(292,1420).
att(737,1977).
att(617,283).
att(617,263).
att(741,2050).
att(23,949).
att(23,950).
att(23,978).
att(613,351).
att(735,2053).
att(298,1427).
att(736,1996).
att(10,724).
att(692,114).
att(628,376).
att(625,262).
att(615,312).
att(744,2053).
att(22,867).
att(226,948).
att(226,950).
att(621,351).
att(613,282).
att(29,846).
att(706,2071).
att(707,2058).
att(645,239).
att(798,1720).
att(269,199).
att(274,1283).
att(305,162).
att(294,1496).
att(309,129).
att(296,1502).
att(268,1279).
att(703,2012).
att(302,1280).
att(711,2056).
att(637,178).
att(709,2070).
att(807,1725).
att(593,425).
att(639,184).
att(632,424).
att(309,164).
att(23,907).
att(306,193).
att(649,260).
att(643,232).
att(298,1473).
att(298,1472).
att(10,900).
att(167,1791).
att(639,202).
att(269,1106).
att(308,1079).
att(590,425).
att(608,207).
att(796,1653).
att(271,1102).
att(27,905).
att(271,1100).
att(27,901).
att(706,2092).
att(706,2079).
att(709,2074).
att(709,2072).
att(306,1084).
att(591,406).
att(171,1793).
att(10,826).
att(592,372).
att(596,343).
att(10,824).
att(272,1307).
att(637,116).
att(592,351).
att(264,1287).
att(590,346).
att(713,2094).
att(290,1502).
att(290,1503).
att(306,1097).
att(290,1497).
att(270,1325).
att(35,899).
att(796,1678).
att(103,1567).
att(165,1818).
att(165,1814).
att(635,327).
att(274,1427).
att(27,906).
att(703,2094).
att(27,979).
att(264,1364).
att(29,978).
att(163,1827).
att(163,1826).
att(643,427).
att(165,1825).
att(273,143).
att(623,108).
att(708,2170).
att(307,1341).
att(643,319).
att(40,975).
att(694,2050).
att(35,974).
att(302,1343).
att(625,99).
att(699,1982).
att(158,1846).
att(301,97).
att(301,145).
att(708,2100).
att(268,1398).
att(157,1812).
att(163,1849).
att(701,1979).
att(271,140).
att(694,1977).
att(629,99).
att(637,284).
att(270,1394).
att(165,1841).
att(699,2012).
att(10,947).
att(608,219).
att(696,1923).
att(174,1836).
att(707,2151).
att(695,1925).
att(169,1848).
att(309,97).
att(708,2155).
att(305,177).
att(304,1391).
att(244,731).
att(247,647).
att(666,352).
att(443,127).
att(666,351).
att(803,2034).
att(711,207).
att(597,902).
att(671,344).
att(800,2053).
att(1859,925).
att(439,199).
att(242,743).
att(436,160).
att(447,1155).
att(275,733).
att(1855,932).
att(221,592).
att(1898,856).
att(276,725).
att(446,168).
att(670,377).
att(246,632).
att(442,198).
att(592,848).
att(241,702).
att(439,193).
att(443,172).
att(591,846).
att(252,647).
att(1894,932).
att(245,738).
att(247,632).
att(666,281).
att(596,821).
att(592,845).
att(436,191).
att(278,741).
att(593,841).
att(597,828).
att(805,2054).
att(1104,1761).
att(796,2054).
att(777,2027).
att(243,699).
att(276,738).
att(441,1087).
att(446,196).
att(725,2123).
att(247,678).
att(1105,1758).
att(592,770).
att(444,196).
att(1861,970).
att(807,1980).
att(593,770).
att(593,768).
att(664,282).
att(1103,1758).
att(723,2186).
att(442,1076).
att(1102,1758).
att(796,1929).
att(667,238).
att(798,1926).
att(223,625).
att(666,233).
att(804,2000).
att(729,2155).
att(1099,1758).
att(730,2170).
att(1099,1766).
att(1898,765).
att(1865,760).
att(706,235).
att(1945,1101).
att(804,2100).
att(1946,1080).
att(252,701).
att(649,769).
att(651,848).
att(712,315).
att(649,771).
att(705,310).
att(1944,1104).
att(709,261).
att(222,678).
att(595,935).
att(223,667).
att(645,786).
att(223,656).
att(597,906).
att(224,672).
att(807,2153).
att(594,1002).
att(1944,1121).
att(608,714).
att(643,776).
att(791,2075).
att(1945,1119).
att(798,2094).
att(706,182).
att(230,641).
att(1942,1157).
att(591,868).
att(592,851).
att(1947,1117).
att(439,85).
att(443,105).
att(710,256).
att(221,742).
att(447,1128).
att(436,97).
att(247,701).
att(252,739).
att(442,177).
att(632,820).
att(672,404).
att(443,145).
att(223,697).
att(597,851).
att(800,2015).
att(804,2094).
att(1859,895).
att(1948,1145).
att(630,904).
att(593,894).
att(658,343).
att(446,95).
att(632,903).
att(464,195).
att(1861,1679).
att(1902,1662).
att(725,1971).
att(1889,919).
att(1881,766).
att(1897,1663).
att(1084,1762).
att(693,376).
att(463,190).
att(1863,1697).
att(685,373).
att(1891,917).
att(729,1972).
att(1894,1663).
att(220,732).
att(1893,921).
att(226,643).
att(226,645).
att(687,310).
att(1086,1766).
att(220,735).
att(739,2101).
att(248,807).
att(730,1980).
att(731,1976).
att(1887,763).
att(719,1926).
att(1889,964).
att(1920,971).
att(1920,966).
att(462,198).
att(729,2012).
att(468,190).
att(739,2128).
att(231,704).
att(744,2104).
att(741,2126).
att(457,1124).
att(228,666).
att(481,267).
att(678,235).
att(1922,958).
att(489,269).
att(742,2130).
att(736,2089).
att(489,308).
att(615,404).
att(24,685).
att(740,2070).
att(459,1152).
att(737,2095).
att(221,807).
att(744,2128).
att(481,293).
att(23,628).
att(1922,758).
att(733,1931).
att(468,1101).
att(468,1106).
att(231,744).
att(595,799).
att(803,1929).
att(1894,754).
att(444,1099).
att(591,726).
att(443,1104).
att(593,726).
att(595,793).
att(717,2057).
att(729,2059).
att(669,316).
att(719,2059).
att(777,2000).
att(1859,809).
att(444,1117).
att(1859,813).
att(678,415).
att(689,429).
att(469,1103).
att(462,293).
att(225,713).
att(228,704).
att(467,295).
att(669,236).
att(1898,818).
att(658,111).
att(29,647).
att(29,645).
att(469,1124).
att(33,647).
att(732,2089).
att(446,1147).
att(463,138).
att(687,402).
att(468,87).
att(680,319).
att(1919,859).
att(682,262).
att(461,162).
att(690,351).
att(733,2031).
att(1902,839).
att(195,1760).
att(226,742).
att(687,319).
att(231,731).
att(24,119).
att(696,415).
att(479,1096).
att(25,121).
att(691,794).
att(484,1081).
att(625,948).
att(693,799).
att(484,198).
att(693,806).
att(689,714).
att(743,232).
att(23,147).
att(103,703).
att(1952,762).
att(1950,964).
att(27,21).
att(1914,817).
att(1915,789).
att(484,1085).
att(481,1103).
att(611,872).
att(1916,763).
att(23,71).
att(33,1).
att(692,726).
att(695,406).
att(613,872).
att(485,1106).
att(738,202).
att(479,1142).
att(37,51).
att(482,1163).
att(479,1157).
att(504,297).
att(507,102).
att(701,319).
att(700,346).
att(701,318).
att(1915,818).
att(1916,784).
att(389,387).
att(484,1124).
att(33,52).
att(743,179).
att(294,743).
att(22,212).
att(703,404).
att(1951,788).
att(744,180).
att(40,45).
att(501,100).
att(615,843).
att(1914,832).
att(621,827).
att(298,740).
att(504,95).
att(700,372).
att(1913,829).
att(484,1159).
att(615,846).
att(504,110).
att(1913,814).
att(307,596).
att(740,108).
att(501,93).
att(1951,818).
att(27,15).
att(103,743).
att(302,594).
att(1952,785).
att(485,146).
att(730,211).
att(723,118).
att(265,611).
att(487,105).
att(288,803).
att(272,680).
att(730,204).
att(1883,834).
att(742,345).
att(1155,1763).
att(1921,779).
att(296,777).
att(40,63).
att(692,900).
att(302,680).
att(733,217).
att(617,1003).
att(737,315).
att(742,374).
att(1159,1766).
att(1887,830).
att(270,649).
att(730,112).
att(1915,859).
att(737,313).
att(743,349).
att(483,176).
att(731,123).
att(1883,837).
att(274,645).
att(467,1145).
att(744,352).
att(294,727).
att(27,45).
att(680,847).
att(29,52).
att(733,114).
att(103,800).
att(489,95).
att(1149,1760).
att(1952,888).
att(486,168).
att(486,199).
att(621,1028).
att(482,195).
att(1142,1764).
att(1142,1763).
att(692,849).
att(1950,897).
att(481,190).
att(1883,1687).
att(307,706).
att(302,710).
att(1922,833).
att(685,846).
att(685,847).
att(29,63).
att(399,384).
att(617,949).
att(682,724).
att(617,948).
att(736,256).
att(623,908).
att(487,162).
att(1920,1660).
att(1915,971).
att(740,238).
att(1921,1682).
att(1913,952).
att(290,804).
att(740,229).
att(481,1087).
att(10,206).
att(696,209).
att(708,321).
att(505,1103).
att(274,735).
att(447,952).
att(508,1076).
att(447,962).
att(619,726).
att(403,398).
att(699,215).
att(266,709).
att(272,701).
att(694,106).
att(407,401).
att(712,321).
att(329,299).
att(504,1136).
att(274,703).
att(647,898).
att(707,377).
att(323,105).
att(1943,817).
att(608,827).
att(1944,809).
att(645,824).
att(441,896).
att(706,280).
att(240,649).
att(1942,837).
att(647,828).
att(274,802).
att(645,820).
att(647,827).
att(791,2168).
att(241,593).
att(302,805).
att(509,1117).
att(645,874).
att(324,143).
att(243,597).
att(446,892).
att(1945,1670).
att(1945,1665).
att(802,2100).
att(1942,1660).
att(711,285).
att(268,731).
att(278,643).
att(807,2185).
att(508,1153).
att(805,2187).
att(1949,830).
att(635,840).
att(703,116).
att(275,647).
att(1915,830).
att(1912,1652).
att(613,774).
att(1128,1762).
att(1945,880).
att(499,164).
att(623,844).
att(1951,812).
att(501,132).
att(499,177).
att(623,842).
att(243,693).
att(275,658).
att(275,656).
att(1915,1654).
att(613,794).
att(504,166).
att(611,786).
att(277,669).
att(264,804).
att(649,1024).
att(241,621).
att(264,805).
att(1947,884).
att(703,282).
att(242,625).
att(447,892).
att(242,615).
att(621,790).
att(243,708).
att(1946,919).
att(277,744).
att(241,713).
att(621,786).
att(1913,1695).
att(1943,919).
att(702,311).
att(1951,1670).
att(611,793).
att(698,315).
att(447,933).
att(430,409).
att(244,706).
att(628,806).
att(241,666).
att(699,255).
att(651,937).
att(1951,1685).
att(629,795).
att(1943,958).
att(701,257).
att(696,180).
att(242,667).
att(639,948).
att(438,391).
att(242,658).
att(243,670).
att(243,664).
att(710,849).
att(240,79).
att(139,669).
att(709,843).
att(131,678).
att(437,405).
att(632,1390).
att(275,64).
att(594,1471).
att(713,823).
att(796,262).
att(594,1465).
att(709,770).
att(798,232).
att(167,805).
att(240,45).
att(244,78).
att(437,428).
att(705,793).
att(126,651).
att(707,799).
att(139,678).
att(713,847).
att(805,312).
att(278,76).
att(803,261).
att(158,723).
att(276,79).
att(594,1500).
att(704,795).
att(1863,308).
att(709,794).
att(591,1342).
att(1894,306).
att(131,707).
att(133,711).
att(805,237).
att(798,256).
att(133,708).
att(590,1429).
att(597,1423).
att(662,935).
att(1898,273).
att(446,469).
att(252,34).
att(1865,142).
att(126,691).
att(669,973).
att(711,724).
att(131,656).
att(597,1348).
att(804,256).
att(710,726).
att(805,251).
att(278,152).
att(671,975).
att(672,950).
att(594,1424).
att(664,950).
att(705,726).
att(441,462).
att(807,250).
att(240,72).
att(630,1363).
att(247,58).
att(706,873).
att(641,1368).
att(221,17).
att(92,596).
att(635,1343).
att(703,790).
att(706,949).
att(246,55).
att(705,973).
att(1944,467).
att(246,58).
att(713,935).
att(452,384).
att(804,400).
att(706,904).
att(805,404).
att(647,1366).
att(1947,468).
att(96,593).
att(96,592).
att(707,904).
att(1943,484).
att(713,978).
att(243,122).
att(246,20).
att(796,400).
att(807,429).
att(94,611).
att(125,717).
att(452,405).
att(798,376).
att(252,67).
att(637,1317).
att(220,44).
att(709,900).
att(1946,487).
att(1947,485).
att(630,1430).
att(800,377).
att(711,902).
att(456,381).
att(706,820).
att(591,1536).
att(1944,499).
att(805,346).
att(221,47).
att(635,1300).
att(449,438).
att(246,73).
att(798,279).
att(1945,331).
att(645,1325).
att(1947,502).
att(803,374).
att(630,1472).
att(645,1313).
att(707,845).
att(456,403).
att(707,843).
att(448,482).
att(458,430).
att(712,825).
att(711,823).
att(86,632).
att(221,53).
att(608,1284).
att(252,81).
att(608,1282).
att(443,354).
att(84,685).
att(719,256).
att(691,1026).
att(89,664).
att(231,42).
att(444,361).
att(689,937).
att(664,794).
att(249,150).
att(228,5).
att(685,1002).
att(667,801).
att(94,669).
att(658,795).
att(682,907).
att(228,21).
att(717,239).
att(717,237).
att(94,680).
att(723,256).
att(1919,305).
att(220,76).
att(732,219).
att(221,82).
att(130,804).
att(224,76).
att(221,80).
att(98,680).
att(130,807).
att(1865,1123).
att(656,720).
att(94,693).
att(222,80).
att(667,715).
att(1894,1100).
att(23,39).
att(719,209).
att(691,949).
att(725,183).
att(741,429).
att(88,713).
att(1898,1136).
att(735,429).
att(23,36).
att(1893,134).
att(220,149).
att(96,699).
att(717,111).
att(96,695).
att(24,39).
att(90,712).
att(90,707).
att(1883,160).
att(462,467).
att(738,415).
att(744,427).
att(227,30).
att(228,42).
att(731,180).
att(1891,138).
att(88,666).
att(733,178).
att(144,699).
att(594,1364).
att(791,108).
att(444,463).
att(596,1363).
att(24,47).
att(1855,166).
att(802,205).
att(476,380).
att(88,735).
att(1897,146).
att(446,459).
att(777,254).
att(590,1369).
att(84,741).
att(1859,164).
att(725,375).
att(480,384).
att(803,203).
att(670,900).
att(1855,173).
att(22,18).
att(92,740).
att(672,903).
att(593,1317).
att(800,116).
att(94,738).
att(294,596).
att(791,116).
att(84,703).
att(473,428).
att(294,592).
att(662,904).
att(723,321).
att(23,15).
att(103,672).
att(443,507).
att(777,111).
att(444,499).
att(298,671).
att(1859,195).
att(469,503).
att(436,357).
att(475,434).
att(1902,134).
att(294,691).
att(656,847).
att(805,116).
att(593,1283).
att(445,505).
att(294,685).
att(1863,195).
att(23,78).
att(717,284).
att(230,148).
att(476,431).
att(731,262).
att(443,331).
att(719,232).
att(682,941).
att(90,796).
att(680,937).
att(298,687).
att(671,844).
att(690,1026).
att(469,320).
att(86,796).
att(228,72).
att(478,430).
att(480,449).
att(22,50).
att(1897,1087).
att(477,454).
att(723,263).
att(678,1019).
att(691,1370).
att(1881,1152).
att(231,1957).
att(1883,1152).
att(22,1875).
att(735,874).
att(480,473).
att(611,1561).
att(478,471).
att(736,902).
att(678,1298).
att(738,872).
att(40,1787).
att(103,55).
att(24,1909).
att(1915,97).
att(625,1467).
att(625,1431).
att(628,1538).
att(294,17).
att(693,1300).
att(103,59).
att(619,1561).
att(298,70).
att(623,1501).
att(482,506).
att(615,1398).
att(479,503).
att(695,1028).
att(483,484).
att(689,1282).
att(740,848).
att(481,485).
att(294,78).
att(1922,1155).
att(611,1499).
att(690,1280).
att(496,389).
att(621,1392).
att(479,328).
att(481,328).
att(739,773).
att(696,945).
att(700,1003).
att(22,1877).
att(694,1005).
att(694,1002).
att(629,1503).
att(694,1008).
att(101,81).
att(33,1783).
att(493,409).
att(629,1473).
att(742,841).
att(488,489).
att(482,325).
att(1950,127).
att(298,120).
att(495,405).
att(719,799).
att(737,935).
att(274,42).
att(31,1842).
att(741,1030).
att(27,1850).
att(268,7).
att(103,124).
att(464,501).
att(465,482).
att(494,433).
att(103,147).
att(740,907).
att(691,1398).
att(10,1815).
att(272,8).
att(1920,168).
att(466,509).
att(731,775).
att(496,435).
att(742,1026).
att(288,73).
att(294,64).
att(744,1008).
att(35,1851).
att(723,775).
att(103,149).
att(1922,168).
att(1914,303).
att(492,475).
att(493,472).
att(290,113).
att(35,1877).
att(497,451).
att(735,975).
att(733,790).
att(35,1870).
att(680,1348).
att(744,935).
att(465,363).
att(495,476).
att(682,1308).
att(466,350).
att(304,12).
att(265,26).
att(689,1370).
att(1883,1106).
att(693,1349).
att(268,36).
att(101,206).
att(268,26).
att(685,1344).
att(744,973).
att(1915,1153).
att(1916,1163).
att(1947,97).
att(157,645).
att(617,1279).
att(1917,1157).
att(169,628).
att(619,1307).
att(302,73).
att(270,45).
att(701,824).
att(304,46).
att(165,645).
att(513,391).
att(274,48).
att(272,46).
att(499,508).
att(499,509).
att(290,213).
att(700,841).
att(651,1465).
att(628,1328).
att(515,379).
att(268,53).
att(701,842).
att(171,647).
att(270,57).
att(276,5).
att(1945,191).
att(158,689).
att(628,1285).
att(264,67).
att(307,113).
att(510,418).
att(307,151).
att(447,138).
att(608,1422).
att(696,786).
att(169,664).
att(628,1287).
att(1944,197).
att(265,72).
att(503,325).
att(643,1501).
att(645,1423).
att(1945,1083).
att(10,1928).
att(31,2013).
att(694,718).
att(1946,198).
att(1946,195).
att(272,65).
att(499,361).
att(518,414).
att(33,1930).
att(157,637).
att(704,976).
att(502,348).
att(641,1342).
att(651,1396).
att(1944,1081).
att(512,437).
att(637,1429).
att(643,1393).
att(171,692).
att(506,331).
att(37,1983).
att(635,1425).
att(709,1005).
att(516,432).
att(159,713).
att(621,1429).
att(165,697).
att(739,786).
att(139,597).
att(159,708).
att(1913,197).
att(481,331).
att(278,16).
att(302,218).
att(270,83).
att(163,711).
att(743,776).
att(511,471).
att(522,433).
att(1944,301).
att(159,669).
att(272,124).
att(698,975).
att(513,470).
att(161,672).
att(277,28).
att(629,1422).
att(743,797).
att(169,711).
att(489,320).
att(485,365).
att(278,28).
att(698,907).
att(702,977).
att(174,796).
att(513,497).
att(1916,1105).
att(615,1294).
att(126,593).
att(696,904).
att(1943,273).
att(1913,1104).
att(701,873).
att(617,1294).
att(1952,1081).
att(489,357).
att(611,1368).
att(265,206).
att(264,188).
att(649,1563).
att(702,870).
att(244,58).
att(700,905).
att(1942,145).
att(1946,110).
att(241,30).
att(697,820).
att(530,381).
att(1947,308).
att(1917,1136).
att(593,1910).
att(467,1273).
att(645,1821).
att(706,1345).
att(2266,458).
att(1865,2023).
att(464,1260).
att(796,973).
att(2264,450).
att(710,1420).
att(457,1440).
att(361,952).
att(361,921).
att(712,1422).
att(339,1691).
att(436,1385).
att(802,978).
att(350,747).
att(441,1374).
att(712,1426).
att(457,1453).
att(2266,472).
att(459,1450).
att(608,1822).
att(446,1352).
att(1865,1986).
att(1898,1963).
att(459,1457).
att(537,384).
att(1894,1987).
att(2267,475).
att(1894,1991).
att(804,948).
att(709,1346).
att(464,1489).
att(534,389).
att(348,812).
att(713,1428).
att(531,435).
att(802,866).
att(1897,1990).
att(462,1450).
att(534,407).
att(597,1930).
att(802,871).
att(805,979).
att(608,1789).
att(463,1442).
att(2263,475).
att(2267,492).
att(777,941).
att(537,411).
att(1893,1777).
att(1895,2019).
att(592,1869).
att(466,1448).
att(2261,476).
att(534,438).
att(597,1956).
att(707,1289).
att(445,1404).
att(630,1875).
att(529,455).
att(536,428).
att(658,1563).
att(467,1487).
att(542,414).
att(1898,2046).
att(529,471).
att(1859,1856).
att(537,430).
att(595,1871).
att(465,1481).
att(671,1557).
att(353,834).
att(457,1542).
att(671,1567).
att(359,814).
att(666,1461).
att(671,1563).
att(798,819).
att(1861,1858).
att(354,811).
att(708,1319).
att(350,829).
att(457,1551).
att(466,1487).
att(802,821).
att(1897,2037).
att(350,830).
att(466,1489).
att(658,1471).
att(1883,1794).
att(1898,2043).
att(363,814).
att(590,1871).
att(1922,1773).
att(542,438).
att(713,1371).
att(529,492).
att(2260,513).
att(698,1296).
att(529,493).
att(709,1557).
att(2265,529).
att(700,1308).
att(1859,1790).
att(323,838).
att(323,835).
att(643,1941).
att(331,817).
att(2259,520).
att(444,1495).
att(2262,532).
att(333,811).
att(651,1941).
att(436,1550).
att(348,896).
att(2263,530).
att(705,1557).
att(536,473).
att(707,1501).
att(2255,411).
att(442,1541).
att(639,1840).
att(645,1904).
att(698,1328).
att(710,1430).
att(1865,1809).
att(711,1459).
att(2265,548).
att(539,475).
att(639,1832).
att(698,1313).
att(2250,379).
att(533,496).
att(639,1838).
att(2253,405).
att(2265,559).
att(324,838).
att(339,815).
att(350,884).
att(441,1541).
att(705,1471).
att(608,1833).
att(323,1685).
att(1859,1968).
att(439,1360).
att(2253,432).
att(2254,430).
att(353,923).
att(2253,438).
att(711,1498).
att(712,1473).
att(802,1005).
att(2255,449).
att(350,968).
att(1898,1967).
att(365,911).
att(592,2001).
att(2255,456).
att(443,1334).
att(2249,428).
att(708,1427).
att(800,947).
att(331,1689).
att(2250,430).
att(331,1685).
att(2253,454).
att(469,1332).
att(710,1392).
att(702,1281).
att(440,1334).
att(708,1420).
att(2257,477).
att(469,1546).
att(713,1472).
att(361,923).
att(805,1028).
att(632,2013).
att(709,1472).
att(488,1457).
att(2252,454).
att(2252,455).
att(1920,1986).
att(487,1260).
att(550,414).
att(1887,2020).
att(2257,492).
att(2256,478).
att(553,403).
att(2257,493).
att(483,1446).
att(467,1375).
att(805,722).
att(556,401).
att(723,978).
att(467,1383).
att(1891,2020).
att(733,973).
att(689,1537).
att(465,1412).
att(1914,1770).
att(717,820).
att(1915,1773).
att(479,1518).
att(1889,2040).
att(729,900).
att(597,1799).
att(733,850).
att(732,873).
att(488,1440).
att(2255,514).
att(594,1829).
att(656,1296).
att(662,1366).
att(680,1563).
att(2256,510).
att(680,1537).
att(669,1300).
att(723,823).
att(671,1304).
att(1889,1857).
att(1920,2043).
att(2253,514).
att(692,1563).
att(2148,379).
att(691,1557).
att(1883,1882).
att(1912,1796).
att(727,823).
att(1891,1862).
att(2255,536).
att(481,1548).
att(1951,1777).
att(556,458).
att(2252,514).
att(733,905).
att(558,454).
att(2252,520).
att(552,480).
att(2147,384).
att(682,1395).
att(687,1503).
att(558,456).
att(1887,1888).
att(2147,391).
att(1914,1968).
att(2253,539).
att(2150,405).
att(1950,1794).
att(689,1496).
att(481,1542).
att(1913,1780).
att(1912,1809).
att(559,472).
att(485,1542).
att(656,1284).
att(1893,1878).
att(672,1313).
att(717,849).
att(667,1279).
att(2137,382).
att(595,1906).
att(548,518).
att(365,836).
att(2145,418).
att(2254,548).
att(2253,554).
att(706,1278).
att(2250,539).
att(361,815).
att(2251,554).
att(804,820).
att(590,1901).
att(777,899).
att(796,826).
att(2149,435).
att(1922,1788).
att(357,1679).
att(465,1540).
att(2252,558).
att(1895,1884).
att(461,1332).
att(791,793).
att(597,1840).
att(671,1501).
att(710,1281).
att(596,1836).
att(348,1695).
att(459,1330).
att(593,1842).
att(559,512).
att(559,513).
att(669,1471).
att(796,849).
att(1894,1878).
att(1898,1886).
att(662,1502).
att(723,937).
att(1893,1999).
att(2150,470).
att(558,511).
att(804,772).
att(1889,1963).
att(723,1008).
att(729,935).
att(459,1353).
att(729,943).
att(597,1851).
att(459,1389).
att(807,774).
att(468,1356).
att(1893,1988).
att(731,909).
att(725,976).
att(464,1383).
att(1919,1994).
att(2150,494).
att(666,1346).
att(670,1421).
att(796,715).
att(457,1383).
att(479,1450).
att(1889,1993).
att(467,1355).
att(597,1819).
att(594,1850).
att(682,1848).
att(736,1390).
att(1944,1790).
att(1949,1777).
att(114,473).
att(112,480).
att(2214,537).
att(504,1525).
att(499,1512).
att(2214,534).
att(692,1901).
att(508,1442).
att(123,471).
att(685,1903).
att(2287,411).
att(685,1908).
att(1944,1769).
att(2209,530).
att(1918,1860).
att(448,1779).
att(1915,1864).
att(1916,1852).
att(1915,1896).
att(2286,431).
att(689,1848).
att(504,1551).
att(744,1502).
att(106,430).
att(505,1479).
att(301,1758).
att(503,1330).
att(685,1814).
att(1916,1884).
att(504,1545).
att(737,1341).
att(123,520).
att(1952,1862).
att(448,1770).
att(1950,1882).
att(116,493).
att(325,1265).
att(1946,1970).
att(271,1764).
att(106,476).
att(1952,1879).
att(508,1541).
att(738,1429).
att(613,1940).
att(658,1791).
att(680,1957).
att(1914,1964).
att(111,539).
att(730,1427).
att(502,1277).
att(666,1826).
att(479,1355).
att(692,2011).
att(2279,460).
att(1912,1964).
att(2287,490).
att(479,1360).
att(1921,1880).
att(1921,1882).
att(1917,1804).
att(685,2013).
att(217,399).
att(667,1823).
att(482,1373).
att(111,513).
att(111,522).
att(486,1389).
att(205,387).
att(670,1828).
att(109,510).
att(479,1375).
att(1915,1992).
att(504,1246).
att(725,1367).
att(1916,1968).
att(1917,1962).
att(685,1934).
att(693,1934).
att(687,1872).
att(483,1373).
att(1914,2020).
att(209,454).
att(482,1412).
att(2282,514).
att(689,1869).
att(1914,2044).
att(1950,1999).
att(1912,2022).
att(1913,2018).
att(217,460).
att(741,1557).
att(2287,534).
att(488,1353).
att(205,453).
att(481,1383).
att(723,1371).
att(99,552).
att(1951,1993).
att(99,558).
att(1952,2024).
att(2288,554).
att(203,403).
att(111,550).
att(204,405).
att(680,1839).
att(215,450).
att(1912,2039).
att(731,1307).
att(719,1280).
att(740,1469).
att(1913,2037).
att(727,1321).
att(2281,533).
att(2285,550).
att(1951,2024).
att(485,1414).
att(735,1471).
att(738,1538).
att(615,1818).
att(621,1848).
att(695,1422).
att(699,1372).
att(2270,389).
att(641,2003).
att(439,1808).
att(611,1851).
att(703,1500).
att(323,1547).
att(742,1279).
att(2280,553).
att(701,1397).
att(1944,1878).
att(448,2039).
att(608,2007).
att(444,1779).
att(339,1481).
att(703,1499).
att(2273,438).
att(647,2007).
att(335,1544).
att(698,1423).
att(641,1932).
att(442,1968).
att(623,1814).
att(628,1851).
att(324,1542).
att(2272,435).
att(2276,454).
att(2277,472).
att(611,1814).
att(703,1393).
att(611,1820).
att(625,1817).
att(2278,475).
att(335,1331).
att(325,1357).
att(328,1353).
att(446,1973).
att(439,1962).
att(439,1965).
att(439,1973).
att(651,2009).
att(436,1963).
att(2273,470).
att(436,1994).
att(619,1819).
att(694,1348).
att(2273,478).
att(645,1953).
att(694,1300).
att(440,1994).
att(608,1877).
att(331,1361).
att(635,1956).
att(697,1289).
att(354,1274).
att(623,1958).
att(685,1787).
att(696,1561).
att(2271,492).
att(613,1869).
att(116,380).
att(325,1446).
att(695,1565).
att(2278,522).
att(1942,1990).
att(328,1457).
att(743,1342).
att(1943,1995).
att(2269,495).
att(1943,1999).
att(502,1374).
att(619,1928).
att(2269,500).
att(333,1269).
att(2267,379).
att(1949,2024).
att(619,1868).
att(504,1387).
att(1942,2020).
att(501,1399).
att(2276,533).
att(2276,542).
att(331,1246).
att(697,1463).
att(2273,534).
att(331,1277).
att(502,1399).
att(324,1453).
att(502,1412).
att(693,1800).
att(116,430).
att(333,1492).
att(2278,554).
att(2266,407).
att(701,1430).
att(2269,530).
att(2276,556).
att(2269,531).
att(621,1900).
att(99,385).
att(611,1908).
att(2264,411).
att(629,1876).
att(695,1430).
att(448,1988).
att(738,1282).
att(325,1547).
att(613,1850).
att(621,1841).
att(1946,2040).
att(328,1512).
att(740,1285).
att(2272,552).
att(439,1777).
att(743,1329).
att(2269,558).
att(740,1286).
att(116,391).
att(448,2022).
att(744,1328).
att(2266,455).
att(710,1961).
att(800,1536).
att(698,1791).
att(258,385).
att(2230,470).
att(705,1869).
att(643,44).
att(361,267).
att(353,102).
att(2238,475).
att(2231,498).
att(2236,513).
att(186,520).
att(363,297).
att(608,53).
att(701,1797).
att(704,1873).
att(713,1932).
att(649,43).
att(791,1561).
att(593,188).
att(2229,495).
att(464,859).
att(635,13).
att(796,1461).
att(444,811).
att(639,11).
att(708,1907).
att(1859,1551).
att(182,497).
att(639,19).
att(649,57).
att(704,1907).
att(440,839).
att(459,854).
att(630,214).
att(2231,518).
att(1863,1512).
att(791,1461).
att(178,472).
att(712,1873).
att(643,12).
att(1894,1512).
att(259,430).
att(706,1836).
att(2233,534).
att(597,216).
att(253,414).
att(465,892).
att(597,213).
att(1902,1506).
att(183,550).
att(1855,1330).
att(596,216).
att(590,216).
att(630,117).
att(2237,518).
att(2236,549).
att(457,932).
att(361,142).
att(802,1500).
att(256,387).
att(260,405).
att(446,832).
att(651,55).
att(181,549).
att(183,537).
att(185,558).
att(1894,1544).
att(439,1685).
att(465,878).
att(2233,556).
att(357,1087).
att(645,30).
att(706,1842).
att(466,884).
att(2224,401).
att(254,378).
att(462,882).
att(649,36).
att(181,532).
att(354,162).
att(441,1682).
att(2220,385).
att(182,530).
att(708,1848).
att(446,1657).
att(467,882).
att(796,1503).
att(709,1908).
att(635,36).
att(608,7).
att(463,917).
att(445,933).
att(441,966).
att(645,121).
att(651,188).
att(649,121).
att(323,194).
att(258,475).
att(331,160).
att(651,218).
att(2237,559).
att(2238,559).
att(2238,556).
att(2222,428).
att(2221,435).
att(2222,433).
att(446,884).
att(95,1758).
att(629,21).
att(328,1086).
att(439,952).
att(251,405).
att(2223,454).
att(331,194).
att(639,68).
att(439,972).
att(700,1846).
att(625,9).
att(440,970).
att(250,414).
att(700,1843).
att(1949,1691).
att(643,124).
att(2226,472).
att(697,1817).
att(701,1850).
att(335,1085).
att(329,1076).
att(708,1936).
att(331,1075).
att(639,75).
att(258,512).
att(608,80).
att(348,305).
att(708,1930).
att(436,787).
att(441,760).
att(350,306).
att(697,1823).
att(706,1953).
att(329,1100).
att(1865,1495).
att(439,785).
att(2221,490).
att(651,66).
att(350,289).
att(694,1831).
att(259,476).
att(1863,1487).
att(250,449).
att(256,458).
att(1863,1494).
att(2226,512).
att(1919,1485).
att(1919,1481).
att(215,518).
att(664,1909).
att(1881,1546).
att(731,1557).
att(803,1289).
att(461,836).
att(203,475).
att(591,12).
att(1881,1548).
att(672,1876).
att(804,1289).
att(2225,532).
att(1883,1548).
att(664,1874).
att(777,1367).
att(215,497).
att(802,1319).
att(658,1842).
att(468,836).
att(632,4).
att(725,1501).
att(662,1835).
att(203,449).
att(2220,518).
att(202,452).
att(803,1311).
att(203,452).
att(203,453).
att(1920,1547).
att(800,1278).
att(2221,542).
att(594,61).
att(211,450).
att(211,456).
att(485,878).
att(2216,398).
att(211,458).
att(217,475).
att(464,1663).
att(730,1499).
att(725,1397).
att(777,1283).
att(1887,1331).
att(1914,1244).
att(489,925).
att(669,1838).
att(1887,1336).
att(217,549).
att(486,970).
att(1887,1337).
att(461,1687).
att(181,387).
att(2210,379).
att(479,954).
att(731,1501).
att(205,532).
att(729,1391).
att(479,972).
att(1921,1543).
att(181,378).
att(807,1282).
att(1893,1333).
att(205,530).
att(186,387).
att(664,1821).
att(1881,1373).
att(1881,1374).
att(1914,1450).
att(731,1390).
att(1914,1446).
att(690,2007).
att(2210,401).
att(202,495).
att(595,1).
att(690,1984).
att(2217,456).
att(658,1823).
att(1915,1273).
att(667,1815).
att(2211,428).
att(484,917).
att(671,1843).
att(2218,458).
att(293,1760).
att(215,520).
att(597,3).
att(678,2005).
att(680,1985).
att(488,968).
att(182,438).
att(185,452).
att(443,1687).
att(709,1848).
att(595,154).
att(1859,1357).
att(593,67).
att(805,1372).
att(180,398).
att(185,451).
att(203,556).
att(595,148).
att(2211,450).
att(187,432).
att(203,548).
att(348,1084).
att(457,763).
att(469,1665).
att(2218,480).
att(446,1680).
att(658,2011).
att(704,1814).
att(468,919).
att(666,1911).
att(2209,450).
att(182,407).
att(591,74).
att(365,1084).
att(185,438).
att(791,1363).
att(1919,1271).
att(669,2001).
att(596,63).
att(707,1830).
att(804,1422).
att(1902,1355).
att(804,1429).
att(462,747).
att(179,382).
att(711,1813).
att(462,964).
att(354,1086).
att(658,1910).
att(662,2007).
att(592,49).
att(183,475).
att(1893,1491).
att(1859,1402).
att(670,1935).
att(791,1296).
att(707,1800).
att(706,1783).
att(354,1117).
att(178,454).
att(708,1793).
att(807,1348).
att(1883,1442).
att(2211,494).
att(354,1101).
att(630,48).
att(1863,1404).
att(710,1823).
att(184,455).
att(662,1932).
att(713,1814).
att(1898,1385).
att(2209,493).
att(594,47).
att(2213,522).
att(466,782).
att(725,1557).
att(800,1289).
att(462,817).
att(800,1296).
att(2287,384).
att(1921,1491).
att(2216,533).
att(2284,380).
att(363,1124).
att(463,816).
att(1894,1400).
att(2213,529).
att(2284,382).
att(463,839).
att(468,785).
att(234,559).
att(1914,1360).
att(509,895).
att(731,1851).
att(739,2003).
att(484,837).
att(313,389).
att(499,923).
att(317,411).
att(313,381).
att(191,1764).
att(316,405).
att(317,405).
att(501,933).
att(733,1847).
att(486,1687).
att(194,1767).
att(680,45).
att(723,1831).
att(1945,1246).
att(691,65).
att(22,777).
att(484,1689).
att(310,391).
att(31,617).
att(481,1685).
att(743,2011).
att(744,2013).
att(312,453).
att(1949,1269).
att(680,56).
att(1950,1335).
att(37,701).
att(487,1695).
att(312,454).
att(735,1868).
att(31,699).
att(503,756).
att(730,1824).
att(10,707).
att(505,919).
att(732,1831).
att(743,1932).
att(316,454).
att(286,476).
att(1952,1361).
att(506,787).
att(1914,1404).
att(509,765).
att(687,59).
att(613,208).
att(685,55).
att(691,43).
att(689,62).
att(617,218).
att(1916,1377).
att(1913,1407).
att(501,752).
att(1943,1258).
att(317,437).
att(1943,1446).
att(508,958).
att(229,548).
att(693,43).
att(509,964).
att(658,14).
att(1881,1400).
att(286,531).
att(315,510).
att(803,1787).
att(1916,1265).
att(1912,1453).
att(40,725).
att(40,717).
att(719,1874).
att(1951,1276).
att(1893,1377).
att(805,1795).
att(487,752).
att(669,56).
att(689,189).
att(1887,1402).
att(483,785).
att(1950,1457).
att(479,810).
att(33,742).
att(670,62).
att(484,778).
att(40,744).
att(727,1900).
att(671,61).
att(777,1799).
att(35,743).
att(1919,1379).
att(1919,1380).
att(485,817).
att(729,1906).
att(2241,418).
att(725,1841).
att(725,1840).
att(502,890).
att(317,551).
att(2245,438).
att(316,556).
att(2240,399).
att(664,26).
att(2240,414).
att(285,384).
att(481,809).
att(693,213).
att(685,210).
att(1951,1487).
att(685,206).
att(1952,1438).
att(678,115).
att(1917,1522).
att(317,534).
att(286,549).
att(10,733).
att(286,550).
att(685,148).
att(1950,1525).
att(282,380).
att(31,800).
att(315,529).
att(737,2005).
att(682,64).
att(691,119).
att(2240,434).
att(682,69).
att(692,83).
att(1917,1516).
att(160,1765).
att(287,536).
att(501,897).
att(732,1834).
att(1949,1360).
att(1946,1331).
att(698,1928).
att(2246,438).
att(697,1960).
att(700,1928).
att(1946,1361).
att(329,915).
att(439,1269).
att(699,1932).
att(611,81).
att(2247,452).
att(324,915).
att(625,82).
att(259,542).
att(2245,496).
att(1949,1331).
att(2246,451).
att(259,537).
att(2243,495).
att(2243,496).
att(1942,1377).
att(323,747).
att(739,1793).
att(2240,478).
att(2241,491).
att(254,513).
att(742,1826).
att(1948,1356).
att(698,1936).
att(250,491).
att(1949,1381).
att(1945,1412).
att(2239,494).
att(2240,494).
att(2243,516).
att(619,57).
att(232,437).
att(1947,1380).
att(615,16).
att(641,218).
att(699,1869).
att(641,214).
att(742,1785).
att(229,409).
att(619,50).
att(2246,496).
att(611,60).
att(442,1475).
att(698,1899).
att(446,1489).
att(2243,539).
att(335,817).
att(694,1832).
att(702,1875).
att(255,549).
att(641,115).
att(443,1487).
att(323,810).
att(439,1481).
att(233,399).
att(331,754).
att(1855,1768).
att(625,18).
att(694,1909).
att(701,1901).
att(2246,516).
att(694,1907).
att(2235,409).
att(448,1453).
att(507,782).
att(234,480).
att(738,1904).
att(503,814).
att(2229,387).
att(1942,1524).
att(736,1834).
att(237,491).
att(1947,1448).
att(447,1450).
att(735,1905).
att(1918,1400).
att(2238,380).
att(2235,437).
att(1915,1399).
att(507,809).
att(234,450).
att(736,1847).
att(1942,1522).
att(136,1762).
att(625,117).
att(691,12).
att(447,1492).
att(2235,454).
att(448,1440).
att(2231,434).
att(235,438).
att(448,1491).
att(509,784).
att(685,3).
att(2236,455).
att(504,830).
att(138,1761).
att(697,2011).
att(238,529).
att(1946,1548).
att(615,69).
att(742,1840).
att(623,155).
att(693,41).
att(1947,1520).
att(625,151).
att(2238,426).
att(447,1525).
att(286,379).
att(238,520).
att(611,148).
att(619,124).
att(2232,455).
att(690,8).
att(503,1691).
att(2229,458).
att(740,1818).
att(505,1654).
att(739,1815).
att(696,1928).
att(329,888).
att(447,1506).
att(617,74).
att(625,72).
att(448,1506).
att(744,1844).
att(506,1660).
att(239,490).
att(320,970).
att(619,153).
att(1201,559).
att(655,2126).
att(1202,556).
att(684,2098).
att(711,206).
att(1202,559).
att(660,2004).
att(910,236).
att(352,474).
att(668,2004).
att(969,287).
att(712,212).
att(1442,1762).
att(347,480).
att(654,2074).
att(654,2070).
att(373,431).
att(695,8).
att(910,253).
att(352,453).
att(1196,472).
att(951,400).
att(349,456).
att(704,152).
att(1193,454).
att(1196,478).
att(654,2186).
att(913,281).
att(665,2047).
att(660,2052).
att(374,516).
att(373,497).
att(798,2003).
att(910,312).
att(912,315).
att(912,310).
att(702,28).
att(665,1975).
att(913,312).
att(920,280).
att(661,2004).
att(352,496).
att(711,65).
att(679,2125).
att(805,2003).
att(631,1926).
att(704,80).
att(659,2002).
att(344,403).
att(1200,534).
att(1200,532).
att(617,628).
att(877,207).
att(922,425).
att(1198,539).
att(634,2027).
att(631,2015).
att(702,147).
att(967,424).
att(322,414).
att(343,398).
att(373,533).
att(1189,403).
att(377,537).
att(694,71).
att(699,77).
att(351,549).
att(1189,414).
att(698,74).
att(1191,520).
att(1194,534).
att(877,123).
att(1199,551).
att(885,205).
att(1183,381).
att(668,2033).
att(668,2027).
att(625,629).
att(1193,530).
att(1185,405).
att(633,2072).
att(1186,414).
att(648,2012).
att(1457,1764).
att(879,219).
att(1195,558).
att(615,632).
att(650,1924).
att(1182,398).
att(701,43).
att(1444,1759).
att(625,641).
att(1185,437).
att(1444,1761).
att(1185,438).
att(373,559).
att(885,259).
att(1183,434).
att(343,434).
att(918,402).
att(875,203).
att(924,254).
att(1184,437).
att(1258,1763).
att(663,2070).
att(1181,435).
att(633,2076).
att(701,56).
att(876,187).
att(670,113).
att(706,5).
att(281,434).
att(631,2107).
att(631,2104).
att(661,2185).
att(279,435).
att(609,1998).
att(875,317).
att(642,1980).
att(885,280).
att(670,117).
att(1189,490).
att(650,1972).
att(659,2101).
att(633,2107).
att(313,554).
att(644,1978).
att(926,279).
att(708,2).
att(802,1850).
att(261,450).
att(644,1998).
att(876,232).
att(777,1843).
att(666,64).
att(263,437).
att(929,279).
att(711,8).
att(672,156).
att(926,287).
att(644,2000).
att(669,65).
att(877,376).
att(1183,495).
att(284,496).
att(877,377).
att(648,2094).
att(879,318).
att(853,111).
att(855,114).
att(671,64).
att(669,153).
att(1189,539).
att(609,1979).
att(261,500).
att(885,349).
att(261,498).
att(732,1936).
att(732,1935).
att(885,375).
att(610,1982).
att(929,344).
att(893,217).
att(804,1826).
att(285,449).
att(926,352).
att(881,281).
att(662,82).
att(263,471).
att(1190,551).
att(1063,411).
att(1183,532).
att(650,2126).
att(1184,533).
att(800,1959).
att(636,2057).
att(1188,550).
att(650,2074).
att(881,400).
att(279,515).
att(755,722).
att(800,1956).
att(1182,532).
att(889,260).
att(712,73).
att(875,318).
att(1277,1762).
att(1059,426).
att(879,406).
att(650,2057).
att(1184,554).
att(924,425).
att(646,2079).
att(712,51).
att(857,202).
att(709,58).
att(745,792).
att(281,554).
att(759,849).
att(852,234).
att(642,2104).
att(349,454).
att(664,218).
att(853,233).
att(650,2185).
att(755,847).
att(645,595).
att(893,312).
att(1053,428).
att(755,768).
att(707,16).
att(755,767).
att(750,790).
att(620,2010).
att(777,1954).
att(620,2000).
att(375,409).
att(751,792).
att(713,12).
att(284,556).
att(804,1905).
att(280,532).
att(753,793).
att(616,1923).
att(710,20).
att(281,530).
att(1056,453).
att(636,2126).
att(887,239).
att(282,552).
att(667,124).
att(887,232).
att(651,592).
att(750,720).
att(791,1837).
att(807,1899).
att(375,389).
att(279,531).
att(662,641).
att(753,186).
att(662,645).
att(725,43).
att(1327,802).
att(753,184).
att(725,49).
att(618,1462).
att(424,512).
att(757,185).
att(1312,738).
att(1293,592).
att(887,2091).
att(1318,732).
att(889,2094).
att(1318,729).
att(1320,730).
att(622,1562).
att(745,99).
att(891,2090).
att(1211,385).
att(855,2032).
att(887,2076).
att(761,202).
att(626,1470).
att(650,1705).
att(748,111).
att(755,211).
att(400,511).
att(887,2033).
att(644,1703).
att(670,637).
att(757,205).
att(1299,630).
att(1218,431).
att(671,641).
att(669,597).
att(1291,623).
att(853,2059).
att(429,551).
att(610,1719).
att(1295,682).
att(738,206).
att(618,1588).
att(855,2138).
att(424,558).
att(731,61).
att(1297,682).
att(753,235).
att(740,188).
att(1216,426).
att(857,2056).
att(1312,777).
att(1514,1760).
att(1293,619).
att(857,2057).
att(864,1925).
att(750,260).
att(717,19).
att(757,239).
att(861,1931).
att(1218,453).
att(1314,796).
att(1218,458).
att(1288,731).
att(739,121).
att(642,1725).
att(1288,723).
att(1516,1758).
att(624,1605).
att(860,2074).
att(1211,438).
att(1305,678).
att(730,16).
att(1220,428).
att(864,1927).
att(755,254).
att(1219,475).
att(1213,455).
att(1293,635).
att(1213,453).
att(1217,471).
att(412,553).
att(1290,643).
att(622,1532).
att(1320,803).
att(731,189).
att(725,121).
att(723,119).
att(618,1628).
att(616,1646).
att(791,5).
att(1215,476).
att(733,188).
att(757,282).
att(620,1632).
att(800,41).
att(725,149).
att(891,2167).
att(807,4).
att(1211,473).
att(1214,478).
att(807,3).
att(1212,473).
att(753,312).
att(1219,511).
att(677,2012).
att(725,148).
att(1220,470).
att(658,680).
att(1292,666).
att(804,28).
att(1292,682).
att(858,2107).
att(745,238).
att(757,311).
att(656,672).
att(1214,500).
att(1303,713).
att(729,148).
att(745,232).
att(751,316).
att(891,2173).
att(734,1627).
att(717,74).
att(956,204).
att(748,321).
att(863,2089).
att(731,150).
att(864,2089).
att(1299,729).
att(620,1681).
att(1219,539).
att(666,678).
att(959,209).
att(1290,699).
att(959,203).
att(764,186).
att(1218,529).
att(627,1656).
att(1297,698).
att(676,2054).
att(1205,378).
att(662,623).
att(761,344).
att(626,1677).
att(667,623).
att(667,628).
att(620,1625).
att(666,625).
att(731,65).
att(1301,694).
att(733,68).
att(734,1628).
att(319,514).
att(957,259).
att(1201,384).
att(343,497).
att(687,590).
att(861,2138).
att(1209,435).
att(318,518).
att(614,1653).
att(343,493).
att(956,258).
att(743,46).
att(699,218).
att(764,251).
att(863,2075).
att(744,17).
att(701,188).
att(1524,1759).
att(342,456).
att(1220,548).
att(1209,454).
att(1299,802).
att(1301,803).
att(344,470).
att(342,450).
att(959,187).
att(674,2028).
att(1202,418).
att(750,346).
att(342,452).
att(734,1683).
att(865,2058).
att(1290,737).
att(622,1674).
att(319,559).
att(1204,437).
att(1205,453).
att(1208,456).
att(739,39).
att(959,317).
att(652,1937).
att(1203,454).
att(1207,472).
att(735,41).
att(345,511).
att(1204,456).
att(345,518).
att(321,530).
att(345,515).
att(965,316).
att(344,510).
att(318,532).
att(965,317).
att(696,67).
att(322,522).
att(1210,498).
att(674,2074).
att(412,381).
att(1210,500).
att(734,1723).
att(951,253).
att(913,112).
att(723,4).
att(741,151).
att(674,2187).
att(412,455).
att(686,2014).
att(415,450).
att(1203,496).
att(951,282).
att(732,32).
att(1207,516).
att(654,1981).
att(738,69).
att(965,352).
att(1198,378).
att(730,1).
att(737,79).
att(953,284).
att(682,628).
att(652,2010).
att(744,154).
att(1207,531).
att(682,615).
att(679,1972).
att(967,106).
att(738,73).
att(736,48).
att(683,2074).
att(740,78).
att(400,491).
att(910,182).
att(743,64).
att(406,472).
att(910,201).
att(912,217).
att(740,79).
att(688,2056).
att(967,255).
att(678,619).
att(429,455).
att(913,187).
att(1192,391).
att(1204,537).
att(1200,426).
att(1191,381).
att(1495,1763).
att(693,628).
att(742,75).
att(918,215).
att(1204,556).
att(681,2032).
att(678,651).
att(1197,428).
att(1201,550).
att(412,473).
att(957,2168).
att(1240,696).
att(1241,699).
att(1222,710).
att(1238,699).
att(910,1982).
att(912,2002).
att(703,705).
att(703,712).
att(697,690).
att(1236,704).
att(965,2173).
att(953,2104).
att(655,1570).
att(701,617).
att(953,2101).
att(959,2174).
att(695,617).
att(699,687).
att(698,682).
att(679,1628).
att(686,1628).
att(686,1645).
att(951,2130).
att(956,2104).
att(703,664).
att(697,617).
att(1240,705).
att(1228,649).
att(1241,733).
att(920,2090).
att(910,2028).
att(686,1721).
att(912,2052).
att(1226,590).
att(918,2031).
att(1236,741).
att(688,1672).
att(654,1675).
att(663,1455).
att(683,1705).
att(1230,651).
att(660,1455).
att(679,1675).
att(1239,744).
att(702,629).
att(1237,802).
att(744,639).
att(1222,798).
att(1226,687).
att(910,2070).
att(653,1650).
att(1236,798).
att(654,1718).
att(913,2073).
att(920,2126).
att(1237,798).
att(1228,625).
att(1337,1765).
att(914,2095).
att(684,1718).
att(1309,647).
att(1238,791).
att(679,1718).
att(1221,731).
att(634,1455).
att(912,2029).
att(659,1560).
att(1236,717).
att(743,637).
att(1237,723).
att(688,1720).
att(920,2186).
att(876,1997).
att(877,2012).
att(694,702).
att(743,596).
att(914,2107).
att(665,1581).
att(1229,671).
att(698,709).
att(699,711).
att(879,1939).
att(1230,667).
att(881,1939).
att(969,2123).
att(633,1589).
att(791,43).
att(805,70).
att(877,2051).
att(802,79).
att(875,1972).
att(1231,738).
att(663,1675).
att(807,63).
att(644,1452).
att(876,1977).
att(877,1980).
att(807,47).
att(877,1976).
att(885,2053).
att(1310,712).
att(708,651).
att(659,1630).
att(705,629).
att(705,628).
att(708,639).
att(1225,711).
att(1314,643).
att(796,57).
att(883,2072).
att(1320,623).
att(642,1533).
att(648,1600).
att(804,52).
att(642,1528).
att(705,632).
att(709,637).
att(879,2094).
att(707,592).
att(924,2070).
att(1312,651).
att(665,1726).
att(1224,727).
att(646,1532).
att(1312,647).
att(634,1683).
att(661,1656).
att(1314,630).
att(640,1554).
att(1320,649).
att(803,54).
att(709,593).
att(879,2078).
att(1315,649).
att(802,19).
att(805,56).
att(1327,608).
att(668,1673).
att(1227,739).
att(644,1566).
att(712,592).
att(802,13).
att(796,212).
att(858,2006).
att(1314,680).
att(800,208).
att(885,2123).
att(1288,690).
att(800,189).
att(1288,682).
att(855,1939).
att(1541,1763).
att(1324,669).
att(924,2122).
att(1540,1760).
att(876,2152).
att(876,2155).
att(609,1529).
att(889,1926).
att(631,1723).
att(891,2010).
att(707,705).
att(1310,804).
att(800,120).
att(642,1531).
att(1322,689).
att(704,705).
att(646,1623).
att(804,120).
att(751,118).
att(852,1971).
att(627,1462).
att(751,109).
att(1322,744).
att(860,2055).
att(876,2171).
att(707,656).
att(705,710).
att(802,152).
att(876,2187).
att(889,1978).
att(609,1587).
att(885,2167).
att(885,2174).
att(1327,698).
att(759,118).
att(805,154).
att(860,1976).
att(879,2185).
att(650,1647).
att(1322,707).
att(711,671).
att(883,2169).
att(719,705).
att(1256,798).
att(751,1927).
att(1247,615).
att(727,699).
att(610,1109).
att(1412,1762).
att(875,1737).
att(626,940).
att(730,736).
att(1315,65).
att(636,1111).
att(876,1721).
att(1324,69).
att(1272,682).
att(757,1925).
att(804,632).
att(1320,82).
att(648,1078).
att(1275,691).
att(858,1529).
att(759,1933).
att(1262,802).
att(1327,63).
att(1257,729).
att(719,656).
att(731,703).
att(893,1605).
att(1322,68).
att(855,1566).
att(1445,803).
att(1272,625).
att(646,1092).
att(719,685).
att(734,942).
att(730,711).
att(622,1021).
att(1315,120).
att(1270,702).
att(642,1113).
att(1243,656).
att(761,2048).
att(748,1979).
att(624,995).
att(1299,19).
att(1299,28).
att(1245,658).
att(745,2002).
att(640,1140).
att(723,685).
att(1288,67).
att(650,1116).
att(860,1584).
att(610,1090).
att(1243,680).
att(636,1073).
att(1299,7).
att(757,2008).
att(1247,692).
att(1247,691).
att(733,671).
att(732,666).
att(791,611).
att(860,1683).
att(1254,635).
att(616,1068).
att(777,664).
att(791,623).
att(1305,52).
att(1255,645).
att(624,1047).
att(677,1466).
att(864,1560).
att(1270,727).
att(1272,723).
att(1299,55).
att(800,693).
att(1247,708).
att(1254,596).
att(1255,593).
att(887,1611).
att(626,993).
att(748,1972).
att(1312,121).
att(804,689).
att(1268,702).
att(805,682).
att(622,981).
att(1250,617).
att(1233,639).
att(624,1077).
att(676,1528).
att(727,733).
att(889,1717).
att(1245,717).
att(1250,629).
att(777,691).
att(622,1094).
att(751,2059).
att(1232,637).
att(1250,621).
att(745,2090).
att(1303,72).
att(759,2130).
att(1305,77).
att(627,1111).
att(860,1649).
att(777,643).
att(1251,637).
att(1305,80).
att(1249,717).
att(1266,730).
att(1232,594).
att(622,1031).
att(614,1069).
att(729,741).
att(1247,736).
att(863,1630).
att(1255,713).
att(676,1581).
att(616,1170).
att(963,1971).
att(750,2098).
att(1293,68).
att(1295,154).
att(1233,691).
att(673,1605).
att(1254,712).
att(1297,154).
att(1243,796).
att(1251,693).
att(963,2012).
att(1297,68).
att(863,1569).
att(739,656).
att(755,2107).
att(737,685).
att(864,1568).
att(736,682).
att(755,2098).
att(739,664).
att(1252,671).
att(1255,658).
att(737,691).
att(618,1089).
att(852,1723).
att(757,2154).
att(852,1717).
att(744,705).
att(853,1721).
att(1295,67).
att(1290,75).
att(1303,155).
att(751,2155).
att(759,2101).
att(864,1675).
att(1255,737).
att(1252,743).
att(864,1676).
att(1234,694).
att(1290,83).
att(1295,214).
att(862,1609).
att(961,2048).
att(1291,83).
att(764,2033).
att(1233,711).
att(622,1180).
att(1242,630).
att(1254,736).
att(676,1611).
att(951,1997).
att(1297,113).
att(957,1979).
att(753,2170).
att(1234,712).
att(742,692).
att(620,1179).
att(1299,208).
att(736,649).
att(1235,666).
att(745,2098).
att(961,1979).
att(742,689).
att(737,647).
att(627,1175).
att(676,1633).
att(1303,206).
att(688,1528).
att(1236,639).
att(683,1504).
att(965,2058).
att(1237,635).
att(717,645).
att(861,1723).
att(675,1655).
att(955,2034).
att(865,1725).
att(1239,635).
att(951,2031).
att(673,1702).
att(1251,735).
att(676,1705).
att(1255,727).
att(864,1651).
att(953,2031).
att(953,2051).
att(1253,739).
att(727,647).
att(675,1624).
att(676,1683).
att(1236,596).
att(969,1996).
att(965,2098).
att(1222,692).
att(920,1997).
att(655,1607).
att(1222,689).
att(1223,623).
att(741,738).
att(1223,625).
att(1242,670).
att(737,697).
att(653,1529).
att(951,2074).
att(681,1600).
att(688,1584).
att(957,2126).
att(740,698).
att(955,2056).
att(959,2153).
att(1238,613).
att(684,1529).
att(1250,803).
att(686,1588).
att(731,595).
att(735,700).
att(1221,641).
att(688,1589).
att(913,1461).
att(926,1294).
att(876,1325).
att(763,829).
att(883,1300).
att(634,822).
att(912,1431).
att(879,1319).
att(964,1658).
att(762,831).
att(926,1304).
att(633,848).
att(634,840).
att(912,1372).
att(967,1459).
att(918,1496).
att(964,1679).
att(969,1465).
att(879,1283).
att(913,1472).
att(859,1260).
att(752,754).
att(747,749).
att(747,754).
att(668,909).
att(631,899).
att(875,1294).
att(663,976).
att(897,1273).
att(634,904).
att(876,1289).
att(661,872).
att(749,781).
att(916,1567).
att(890,1260).
att(646,774).
att(883,1393).
att(929,1393).
att(636,806).
att(663,1005).
att(657,945).
att(638,806).
att(638,728).
att(958,778).
att(958,779).
att(634,979).
att(885,1429).
att(648,771).
att(885,1423).
att(765,758).
att(926,1428).
att(665,907).
att(638,724).
att(609,841).
att(952,832).
att(893,1328).
att(650,828).
att(857,1286).
att(646,827).
att(857,1283).
att(638,767).
att(952,1662).
att(642,848).
att(893,1286).
att(876,1555).
att(640,851).
att(754,1685).
att(895,1338).
att(886,1335).
att(884,1276).
att(751,1787).
att(756,1687).
att(856,1353).
att(756,1695).
att(896,1330).
att(636,901).
att(758,1697).
att(646,898).
att(609,827).
att(883,1555).
att(885,1537).
att(879,1471).
att(788,1685).
att(880,1267).
att(887,1304).
att(892,1355).
att(791,700).
att(777,733).
att(926,1563).
att(892,1356).
att(883,1536).
att(777,730).
att(857,1321).
att(854,1400).
att(609,979).
att(781,785).
att(858,1422).
att(614,715).
att(753,1820).
att(624,774).
att(804,702).
att(893,1398).
att(855,1345).
att(859,1406).
att(745,1831).
att(889,1341).
att(895,1383).
att(928,1489).
att(609,873).
att(884,1524).
att(886,1414).
att(781,839).
att(923,1492).
att(796,669).
att(858,1342).
att(925,1440).
att(751,1822).
att(860,1344).
att(798,671).
att(803,706).
att(610,869).
att(650,909).
att(746,1789).
att(753,1785).
att(932,1258).
att(779,782).
att(893,1342).
att(638,851).
att(791,669).
att(892,1409).
att(620,718).
att(895,1387).
att(928,1491).
att(760,782).
att(620,842).
att(622,844).
att(859,1520).
att(610,1002).
att(751,1834).
att(624,826).
att(734,769).
att(863,1319).
att(887,1473).
att(864,1283).
att(864,1278).
att(638,1024).
att(638,1005).
att(750,1842).
att(622,771).
att(858,1398).
att(865,1287).
att(893,1473).
att(788,817).
att(626,768).
att(892,1485).
att(750,1812).
att(745,1820).
att(889,1392).
att(745,1900).
att(675,1323).
att(787,816).
att(754,831).
att(852,1463).
att(759,1954).
att(618,902).
att(755,1941).
att(756,838).
att(856,1543).
att(888,1548).
att(892,1516).
att(889,1563).
att(895,1475).
att(791,804).
att(865,1308).
att(853,1502).
att(749,1684).
att(761,1872).
att(896,1540).
att(626,827).
att(897,1516).
att(673,790).
att(746,1423).
att(746,1420).
att(921,1457).
att(915,1453).
att(1166,474).
att(933,1332).
att(674,799).
att(614,219).
att(675,806).
att(933,1335).
att(858,1001).
att(878,1373).
att(923,1385).
att(865,773).
att(971,1456).
att(862,794).
att(616,232).
att(968,1263).
att(855,906).
att(1131,456).
att(1125,454).
att(761,1394).
att(864,776).
att(927,1381).
att(911,1489).
att(750,1347).
att(928,1385).
att(764,1294).
att(921,1481).
att(915,1483).
att(956,1317).
att(677,824).
att(933,1373).
att(755,1461).
att(1133,496).
att(961,1328).
att(919,1522).
att(734,317).
att(1137,511).
att(759,1461).
att(1125,491).
att(966,1524).
att(956,1279).
att(809,838).
att(761,1471).
att(963,1311).
att(1166,530).
att(857,1028).
att(862,848).
att(1133,520).
att(811,838).
att(852,1026).
att(1135,533).
att(622,429).
att(688,720).
att(688,714).
att(779,829).
att(880,1508).
att(779,833).
att(957,1363).
att(750,1539).
att(614,321).
att(675,905).
att(673,905).
att(865,977).
att(956,1370).
att(862,894).
att(928,1547).
att(781,1660).
att(734,373).
att(676,901).
att(748,1538).
att(783,831).
att(779,1654).
att(755,1565).
att(927,1506).
att(612,374).
att(927,1512).
att(780,1658).
att(627,412).
att(933,1525).
att(673,974).
att(880,1338).
att(684,786).
att(780,1680).
att(817,836).
att(780,1689).
att(862,909).
att(676,979).
att(878,1389).
att(965,1422).
att(925,1335).
att(655,724).
att(955,1371).
att(673,870).
att(957,1499).
att(958,1489).
att(922,1317).
att(655,769).
att(959,1503).
att(675,1005).
att(959,1498).
att(970,1383).
att(954,1494).
att(957,1394).
att(958,1527).
att(953,1425).
att(960,1487).
att(971,1404).
att(765,1489).
att(956,1372).
att(956,1396).
att(962,1522).
att(951,1424).
att(766,1520).
att(918,1300).
att(957,1565).
att(958,1551).
att(953,1561).
att(959,1567).
att(959,1557).
att(830,832).
att(653,824).
att(969,1307).
att(956,1463).
att(953,1431).
att(920,1298).
att(655,842).
att(764,1557).
att(920,1421).
att(922,1343).
att(912,1366).
att(686,950).
att(652,894).
att(816,1654).
att(918,1367).
att(969,1346).
att(922,1496).
att(660,840).
att(661,849).
att(631,795).
att(970,1334).
att(816,1684).
att(970,1360).
att(971,1336).
att(688,1019).
att(665,773).
att(762,1269).
att(922,1372).
att(917,1380).
att(633,794).
att(916,1396).
att(661,786).
att(954,1444).
att(962,1446).
att(659,179).
att(655,404).
att(1006,515).
att(984,379).
att(1006,522).
att(661,184).
att(984,387).
att(989,409).
att(663,251).
att(969,975).
att(990,432).
att(913,900).
att(914,900).
att(679,400).
att(686,415).
att(661,201).
att(967,873).
att(912,822).
att(681,343).
att(653,373).
att(969,871).
att(983,407).
att(991,449).
att(634,232).
att(987,438).
att(668,262).
att(668,282).
att(988,454).
att(983,426).
att(881,714).
att(986,456).
att(659,251).
att(875,724).
att(929,793).
att(985,458).
att(879,721).
att(881,724).
att(663,235).
att(876,844).
att(926,819).
att(991,497).
att(661,352).
att(648,108).
att(657,262).
att(877,767).
att(631,286).
att(875,775).
att(910,1028).
att(631,315).
att(661,285).
att(668,280).
att(989,516).
att(986,514).
att(926,848).
att(881,768).
att(883,867).
att(642,186).
att(879,850).
att(1165,387).
att(982,514).
att(663,424).
att(636,211).
att(992,399).
att(646,217).
att(929,870).
att(631,347).
att(929,872).
att(610,118).
att(640,203).
att(648,201).
att(875,845).
att(1154,387).
att(663,322).
att(631,281).
att(663,344).
att(650,204).
att(992,435).
att(1158,411).
att(984,559).
att(1160,414).
att(1154,407).
att(929,1019).
att(924,1001).
att(875,868).
att(879,974).
att(982,549).
att(1161,433).
att(895,952).
att(859,779).
att(889,806).
att(859,814).
att(1165,451).
att(875,850).
att(640,255).
att(648,238).
att(1161,450).
att(856,817).
att(890,778).
att(657,429).
att(897,760).
att(883,948).
att(646,258).
att(895,817).
att(891,828).
att(1160,455).
att(759,1328).
att(888,815).
att(640,279).
att(642,282).
att(610,317).
att(876,1002).
att(992,495).
att(895,784).
att(1150,458).
att(1164,496).
att(875,908).
att(761,1287).
att(636,237).
att(1158,490).
att(881,909).
att(926,1024).
att(992,516).
att(876,909).
att(882,928).
att(882,923).
att(627,178).
att(1154,497).
att(753,1313).
att(638,376).
att(1165,530).
att(891,874).
att(627,217).
att(642,375).
att(748,1326).
att(761,1313).
att(1150,513).
att(620,112).
att(892,880).
att(614,184).
att(734,186).
att(1135,401).
att(751,1342).
att(1154,533).
att(886,971).
att(1131,378).
att(624,233).
att(748,1350).
att(856,964).
att(618,183).
att(856,971).
att(856,972).
att(626,250).
att(757,1350).
att(859,756).
att(865,724).
att(886,958).
att(895,968).
att(1135,437).
att(895,972).
att(650,429).
att(612,215).
att(638,319).
att(1133,426).
att(750,1294).
att(745,1308).
att(614,217).
att(757,1369).
att(895,921).
att(622,185).
att(609,2187).
att(865,203).
att(925,785).
att(855,352).
att(880,818).
att(857,262).
att(1057,492).
att(884,811).
att(882,839).
att(614,1977).
att(878,833).
att(853,314).
att(923,816).
att(853,315).
att(858,279).
att(624,2052).
att(759,819).
att(932,811).
att(624,2049).
att(753,842).
att(927,830).
att(1061,530).
att(626,1978).
att(1044,382).
att(1061,536).
att(750,770).
att(884,1665).
att(746,894).
att(1042,385).
att(932,830).
att(1059,536).
att(1063,551).
att(932,832).
att(1037,380).
att(614,2015).
att(862,181).
att(1055,529).
att(1044,418).
att(614,2047).
att(622,2034).
att(622,2029).
att(923,1665).
att(1041,409).
att(1041,418).
att(1053,531).
att(748,898).
att(887,400).
att(677,109).
att(748,824).
att(857,352).
att(864,202).
att(674,108).
att(757,904).
att(857,376).
att(674,109).
att(751,874).
att(745,827).
att(884,1691).
att(861,204).
att(919,968).
att(1044,437).
att(1055,551).
att(753,945).
att(863,315).
att(1055,554).
att(761,1005).
att(676,229).
att(1043,451).
att(750,978).
att(745,948).
att(861,239).
att(675,258).
att(675,260).
att(745,979).
att(751,943).
att(951,724).
att(1041,454).
att(865,316).
att(622,2070).
att(627,2131).
att(925,915).
att(927,921).
att(927,915).
att(751,948).
att(895,1654).
att(927,971).
att(862,259).
att(886,1679).
att(734,2125).
att(1039,474).
att(614,2107).
att(895,1685).
att(622,2170).
att(956,774).
att(863,285).
att(878,785).
att(618,2107).
att(864,282).
att(750,909).
att(755,1028).
att(674,232).
att(757,1024).
att(1044,516).
att(745,937).
att(956,776).
att(688,181).
att(966,815).
att(1035,492).
att(957,902).
att(688,180).
att(863,429).
att(1042,522).
att(970,830).
att(1037,511).
att(653,114).
att(1012,380).
att(681,217).
att(966,837).
att(688,201).
att(968,831).
att(917,1654).
att(965,898).
att(1039,536).
att(674,351).
att(861,319).
att(1010,389).
att(861,374).
att(679,123).
att(1011,387).
att(970,836).
att(1038,534).
att(966,831).
att(1009,381).
att(654,259).
att(920,801).
att(1009,387).
att(957,975).
att(1006,382).
att(914,720).
att(917,1697).
att(970,1663).
att(955,851).
att(1011,401).
att(1011,407).
att(1014,437).
att(676,424).
att(1035,551).
att(920,718).
att(1016,454).
att(1036,558).
att(961,870).
att(971,1691).
att(956,871).
att(969,722).
att(1012,454).
att(679,180).
att(1010,449).
att(913,769).
att(1009,434).
att(932,1665).
att(679,311).
att(688,311).
att(969,770).
att(933,1680).
att(1007,475).
att(967,769).
att(1009,472).
att(966,952).
att(665,205).
att(1009,477).
att(968,787).
att(661,116).
att(653,282).
att(1011,497).
att(966,785).
att(663,99).
att(1009,495).
att(654,279).
att(1010,514).
att(910,768).
att(652,310).
att(1014,542).
att(967,828).
att(989,381).
att(663,123).
att(969,827).
att(921,812).
att(876,74).
att(876,76).
att(633,1932).
att(877,82).
att(101,1146).
att(1075,831).
att(610,1795).
att(290,1050).
att(103,1088).
att(644,1818).
att(103,1091).
att(650,1813).
att(292,1092).
att(1082,812).
att(298,1109).
att(638,1783).
att(646,1827).
att(300,1110).
att(1079,838).
att(91,1548).
att(290,1065).
att(1083,834).
att(646,1839).
att(85,1337).
att(858,39).
att(264,936).
att(290,1143).
att(268,1023).
att(290,1074).
att(302,1020).
att(1085,832).
att(1101,897).
att(1097,923).
att(1105,856).
att(638,1821).
att(638,1812).
att(300,1141).
att(132,1269).
att(1083,1665).
att(132,1276).
att(634,2001).
att(875,70).
att(101,1113).
att(860,9).
att(1085,1657).
att(95,1333).
att(1085,1663).
att(1096,968).
att(1097,966).
att(1105,923).
att(926,150).
att(288,1179).
att(293,1332).
att(288,1176).
att(293,1333).
att(195,1658).
att(102,1541).
att(1086,933).
att(853,20).
att(875,213).
att(610,1905).
att(110,1540).
att(1079,932).
att(860,12).
att(650,1868).
att(887,60).
att(636,1905).
att(644,1871).
att(292,1179).
att(105,1339).
att(1081,766).
att(1086,915).
att(299,1357).
att(887,13).
att(638,1835).
att(646,1901).
att(1086,972).
att(294,1175).
att(852,38).
att(295,1354).
att(610,1840).
att(1087,1684).
att(610,1837).
att(610,1832).
att(1080,952).
att(885,212).
att(1084,917).
att(103,1177).
att(264,931).
att(296,1114).
att(860,39).
att(1076,962).
att(302,993).
att(87,1276).
att(298,1176).
att(926,189).
att(299,1358).
att(646,1907).
att(100,1359).
att(646,1932).
att(100,1389).
att(648,1985).
att(142,1265).
att(266,1050).
att(268,1098).
att(1079,749).
att(746,645).
att(1075,778).
att(753,623).
att(169,1588).
att(295,1387).
att(1084,971).
att(302,1109).
att(755,629).
att(299,1374).
att(857,52).
att(100,1351).
att(1086,954).
att(857,53).
att(1082,779).
att(293,1402).
att(858,51).
att(1082,817).
att(1075,811).
att(650,1910).
att(893,82).
att(642,1872).
att(143,1274).
att(1080,789).
att(163,1462).
att(761,641).
att(146,1263).
att(158,1458).
att(165,1564).
att(140,1512).
att(614,1814).
att(1106,814).
att(1104,809).
att(132,1544).
att(175,1524).
att(759,709).
att(622,1844).
att(134,1514).
att(307,1114).
att(753,672).
att(302,1122).
att(616,1844).
att(1123,923).
att(268,1143).
att(753,656).
att(302,1112).
att(302,1143).
att(1105,808).
att(278,939).
att(755,669).
att(163,1607).
att(636,2003).
att(275,938).
att(1106,808).
att(750,690).
att(1128,854).
att(640,1985).
att(889,64).
att(610,1911).
att(616,1819).
att(734,1826).
att(751,680).
att(858,64).
att(761,669).
att(264,1111).
att(1124,896).
att(163,1533).
att(748,615).
att(1106,833).
att(1106,834).
att(265,1108).
att(1106,832).
att(612,1823).
att(857,75).
att(244,1000).
att(673,41).
att(862,15).
att(759,740).
att(139,1454).
att(169,1681).
att(1124,919).
att(268,1174).
att(245,996).
att(1124,925).
att(1117,968).
att(861,20).
att(612,1838).
att(240,1004).
att(620,1900).
att(757,696).
att(858,189).
att(159,1633).
att(757,695).
att(1136,915).
att(266,1168).
att(1136,970).
att(264,1148).
att(852,147).
att(1121,787).
att(175,1361).
att(1104,1697).
att(245,1027).
att(302,1179).
att(676,36).
att(157,1582).
att(245,1022).
att(748,672).
att(242,934).
att(304,1112).
att(855,151).
att(750,671).
att(275,1018).
att(889,113).
att(174,1725).
att(142,1337).
att(143,1336).
att(951,632).
att(1099,754).
att(753,725).
att(956,635).
att(1104,971).
att(1100,958).
att(134,1267).
att(163,1648).
att(963,613).
att(677,44).
att(863,75).
att(171,1649).
att(171,1651).
att(626,1955).
att(129,1265).
att(965,641).
att(757,733).
att(1102,960).
att(167,1656).
att(97,1383).
att(159,1625).
att(91,1381).
att(141,1562).
att(676,54).
att(135,1562).
att(134,1453).
att(270,1180).
att(861,60).
att(674,14).
att(757,742).
att(265,1172).
att(276,1067).
att(861,62).
att(276,1054).
att(137,1452).
att(675,14).
att(276,1066).
att(159,1612).
att(139,1581).
att(277,1170).
att(245,1091).
att(1100,782).
att(136,1440).
att(243,1077).
att(957,678).
att(953,629).
att(1097,778).
att(130,1533).
att(135,1600).
att(146,1379).
att(97,1401).
att(130,1531).
att(125,1535).
att(131,1607).
att(140,1479).
att(622,1932).
att(143,1406).
att(175,1491).
att(1099,832).
att(734,1957).
att(746,717).
att(133,1535).
att(141,1606).
att(677,81).
att(618,1935).
att(128,1532).
att(129,1506).
att(135,1605).
att(864,78).
att(128,1552).
att(137,1534).
att(955,647).
att(620,1928).
att(955,635).
att(955,639).
att(616,1536).
att(1124,1657).
att(133,1054).
att(157,1174).
att(273,1967).
att(133,1065).
att(170,1546).
att(1155,854).
att(271,1804).
att(125,997).
att(309,1770).
att(271,1969).
att(955,11).
att(173,1546).
att(301,1973).
att(748,218).
att(170,1337).
att(677,1906).
att(1119,1689).
att(1126,1668).
att(162,1337).
att(158,1115).
att(1147,915).
att(1134,1670).
att(131,980).
att(159,1113).
att(961,20).
att(125,1022).
att(173,1337).
att(309,1811).
att(865,1875).
att(301,1962).
att(963,72).
att(1149,789).
att(1159,958).
att(303,1962).
att(1145,752).
att(194,1457).
att(1152,787).
att(162,1380).
att(1134,1689).
att(125,1031).
att(1155,971).
att(955,51).
att(1136,1680).
att(1157,954).
att(1163,917).
att(306,1963).
att(686,1820).
att(956,49).
att(273,2020).
att(686,1823).
att(734,1565).
att(1153,752).
att(191,1436).
att(170,1383).
att(269,2025).
att(959,48).
att(959,44).
att(131,1034).
att(1157,760).
att(865,1936).
att(96,1029).
att(1136,763).
att(1123,785).
att(654,1843).
att(953,149).
att(160,1453).
att(137,1170).
att(675,2011).
att(162,1457).
att(126,1072).
att(1136,954).
att(764,117).
att(764,115).
att(168,1436).
att(683,1846).
att(1119,780).
att(1126,754).
att(170,1456).
att(674,1934).
att(172,1440).
att(653,1831).
att(951,79).
att(1121,815).
att(1123,833).
att(200,1495).
att(173,1527).
att(920,62).
att(128,1173).
att(273,1794).
att(98,1066).
att(130,1178).
att(914,30).
att(959,206).
att(910,39).
att(961,213).
att(269,1778).
att(922,12).
att(916,15).
att(951,121).
att(686,1876).
att(133,1177).
att(84,1018).
att(1128,813).
att(967,53).
att(681,1834).
att(173,1547).
att(1149,923).
att(135,1176).
att(1124,834).
att(301,1798).
att(683,1906).
att(965,206).
att(160,1544).
att(267,1810).
att(170,1514).
att(1145,856).
att(170,1520).
att(955,155).
att(1119,831).
att(955,156).
att(88,939).
att(1134,814).
att(679,1835).
att(967,17).
att(1136,809).
att(200,1481).
att(967,16).
att(912,2).
att(299,1995).
att(100,1968).
att(655,1961).
att(92,1095).
att(633,1783).
att(88,1033).
att(634,1800).
att(190,1352).
att(1147,1695).
att(297,1963).
att(90,1069).
att(293,1987).
att(969,43).
att(1086,1267).
att(86,1068).
att(92,1034).
att(1084,1244).
att(88,1051).
att(1075,1436).
att(110,1801).
att(1163,1689).
att(88,993).
att(295,1999).
att(89,1054).
att(297,2025).
att(663,1800).
att(920,153).
att(100,2026).
att(633,1815).
att(661,1851).
att(885,9).
att(94,1071).
att(668,1851).
att(289,2045).
att(634,1824).
att(94,1074).
att(84,1095).
att(912,73).
att(193,1402).
att(657,1815).
att(103,942).
att(297,2045).
att(967,147).
att(299,1867).
att(97,1777).
att(634,1793).
att(94,1108).
att(104,2019).
att(87,1777).
att(1080,1495).
att(297,1866).
att(299,2036).
att(195,1399).
att(198,1495).
att(1155,780).
att(196,1450).
att(668,1909).
att(877,4).
att(918,83).
att(306,2016).
att(271,1866).
att(173,1414).
att(194,1506).
att(193,1548).
att(920,124).
att(195,1475).
att(665,1832).
att(299,1796).
att(100,1771).
att(298,1021).
att(1152,838).
att(308,2038).
att(877,9).
att(916,83).
att(269,1860).
att(269,1866).
att(910,69).
att(196,1489).
att(199,1414).
att(294,931).
att(291,942).
att(198,1514).
att(665,1961).
att(926,47).
att(288,1069).
att(102,1784).
att(269,1886).
att(910,212).
att(875,19).
att(289,1808).
att(1087,1479).
att(657,1871).
att(192,1548).
att(631,1901).
att(657,1872).
att(1163,813).
att(197,1514).
att(198,1506).
att(103,1050).
att(273,1882).
att(659,1871).
att(100,1782).
att(288,981).
att(300,1069).
att(288,980).
att(634,1906).
att(94,1171).
att(1142,1684).
att(879,18).
att(110,1790).
att(661,1901).
att(197,1540).
att(193,1332).
att(918,218).
att(1157,1668).
att(291,997).
att(306,1888).
att(1159,1662).
att(633,1395).
att(146,896).
att(646,1286).
att(718,418).
att(877,1846).
att(87,878).
att(668,1498).
att(648,1280).
att(663,1503).
att(926,1841).
att(665,1398).
att(876,1821).
att(914,2007).
att(718,384).
att(875,1826).
att(661,1425).
att(716,379).
att(659,1423).
att(633,1471).
att(610,1325).
att(877,1899).
att(661,1555).
att(720,450).
att(642,1328).
att(665,1536).
att(665,1537).
att(644,1323).
att(726,453).
att(1079,1101).
att(722,458).
att(609,1279).
att(145,952).
att(631,1394).
att(1085,1083).
att(145,763).
att(721,403).
att(644,1329).
att(633,1473).
att(852,1799).
att(295,747).
att(877,1957).
att(640,1341).
att(648,1422).
att(724,520).
att(196,1083).
att(650,1426).
att(875,1873).
att(642,1363).
att(636,1369).
att(104,762).
att(887,1830).
att(104,763).
att(887,1826).
att(299,783).
att(726,494).
att(195,1101).
att(875,1875).
att(648,1345).
att(631,1538).
att(192,1124).
att(714,460).
att(197,1097).
att(631,1461).
att(193,1121).
att(197,1103).
att(193,1128).
att(879,1868).
att(926,1959).
att(636,1300).
att(165,930).
att(167,934).
att(609,1424).
att(852,1813).
att(197,1149).
att(720,536).
att(875,1932).
att(642,1420).
att(790,378).
att(792,379).
att(855,1821).
att(881,2007).
att(636,1423).
att(889,1848).
att(196,1142).
att(195,1163).
att(646,1425).
att(295,839).
att(104,815).
att(714,500).
att(642,1343).
att(881,1911).
att(197,1155).
att(197,1163).
att(714,497).
att(140,915).
att(638,1499).
att(750,32).
att(91,1691).
att(614,1283).
att(640,1469).
att(134,917).
att(622,1311).
att(616,1319).
att(891,1868).
att(127,762).
att(650,1469).
att(638,1472).
att(889,1903).
att(97,1695).
att(609,1396).
att(745,1).
att(622,1282).
att(648,1431).
att(1099,1106).
att(648,1465).
att(174,995).
att(746,3).
att(893,1908).
att(642,1393).
att(761,38).
att(136,966).
att(176,919).
att(650,1498).
att(755,41).
att(750,9).
att(755,30).
att(177,970).
att(175,964).
att(174,1094).
att(863,1825).
att(1097,1103).
att(855,1873).
att(158,1070).
att(132,809).
att(159,993).
att(734,1326).
att(891,1959).
att(759,51).
att(759,50).
att(627,1369).
att(174,1050).
att(610,1471).
att(753,57).
att(1097,1124).
att(163,1000).
att(748,16).
att(755,58).
att(638,1459).
att(889,1870).
att(852,1930).
att(745,76).
att(174,1151).
att(93,781).
att(161,1088).
att(1075,1155).
att(87,783).
att(755,68).
att(158,1109).
att(620,1421).
att(889,2005).
att(620,1420).
att(1086,1106).
att(865,1814).
att(1084,1119).
att(624,1426).
att(734,1362).
att(157,1045).
att(860,1930).
att(624,1425).
att(761,69).
att(1085,1149).
att(145,779).
att(163,1048).
att(748,44).
att(855,1954).
att(171,1108).
att(755,80).
att(750,44).
att(757,78).
att(852,1961).
att(746,155).
att(862,1839).
att(1083,1157).
att(724,382).
att(132,878).
att(91,835).
att(140,895).
att(863,1904).
att(141,993).
att(676,1835).
att(93,832).
att(761,218).
att(87,1658).
att(1080,1163).
att(137,1029).
att(959,38).
att(1086,1147).
att(955,2).
att(174,1118).
att(622,1398).
att(141,1004).
att(676,1844).
att(141,1017).
att(127,932).
att(618,1423).
att(626,1398).
att(757,153).
att(857,2001).
att(273,1258).
att(734,871).
att(200,972).
att(774,473).
att(306,1274).
att(624,906).
att(764,1817).
att(618,950).
att(755,1984).
att(761,2003).
att(160,763).
att(755,1928).
att(612,873).
att(745,1959).
att(305,1276).
att(614,871).
att(862,1348).
att(961,1826).
att(764,1831).
att(751,1953).
att(734,901).
att(303,1263).
att(734,894).
att(863,1346).
att(957,1783).
att(303,1446).
att(162,754).
att(857,1565).
att(200,954).
att(164,784).
att(172,788).
att(786,553).
att(173,749).
att(770,411).
att(166,810).
att(301,1442).
att(1123,1153).
att(168,817).
att(1124,1134).
att(957,1850).
att(677,1390).
att(769,493).
att(772,522).
att(303,1456).
att(170,787).
att(864,1390).
att(612,947).
att(861,1397).
att(271,1479).
att(675,1420).
att(675,1425).
att(746,2007).
att(956,1821).
att(616,943).
att(746,1932).
att(764,1842).
att(748,1983).
att(963,1850).
att(965,1851).
att(624,1019).
att(162,839).
att(305,1485).
att(1119,1163).
att(164,832).
att(190,888).
att(614,977).
att(1130,1152).
att(193,859).
att(166,833).
att(627,1003).
att(963,1877).
att(769,542).
att(134,815).
att(843,409).
att(1101,1153).
att(655,1280).
att(675,1473).
att(840,382).
att(1105,1134).
att(764,1875).
att(1103,1145).
att(140,810).
att(676,1432).
att(775,552).
att(140,836).
att(173,856).
att(681,1279).
att(127,1660).
att(166,932).
att(677,1496).
att(129,1663).
att(612,1024).
att(861,1503).
att(1105,1159).
att(177,813).
att(865,1465).
att(776,534).
att(164,971).
att(967,1824).
att(127,1685).
att(965,1936).
att(953,1872).
att(674,1557).
att(840,431).
att(922,1787).
att(675,1555).
att(956,1958).
att(271,1277).
att(764,1953).
att(134,1691).
att(956,1873).
att(963,1956).
att(953,1875).
att(922,1799).
att(176,1680).
att(176,1663).
att(959,1877).
att(843,428).
att(162,966).
att(861,1555).
att(686,1371).
att(679,1294).
att(303,1375).
att(953,1983).
att(792,432).
att(196,760).
att(793,431).
att(910,1819).
att(797,452).
att(289,1492).
att(273,1401).
att(686,1398).
att(197,754).
att(301,1380).
att(198,782).
att(920,1820).
att(953,1910).
att(683,1420).
att(308,1412).
att(110,1263).
att(786,387).
att(801,418).
att(961,1938).
att(306,1407).
att(686,1423).
att(918,1830).
att(301,1400).
att(967,1816).
att(301,1402).
att(688,1427).
att(951,1956).
att(799,495).
att(100,1485).
att(654,1503).
att(794,475).
att(192,829).
att(633,1284).
att(1079,854).
att(655,1497).
att(786,460).
att(967,1906).
att(679,1498).
att(297,1550).
att(786,454).
att(654,1473).
att(198,816).
att(1086,890).
att(1082,884).
att(914,1849).
att(191,1668).
att(192,1652).
att(1083,892).
att(914,1842).
att(289,1545).
att(297,1542).
att(686,1501).
att(1080,886).
att(1080,897).
att(198,838).
att(166,1670).
att(665,1367).
att(806,548).
att(195,859).
att(195,854).
att(801,530).
att(170,834).
att(922,1955).
att(776,387).
att(795,534).
att(308,1525).
att(271,1543).
att(806,542).
att(271,1338).
att(168,1668).
att(162,1679).
att(660,1306).
att(797,512).
att(652,1431).
att(634,1329).
att(271,1330).
att(657,1321).
att(774,428).
att(772,426).
att(929,1851).
att(776,438).
att(792,550).
att(885,1822).
att(657,1350).
att(271,1353).
att(173,1685).
att(918,1934).
att(303,1358).
att(102,1244).
att(797,552).
att(883,1827).
att(100,1274).
att(790,542).
att(196,968).
att(653,1537).
att(631,1307).
att(773,389).
att(657,1363).
att(774,387).
att(969,1940).
att(31,1608).
att(272,2054).
att(609,705).
att(827,529).
att(167,108).
att(1100,1970).
att(650,702).
att(819,497).
att(296,2169).
att(169,108).
att(291,2173).
att(1097,1969).
att(1105,1782).
att(644,702).
att(302,2047).
att(644,701).
att(171,108).
att(1105,1974).
att(1099,1987).
att(33,1630).
att(300,2186).
att(822,494).
att(27,1570).
att(101,2170).
att(822,492).
att(609,742).
att(1104,1962).
att(902,431).
att(903,431).
att(899,403).
att(307,2070).
att(1101,1986).
att(545,387).
att(821,554).
att(1101,1963).
att(610,697).
att(874,434).
att(1097,2025).
att(304,2079).
att(29,1704).
att(905,401).
att(10,1626).
att(827,551).
att(900,382).
att(266,2050).
att(1104,1989).
att(540,378).
att(174,181).
att(274,2027).
att(1101,2018).
att(169,185).
att(642,738).
att(820,513).
att(545,407).
att(1101,1991).
att(902,398).
att(636,698).
att(644,740).
att(789,1760).
att(244,1927).
att(609,802).
att(264,2059).
att(274,2153).
att(268,2128).
att(161,236).
att(756,1758).
att(627,658).
att(264,2091).
att(163,259).
att(268,2071).
att(270,2058).
att(901,437).
att(894,437).
att(557,398).
att(304,2128).
att(1085,1988).
att(10,1717).
att(901,434).
att(158,178).
att(646,807).
att(1083,2022).
att(307,2138).
att(161,257).
att(307,2131).
att(27,1726).
att(624,691).
att(749,1762).
att(905,438).
att(1084,2026).
att(27,1672).
att(1096,1777).
att(747,1763).
att(636,727).
att(904,435).
att(901,398).
att(265,2095).
att(546,480).
att(904,438).
att(1097,1776).
att(547,476).
att(277,2035).
att(1083,2036).
att(1082,1858).
att(1106,1771).
att(161,263).
att(1075,1884).
att(627,696).
att(1075,1885).
att(1099,1808).
att(1104,1772).
att(141,114).
att(174,373).
att(540,456).
att(540,458).
att(626,709).
att(163,317).
att(158,286).
att(905,492).
att(1105,1768).
att(304,2186).
att(265,2151).
att(174,262).
att(240,1924).
att(264,2138).
att(307,2167).
att(167,311).
att(627,707).
att(902,496).
att(1084,1854).
att(1099,1967).
att(268,2123).
att(616,667).
att(903,494).
att(275,2008).
att(541,492).
att(874,493).
att(265,2138).
att(894,456).
att(1081,1888).
att(845,495).
att(842,480).
att(1130,1966).
att(161,327).
att(1121,2024).
att(1123,1989).
att(174,429).
att(616,736).
att(163,321).
att(1117,1999).
att(626,737).
att(240,2035).
att(137,111).
att(845,475).
att(157,261).
att(277,2015).
att(174,327).
att(616,702).
att(161,375).
att(627,737).
att(555,514).
att(616,697).
att(524,387).
att(1126,1995).
att(171,376).
att(242,1972).
att(618,704).
att(528,403).
att(276,2052).
att(244,2075).
att(126,182).
att(278,2126).
att(524,409).
att(821,387).
att(1124,2019).
att(840,522).
att(130,185).
att(557,534).
att(535,382).
att(843,537).
att(535,384).
att(612,719).
att(1134,2023).
att(517,399).
att(1130,2036).
att(1136,2045).
att(241,2015).
att(825,391).
att(849,531).
att(126,207).
att(627,807).
att(126,201).
att(540,550).
att(161,406).
att(245,2091).
att(519,407).
att(275,2057).
att(624,802).
att(825,382).
att(557,550).
att(841,493).
att(130,209).
att(535,409).
att(1128,2039).
att(243,2034).
att(1119,1867).
att(137,180).
att(840,491).
att(958,1767).
att(220,1931).
att(527,456).
att(962,1763).
att(842,550).
att(224,2012).
att(535,428).
att(820,414).
att(828,438).
att(1117,1768).
att(130,219).
att(535,433).
att(276,2104).
att(841,552).
att(221,1925).
att(526,474).
att(133,219).
att(1121,1805).
att(248,2012).
att(1099,1890).
att(519,454).
att(612,777).
att(242,2070).
att(275,2154).
att(130,255).
att(526,491).
att(821,399).
att(523,475).
att(614,777).
att(840,531).
att(849,552).
att(1102,1862).
att(1119,1786).
att(137,229).
att(240,2073).
att(247,1939).
att(614,800).
att(527,491).
att(826,500).
att(1128,1805).
att(1136,1790).
att(141,321).
att(519,473).
att(827,495).
att(90,112).
att(96,201).
att(521,490).
att(128,373).
att(825,500).
att(1126,1770).
att(1117,1806).
att(221,1972).
att(243,2187).
att(828,471).
att(241,2173).
att(1128,1782).
att(1130,1804).
att(141,374).
att(1104,1888).
att(607,387).
att(130,317).
att(521,516).
att(821,453).
att(131,261).
att(139,349).
att(223,1604).
att(681,693).
att(90,1923).
att(137,2128).
att(137,2152).
att(976,426).
att(675,805).
att(1142,2016).
att(240,1725).
att(1163,1965).
att(1142,2020).
att(679,689).
att(686,671).
att(223,1589).
att(1149,2017).
att(133,2057).
att(676,807).
att(245,1726).
att(1159,2022).
att(245,1719).
att(688,693).
att(133,2071).
att(242,1725).
att(676,791).
att(128,2073).
att(871,551).
att(1155,2018).
att(976,407).
att(654,615).
att(249,1529).
att(135,2071).
att(683,617).
att(1147,2016).
att(684,623).
att(1163,1990).
att(131,2073).
att(653,651).
att(131,2075).
att(851,550).
att(977,478).
att(976,478).
att(1147,1852).
att(221,1587).
att(125,2101).
att(247,1632).
att(686,703).
att(950,471).
att(1157,2041).
att(653,678).
att(948,475).
att(974,438).
att(133,2101).
att(681,664).
att(686,704).
att(948,470).
att(90,2012).
att(128,2123).
att(1145,1886).
att(246,1584).
att(144,1979).
att(223,1569).
att(679,656).
att(226,1454).
att(906,384).
att(979,511).
att(1130,1860).
att(1124,1857).
att(663,608).
att(633,594).
att(973,500).
att(92,2033).
att(1153,1777).
att(88,2054).
att(684,741).
att(94,2032).
att(144,2079).
att(979,496).
att(1136,2042).
att(144,2090).
att(231,1562).
att(144,2030).
att(1163,1792).
att(231,1462).
att(978,490).
att(224,1624).
att(86,2049).
att(246,1611).
att(130,2187).
att(94,2052).
att(88,1976).
att(973,475).
att(220,1632).
att(230,1458).
att(686,741).
att(223,1608).
att(1157,1780).
att(248,1681).
att(1136,1864).
att(907,428).
att(298,1929).
att(1149,1992).
att(1152,1962).
att(659,615).
att(98,2131).
att(975,542).
att(655,805).
att(941,403).
att(228,1604).
att(1159,1974).
att(660,690).
att(228,1530).
att(653,730).
att(23,1562).
att(103,1927).
att(681,800).
att(224,1649).
att(655,730).
att(1145,1986).
att(634,595).
att(634,591).
att(661,635).
att(679,725).
att(225,1554).
att(1163,1803).
att(230,1529).
att(978,522).
att(226,1554).
att(1163,1970).
att(686,800).
att(1142,2026).
att(1149,1990).
att(871,405).
att(300,1975).
att(92,2185).
att(898,533).
att(290,1931).
att(871,384).
att(227,1569).
att(25,1589).
att(98,2101).
att(25,1602).
att(903,539).
att(22,1588).
att(870,384).
att(88,2075).
att(23,1528).
att(668,666).
att(226,1589).
att(101,1998).
att(227,1675).
att(634,701).
att(84,2171).
att(225,1624).
att(650,594).
att(870,449).
att(35,1458).
att(37,1468).
att(291,1971).
att(871,434).
att(25,1646).
att(869,391).
att(296,1981).
att(663,702).
att(103,2054).
att(905,558).
att(871,500).
att(25,1653).
att(640,619).
att(23,1655).
att(609,641).
att(1155,1882).
att(866,473).
att(40,1528).
att(103,2058).
att(668,791).
att(636,645).
att(659,732).
att(644,649).
att(660,732).
att(783,1758).
att(101,2056).
att(22,1627).
att(640,591).
att(631,699).
att(101,2095).
att(650,643).
att(37,1560).
att(24,1675).
att(226,1705).
att(227,1655).
att(304,2006).
att(298,2125).
att(977,378).
att(10,1600).
att(976,380).
att(296,2104).
att(609,682).
att(27,1605).
att(302,2002).
att(37,1569).
att(873,513).
att(949,382).
att(869,497).
att(304,1933).
att(850,533).
att(657,807).
att(27,1528).
att(659,805).
att(302,1926).
att(857,630).
att(1083,1353).
att(883,723).
att(1103,1450).
att(1075,1400).
att(1024,477).
att(610,61).
att(1100,1448).
att(929,796).
att(1030,460).
att(27,1068).
att(893,643).
att(1076,1375).
att(302,1564).
att(1097,1450).
att(887,649).
att(1005,470).
att(1105,1265).
att(1005,471).
att(31,1054).
att(1083,1375).
att(1083,1385).
att(91,2019).
att(633,210).
att(1100,1438).
att(875,702).
att(1104,1453).
att(610,26).
att(879,701).
att(23,1115).
att(1101,1450).
att(296,1623).
att(291,1608).
att(650,58).
att(1102,1440).
att(1102,1442).
att(142,1986).
att(10,1108).
att(876,800).
att(91,2043).
att(889,682).
att(877,800).
att(1100,1475).
att(1103,1522).
att(85,1858).
att(1019,500).
att(127,1788).
att(274,1601).
att(1026,515).
att(610,80).
att(1096,1512).
att(893,692).
att(853,608).
att(1685,1765).
att(304,1605).
att(175,1768).
att(85,1884).
att(883,800).
att(85,1882).
att(877,727).
att(1104,1520).
att(879,804).
att(136,1770).
att(296,1723).
att(860,608).
att(879,719).
att(1682,1759).
att(644,79).
att(1682,1761).
att(1684,1767).
att(889,712).
att(100,2040).
att(852,671).
att(165,1971).
att(640,124).
att(614,4).
att(627,20).
att(640,113).
att(648,216).
att(1079,1512).
att(853,666).
att(1083,1522).
att(85,1808).
att(110,2037).
att(295,1858).
att(893,698).
att(268,1644).
att(295,1860).
att(1087,1407).
att(104,2037).
att(163,2010).
att(169,1975).
att(35,1115).
att(1085,1475).
att(1080,1522).
att(270,1583).
att(171,1976).
att(857,672).
att(146,1774).
att(165,1997).
att(272,1583).
att(33,1143).
att(640,151).
att(1075,1331).
att(33,1169).
att(264,1530).
att(29,1077).
att(104,1864).
att(105,1852).
att(93,1792).
att(304,1570).
att(145,1786).
att(304,1586).
att(10,1077).
att(612,13).
att(889,736).
att(858,738).
att(1079,1333).
att(622,56).
att(734,19).
att(268,1683).
att(174,2089).
att(676,597).
att(1075,1355).
att(274,1705).
att(893,732).
att(169,2092).
att(676,592).
att(93,1808).
att(624,55).
att(626,59).
att(278,1455).
att(304,1678).
att(612,15).
att(265,1611).
att(33,1175).
att(266,1633).
att(159,1977).
att(307,1683).
att(174,2033).
att(174,2032).
att(161,2052).
att(860,703).
att(1099,1450).
att(85,2025).
att(268,1624).
att(627,54).
att(163,1979).
att(1080,1335).
att(855,706).
att(618,30).
att(644,208).
att(646,188).
att(636,107).
att(620,19).
att(277,1588).
att(858,805).
att(858,798).
att(908,470).
att(161,2057).
att(157,2090).
att(161,2073).
att(676,625).
att(174,2155).
att(141,1929).
att(677,629).
att(676,608).
att(1101,1381).
att(887,796).
att(612,51).
att(265,1651).
att(138,2046).
att(612,47).
att(861,623).
att(1134,1456).
att(1121,1518).
att(277,1504).
att(1121,1514).
att(1670,1763).
att(277,1535).
att(1130,1525).
att(676,641).
att(163,2076).
att(855,744).
att(855,741).
att(612,60).
att(973,559).
att(864,637).
att(907,438).
att(861,649).
att(265,1705).
att(1663,1764).
att(1663,1763).
att(943,500).
att(1121,1546).
att(1130,1516).
att(134,1853).
att(245,1569).
att(166,1781).
att(136,1856).
att(136,1853).
att(245,1581).
att(676,656).
att(171,2098).
att(618,69).
att(163,2155).
att(158,2131).
att(137,2008).
att(908,496).
att(158,2155).
att(165,2101).
att(675,691).
att(167,2096).
att(1128,1340).
att(164,1973).
att(167,2131).
att(1123,1336).
att(166,1967).
att(264,1720).
att(853,800).
att(277,1581).
att(1124,1546).
att(935,458).
att(242,1589).
att(907,492).
att(176,1857).
att(278,1603).
att(171,2154).
att(177,1856).
att(176,1896).
att(165,2154).
att(734,121).
att(1103,1540).
att(1001,409).
att(1104,1516).
att(242,1616).
att(1104,1550).
att(1100,1543).
att(127,1802).
att(275,1683).
att(677,707).
att(941,529).
att(1097,1540).
att(674,712).
att(941,532).
att(125,1979).
att(1003,379).
att(138,1781).
att(935,510).
att(125,1978).
att(131,2055).
att(142,1888).
att(1002,384).
att(906,534).
att(161,2187).
att(618,121).
att(135,2052).
att(141,2051).
att(275,1608).
att(943,512).
att(1008,385).
att(135,1975).
att(165,2173).
att(146,1892).
att(675,670).
att(140,1804).
att(165,2187).
att(131,2089).
att(133,2092).
att(673,741).
att(1100,1354).
att(140,1999).
att(126,2030).
att(688,611).
att(1008,456).
att(1024,430).
att(677,733).
att(141,2071).
att(221,1562).
att(1096,1357).
att(222,1458).
att(131,2093).
att(138,1992).
att(126,2031).
att(947,559).
att(139,2058).
att(1134,1277).
att(1002,426).
att(244,1704).
att(126,2049).
att(241,1625).
att(674,742).
att(242,1627).
att(836,1766).
att(612,206).
att(1028,380).
att(138,2026).
att(861,737).
att(909,553).
att(1028,385).
att(865,731).
att(173,2040).
att(173,1866).
att(681,36).
att(963,701).
att(223,1017).
att(242,1113).
att(194,1794).
att(1145,1520).
att(192,1773).
att(955,669).
att(1155,1491).
att(243,1144).
att(137,1646).
att(192,1771).
att(674,148).
att(137,1645).
att(243,1169).
att(679,42).
att(1134,1414).
att(222,938).
att(1142,1514).
att(679,39).
att(679,38).
att(1149,1508).
att(133,1569).
att(681,5).
att(193,1809).
att(278,1112).
att(195,1769).
att(734,2005).
att(864,121).
att(963,704).
att(135,1587).
att(191,1786).
att(276,1146).
att(199,2041).
att(125,1605).
att(862,153).
att(192,1794).
att(675,67).
att(862,149).
att(190,1809).
att(247,938).
att(168,1884).
att(1152,1330).
att(654,62).
att(969,639).
att(1153,1542).
att(654,61).
att(913,596).
att(135,1656).
att(221,1051).
att(221,1000).
att(1155,1551).
att(240,1171).
att(1157,1540).
att(673,189).
att(247,1064).
att(220,999).
att(686,44).
att(252,1064).
att(967,593).
att(223,994).
att(963,739).
att(681,13).
att(963,735).
att(969,593).
att(1152,1357).
att(957,694).
att(98,1462).
att(221,981).
att(224,995).
att(965,739).
att(1153,1360).
att(1155,1330).
att(191,1968).
att(196,1805).
att(199,1892).
att(246,1000).
att(137,1626).
att(193,1962).
att(197,1970).
att(679,17).
att(193,1963).
att(198,1803).
att(223,980).
att(686,55).
att(653,47).
att(96,1606).
att(913,628).
att(128,1718).
att(160,1965).
att(168,1968).
att(221,1095).
att(953,798).
att(1126,1543).
att(170,1810).
att(220,1048).
att(223,1095).
att(1128,1335).
att(1136,1546).
att(252,1107).
att(1142,1456).
att(166,1990).
att(969,625).
att(683,82).
att(160,1986).
att(920,621).
att(920,613).
att(90,1553).
att(170,1966).
att(170,1964).
att(86,1464).
att(920,608).
att(88,1466).
att(84,1466).
att(139,1717).
att(1128,1356).
att(1157,1244).
att(688,81).
att(1136,1336).
att(231,1029).
att(166,2019).
att(654,151).
att(224,1170).
att(1123,1409).
att(1126,1373).
att(922,713).
att(227,1017).
att(660,34).
att(1152,1453).
att(222,1073).
att(653,70).
att(1163,1269).
att(1136,1353).
att(688,122).
att(668,32).
att(663,7).
att(683,156).
att(1124,1407).
att(170,2016).
att(90,1603).
att(194,1778).
att(913,682).
att(1126,1400).
att(955,803).
att(1128,1406).
att(912,619).
att(679,64).
att(173,2018).
att(1163,1448).
att(1142,1524).
att(84,1528).
att(679,65).
att(200,2026).
att(665,59).
att(655,216).
att(298,1452).
att(98,1705).
att(922,740).
att(922,739).
att(221,1180).
att(22,1029).
att(661,18).
att(222,1114).
att(197,1856).
att(631,42).
att(1079,1794).
att(929,592).
att(101,1462).
att(969,743).
att(663,59).
att(1080,1794).
att(103,1458).
att(681,206).
att(659,19).
att(194,1885).
att(913,709).
att(227,981).
att(654,115).
att(1083,1805).
att(221,1115).
att(86,1643).
att(684,115).
att(88,1586).
att(222,1144).
att(967,702).
att(23,938).
att(1076,1967).
att(220,1143).
att(230,996).
att(24,1048).
att(24,1050).
att(1082,1963).
att(1079,1962).
att(300,1533).
att(292,1552).
att(634,52).
att(922,807).
att(94,1723).
att(916,803).
att(660,43).
att(22,1064).
att(916,723).
att(23,1067).
att(225,1045).
att(230,1111).
att(929,615).
att(875,592).
att(84,1705).
att(101,1526).
att(24,1068).
att(926,643).
att(227,1045).
att(883,647).
att(1075,2017).
att(916,744).
att(634,15).
att(1079,1999).
att(94,1676).
att(230,1031).
att(631,20).
att(101,1564).
att(912,703).
att(101,1556).
att(23,998).
att(226,1051).
att(1081,1988).
att(1086,1965).
att(294,1584).
att(294,1607).
att(1145,1389).
att(23,1107).
att(291,1604).
att(1149,1409).
att(24,1110).
att(300,1588).
att(86,1718).
att(228,1071).
att(660,72).
att(660,66).
att(633,76).
att(300,1602).
att(661,70).
att(294,1604).
att(877,608).
att(22,1045).
att(290,1558).
att(663,70).
att(918,805).
att(296,1528).
att(929,682).
att(1157,1387).
att(24,1092).
att(659,82).
att(24,1138).
att(644,12).
att(25,1122).
att(195,2021).
att(228,1176).
att(1081,1775).
att(646,15).
att(877,710).
att(300,1627).
att(225,1138).
att(1087,2025).
att(1076,1774).
att(1157,1404).
att(292,1628).
att(25,1148).
att(665,115).
att(31,1025).
att(228,1112).
att(638,2).
att(33,1027).
att(668,188).
att(1080,1773).
att(648,26).
att(226,1143).
att(193,1854).
att(924,705).
att(194,1852).
att(1690,1457).
att(1661,1377).
att(1748,1085).
att(1590,762).
att(1669,1352).
att(1669,1353).
att(1754,1080).
att(1698,1450).
att(1693,1446).
att(1700,1357).
att(1701,1352).
att(1715,1271).
att(1669,1381).
att(1757,1076).
att(1597,782).
att(1686,1525).
att(1688,1491).
att(1669,1414).
att(1596,784).
att(1592,809).
att(1757,1097).
att(1692,1506).
att(1694,1489).
att(1700,1412).
att(1592,829).
att(1610,859).
att(1690,1518).
att(1699,1402).
att(1699,1487).
att(1578,783).
att(1573,836).
att(1748,132).
att(1739,1152).
att(1575,783).
att(1667,1489).
att(1748,93).
att(1743,1142).
att(1700,1492).
att(1749,95).
att(1576,815).
att(1756,299).
att(1577,808).
att(1669,1527).
att(1596,896).
att(1573,1668).
att(1751,164).
att(1666,1512).
att(1594,859).
att(1597,897).
att(1752,138).
att(1667,1527).
att(1591,896).
att(1599,854).
att(1701,1547).
att(1578,832).
att(1666,1545).
att(1599,897).
att(1597,923).
att(1575,837).
att(1590,923).
att(1756,138).
att(1577,1654).
att(1669,1338).
att(1664,1352).
att(1597,919).
att(1692,1244).
att(1757,200).
att(1577,1680).
att(1592,952).
att(1686,1407).
att(1711,1457).
att(1619,960).
att(1706,1436).
att(1698,1379).
att(1620,758).
att(1610,817).
att(1698,1375).
att(1692,1406).
att(1715,1399).
att(1706,1525).
att(1713,1494).
att(1709,1547).
att(1707,1516).
att(1613,837).
att(1614,815).
att(1735,1438).
att(1636,923).
att(1707,1340).
att(1637,933).
att(1735,1481).
att(1635,897).
att(1757,1153).
att(1597,838).
att(1598,809).
att(1599,808).
att(1698,1338).
att(1594,1662).
att(1594,1668).
att(1594,1670).
att(1595,837).
att(1694,1550).
att(1688,1546).
att(1598,835).
att(1599,837).
att(1686,1354).
att(1710,1269).
att(1710,1267).
att(1686,1357).
att(1694,1334).
att(1688,1334).
att(1619,933).
att(1617,760).
att(1694,1351).
att(1688,1374).
att(1610,747).
att(1599,1679).
att(1698,1351).
att(1709,1448).
att(1639,754).
att(1629,839).
att(1631,813).
att(1636,809).
att(1729,1547).
att(1728,1524).
att(1733,1485).
att(1722,1336).
att(1732,1524).
att(1742,854).
att(1742,892).
att(1051,1963).
att(1729,1545).
att(1731,1545).
att(1573,1244).
att(1724,1337).
att(1640,1663).
att(1710,1335).
att(1637,921).
att(1635,884).
att(1631,915).
att(1709,1331).
att(1621,1695).
att(1618,1680).
att(1636,766).
att(1641,915).
att(1637,766).
att(1706,1353).
att(1722,1265).
att(1722,1276).
att(1729,1444).
att(1734,1271).
att(1711,1357).
att(1634,758).
att(1735,1360).
att(1622,1697).
att(1729,1448).
att(1710,1412).
att(1734,1446).
att(1706,1407).
att(1629,817).
att(1631,817).
att(1744,832).
att(1740,1658).
att(1664,1810).
att(1574,1527).
att(1742,839).
att(1669,1788).
att(1746,814).
att(1747,811).
att(1573,1333).
att(1574,1543).
att(1752,882).
att(1751,970).
att(1748,928).
att(1752,895).
att(1746,832).
att(1747,829).
att(1754,966).
att(1664,1995).
att(1751,964).
att(1574,1335).
att(1661,1962).
att(1752,923).
att(1746,1662).
att(1753,927).
att(1664,1986).
att(1750,752).
att(1573,1374).
att(1747,1687).
att(1742,1697).
att(1753,921).
att(1746,971).
att(1730,1353).
att(1576,1273).
att(1745,917).
att(1571,1246).
att(1733,1331).
att(1730,1355).
att(1580,1276).
att(1573,1487).
att(1724,1399).
att(1738,749).
att(1730,1402).
att(1743,783).
att(1573,1520).
att(1574,1492).
att(1579,1446).
att(1578,1442).
att(1577,1525).
att(1741,808).
att(1579,1491).
att(1580,1440).
att(1598,309).
att(1597,289).
att(1573,1157).
att(1669,781).
att(1753,1948).
att(1700,789).
att(1597,85).
att(1574,1147).
att(1574,1157).
att(1659,837).
att(1686,886).
att(1753,443).
att(1754,464).
att(1750,485).
att(1593,172).
att(1667,830).
att(1692,923).
att(1693,888).
att(1753,482).
att(1700,815).
att(1690,878).
att(1756,465).
att(1666,1658).
att(1748,329).
att(1669,1662).
att(1596,172).
att(1750,1887).
att(1754,1894).
att(1573,196).
att(1667,884).
att(1743,507).
att(1701,856).
att(1741,329).
att(1738,339).
att(1661,971).
att(1661,968).
att(1580,1087).
att(1755,1912).
att(1659,752).
att(1593,309).
att(1661,749).
att(1751,448).
att(1746,324).
att(1579,1087).
att(1701,971).
att(1577,1101).
att(1666,752).
att(1752,1944).
att(1574,1104).
att(1667,756).
att(1661,789).
att(1572,1104).
att(1749,1949).
att(1701,962).
att(1756,1917).
att(1750,436).
att(1613,129).
att(1618,145).
att(1715,808).
att(1715,783).
att(1696,816).
att(1706,888).
att(1599,1126).
att(1621,134).
att(1618,138).
att(1619,132).
att(1711,897).
att(1690,1652).
att(1696,837).
att(1620,138).
att(1716,814).
att(1716,839).
att(1709,966).
att(1712,878).
att(1621,166).
att(1698,1670).
att(1693,1689).
att(1693,1695).
att(1613,1083).
att(1713,921).
att(1716,1658).
att(1693,1684).
att(1694,921).
att(1671,1682).
att(1756,501).
att(1715,928).
att(1671,1691).
att(1596,195).
att(1698,911).
att(1693,962).
att(1590,1101).
att(1594,1084).
att(1617,303).
att(1701,1679).
att(1596,1075).
att(1597,1076).
att(1686,785).
att(1686,818).
att(1696,758).
att(1610,102).
att(1595,1123).
att(1688,811).
att(1595,1105).
att(1619,309).
att(1593,1142).
att(1641,127).
att(1639,132).
att(1727,896).
att(1710,1695).
att(1712,1658).
att(1731,933).
att(1727,933).
att(1706,1687).
att(1709,1679).
att(1640,172).
att(1730,766).
att(1638,192).
att(1634,1081).
att(1735,1663).
att(1724,952).
att(1639,200).
att(1733,921).
att(1743,267).
att(1629,1101).
att(1735,1685).
att(1722,789).
att(1733,964).
att(1729,747).
att(1733,762).
att(1618,1079).
att(1619,1082).
att(1735,911).
att(1708,960).
att(1706,788).
att(1735,968).
att(1636,105).
att(1634,299).
att(1706,780).
att(1619,1084).
att(1640,102).
att(1637,97).
att(1638,308).
att(1735,756).
att(1610,1155).
att(1709,809).
att(1615,1155).
att(1712,815).
att(1638,145).
att(1638,142).
att(1639,87).
att(1735,784).
att(1714,808).
att(1631,176).
att(1577,921).
att(1740,1085).
att(1739,190).
att(1572,970).
att(1734,1663).
att(1746,168).
att(1747,166).
att(1576,763).
att(1744,1081).
att(1744,1080).
att(1741,1076).
att(1750,308).
att(1742,1075).
att(1741,1083).
att(1661,1244).
att(1739,1081).
att(1573,781).
att(1577,754).
att(1574,752).
att(1573,783).
att(1740,1126).
att(1575,749).
att(1572,752).
att(1667,1267).
att(1742,1083).
att(1700,1269).
att(1579,762).
att(1573,813).
att(1659,1475).
att(1699,1457).
att(1751,100).
att(1575,760).
att(1659,1494).
att(1748,295).
att(1669,1442).
att(1669,1487).
att(1756,305).
att(1634,1124).
att(1724,781).
att(1631,1117).
att(1640,1096).
att(1738,102).
att(1739,293).
att(1729,783).
att(1747,289).
att(1634,1152).
att(1637,1163).
att(1734,778).
att(1734,813).
att(1638,1149).
att(1743,134).
att(1730,838).
att(1741,134).
att(1738,136).
att(1572,886).
att(1730,834).
att(1573,915).
att(1732,834).
att(1574,880).
att(1732,835).
att(1578,895).
att(1576,882).
att(1730,1657).
att(1576,884).
att(1734,832).
att(1743,172).
att(1757,1414).
att(1621,1777).
att(1599,2016).
att(1615,1782).
att(1594,1862).
att(1621,1798).
att(1598,2040).
att(1620,1811).
att(1595,1858).
att(1598,1852).
att(1619,1769).
att(1622,1790).
att(2172,1763).
att(1613,1966).
att(1620,1969).
att(1622,1810).
att(1597,1804).
att(1755,1330).
att(1578,1892).
att(1594,1802).
att(1752,1331).
att(1593,1993).
att(1579,1892).
att(1753,1340).
att(1599,1968).
att(1591,1994).
att(1757,1352).
att(1599,1992).
att(1593,2017).
att(1594,1990).
att(1751,1404).
att(1594,2023).
att(1595,1963).
att(1750,1400).
att(1752,1407).
att(1596,2018).
att(1618,1857).
att(1614,1856).
att(2157,1760).
att(1613,1888).
att(1622,1862).
att(1629,1973).
att(2159,1764).
att(1634,1802).
att(1634,1968).
att(1637,1986).
att(1614,1995).
att(1617,2018).
att(1613,2016).
att(1610,2022).
att(2164,1760).
att(1614,2038).
att(1634,1773).
att(1634,1774).
att(1635,1773).
att(1620,2036).
att(1622,2019).
att(1641,1892).
att(1741,1804).
att(1741,1805).
att(1745,1794).
att(1746,1780).
att(1745,1969).
att(1386,1419).
att(1740,1773).
att(1640,1990).
att(1629,2040).
att(1641,1866).
att(1638,2040).
att(1738,1790).
att(1636,1852).
att(1631,1860).
att(1743,1811).
att(1740,1969).
att(1738,1810).
att(1746,1788).
att(1376,2063).
att(1755,1999).
att(1386,2206).
att(1756,1992).
att(1750,2045).
att(1378,2085).
att(1756,2024).
att(1417,2068).
att(1418,2083).
att(1419,2060).
att(1749,2022).
att(1750,2038).
att(1376,2144).
att(1757,2045).
att(1378,2129).
att(1754,2037).
att(1747,2021).
att(1745,2018).
att(1738,1857).
att(1418,1419).
att(1748,1776).
att(1416,1410).
att(1756,1775).
att(1378,2162).
att(1738,1860).
att(1742,2040).
att(1382,2176).
att(1382,2181).
att(1748,1781).
att(1756,1788).
att(1749,1974).
att(1757,1807).
att(1417,2182).
att(1751,1968).
att(1748,1804).
att(1751,1973).
att(1419,2177).
att(1753,1806).
att(1757,832).
att(1690,1973).
att(1750,1695).
att(1693,1807).
att(2103,1762).
att(1661,1890).
att(1748,1668).
att(1748,1665).
att(1749,1654).
att(1750,1684).
att(1750,1680).
att(1757,1670).
att(2099,1762).
att(1688,1969).
att(1596,1332).
att(1754,1680).
att(1610,1246).
att(1598,1340).
att(1692,1990).
att(1614,1246).
att(1715,1970).
att(1614,1271).
att(1598,1335).
att(1620,1450).
att(1615,1487).
att(1686,2020).
att(1591,1401).
att(1688,2023).
att(1610,1491).
att(1596,1444).
att(1701,1993).
att(1699,1999).
att(1590,1448).
att(1752,766).
att(1667,1993).
att(1669,1986).
att(1753,762).
att(1576,1387).
att(1671,1987).
att(1701,1995).
att(1574,1401).
att(1699,1991).
att(1664,1867).
att(1686,1774).
att(1580,1373).
att(1756,749).
att(1591,1489).
att(1597,1475).
att(1599,1487).
att(1659,1852).
att(1699,2045).
att(1578,1414).
att(2088,1763).
att(1667,2043).
att(1752,815).
att(1595,1440).
att(1753,779).
att(1701,2018).
att(1596,1475).
att(1598,1494).
att(1667,1856).
att(1661,1884).
att(1686,1798).
att(1669,1864).
att(2083,1766).
att(1757,808).
att(2077,1758).
att(1617,1353).
att(1637,1267).
att(1707,1994).
att(1619,1331).
att(1637,1277).
att(1614,1330).
att(1712,1806).
att(1610,1355).
att(1712,1809).
att(1610,1357).
att(1710,2026).
att(1711,1993).
att(1707,2023).
att(1735,1803).
att(1618,1375).
att(1708,2025).
att(1620,1377).
att(1631,1487).
att(1636,1520).
att(1730,1772).
att(1711,2046).
att(1639,1258).
att(1709,2042).
att(1714,2016).
att(1709,1866).
att(1620,1492).
att(1594,1399).
att(1598,1379).
att(1610,1483).
att(1599,1377).
att(1613,1524).
att(1598,1409).
att(1610,1551).
att(1688,1862).
att(2063,1761).
att(2063,1763).
att(1735,1778).
att(1710,1802).
att(1716,1853).
att(1713,1780).
att(1696,1888).
att(1698,1885).
att(1709,1969).
att(1743,1263).
att(1286,379).
att(1739,1457).
att(1743,1446).
att(1285,381).
att(1732,1967).
att(1742,1246).
att(1640,1355).
att(1636,1385).
att(1743,1492).
att(1745,1258).
att(1742,1260).
att(1742,1457).
att(1638,1400).
att(1286,435).
att(1730,2041).
att(1577,1777).
att(1740,1512).
att(1744,1520).
att(1741,1485).
att(1740,1551).
att(1722,2041).
att(1641,1401).
att(1287,407).
att(1734,2041).
att(1576,1786).
att(1722,1879).
att(1745,1483).
att(1571,1796).
att(1287,379).
att(1746,1483).
att(1730,1770).
att(1282,458).
att(1282,449).
att(1709,1864).
att(1640,1524).
att(1729,1788).
att(1283,438).
att(1281,432).
att(1634,1550).
att(1639,1479).
att(1629,1544).
att(1728,1786).
att(1638,1546).
att(1279,478).
att(1638,1543).
att(1638,1339).
att(1731,1810).
att(1722,1966).
att(1722,1974).
att(1729,1804).
att(1730,1994).
att(1283,470).
att(1285,493).
att(1740,1448).
att(1747,1375).
att(1743,1409).
att(1593,1773).
att(1571,2042).
att(1575,2017).
att(1571,2045).
att(1742,1375).
att(1579,1986).
att(1746,1379).
att(1746,1380).
att(1596,1774).
att(1754,1481).
att(2146,1767).
att(1754,1522).
att(1597,1777).
att(1572,2040).
att(1749,1525).
att(1756,1527).
att(1757,1485).
att(1578,2037).
att(1599,1778).
att(1757,1525).
att(1574,1854).
att(2129,1767).
att(1752,1525).
att(1748,1512).
att(1572,1864).
att(1576,1856).
att(1598,1771).
att(1592,1969).
att(1750,1336).
att(1595,1769).
att(1753,1516).
att(1753,1548).
att(1580,1790).
att(1578,1769).
att(1573,1973).
att(1571,1808).
att(1575,1796).
att(1729,1882).
att(1732,1878).
att(1740,1354).
att(1750,1273).
att(1738,1334).
att(1742,1546).
att(1580,1782).
att(1747,1330).
att(1743,1356).
att(1577,1992).
att(1741,1356).
att(1751,1450).
att(1738,1389).
att(1572,1964).
att(1746,1337).
att(1573,2021).
att(1747,1389).
att(1574,1990).
att(1741,1375).
att(1750,1494).
att(2112,1760).
att(1755,1446).
att(1752,1263).
att(1752,1267).
att(1746,1359).
att(1749,1448).
att(1580,1965).
att(1296,411).
att(1724,1757).
att(1733,1742).
att(1306,418).
att(1311,542).
att(1205,2016).
att(1573,1575).
att(1664,2165).
att(1732,1752).
att(1328,550).
att(1667,1382).
att(1201,2044).
att(1313,512).
att(1734,1749).
att(1206,2017).
att(1669,1417).
att(1202,1858).
att(1216,1771).
att(1571,1592).
att(1659,2158).
att(1573,1599).
att(1294,455).
att(1208,2044).
att(1302,475).
att(1203,2040).
att(1699,1376).
att(1573,1618).
att(1218,1773).
att(1307,437).
att(1217,1772).
att(1296,500).
att(1200,2043).
att(1192,1856).
att(1729,1595).
att(1199,2043).
att(1199,1866).
att(1200,1852).
att(1727,1620).
att(1298,473).
att(1208,1786).
att(1208,1794).
att(1367,389).
att(1724,1755).
att(1201,2026).
att(1729,1740).
att(1204,1966).
att(1370,381).
att(1321,382).
att(1284,532).
att(1659,2102).
att(1280,514).
att(1317,389).
att(1284,529).
att(1214,2036).
att(1688,1384).
att(1218,2024).
att(1317,387).
att(1698,1376).
att(1666,2082).
att(1326,381).
att(1661,2141).
att(1325,391).
att(1218,2045).
att(1701,2082).
att(1282,518).
att(1690,2158).
att(1699,2086).
att(1664,2146).
att(1211,1878).
att(1667,2144).
att(1328,449).
att(1694,2160).
att(1671,2132).
att(1214,1860).
att(1313,409).
att(1696,2157).
att(1690,2175).
att(1219,2037).
att(1328,437).
att(1596,1599).
att(1692,2191).
att(1326,438).
att(1693,2175).
att(1328,435).
att(1280,537).
att(1598,1615).
att(1278,534).
att(1701,2141).
att(1597,1610).
att(1323,380).
att(1597,1621).
att(1578,1597).
att(1216,1809).
att(1211,1803).
att(1575,1614).
att(1218,1790).
att(1207,1862).
att(1218,1786).
att(1214,1810).
att(1311,453).
att(1213,1803).
att(1671,2192).
att(1213,1802).
att(1220,2025).
att(1306,379).
att(1220,2023).
att(1666,2208).
att(1304,389).
att(1661,2065).
att(1700,2197).
att(1218,1974).
att(1690,1417).
att(1579,1744).
att(1325,515).
att(1213,1986).
att(1319,491).
att(1664,2082).
att(1349,493).
att(1344,480).
att(1735,1382).
att(1347,455).
att(1617,1618).
att(1707,2178).
att(1345,453).
att(1707,2179).
att(1712,2164).
att(1341,431).
att(1698,2127).
att(1735,1410).
att(1709,2176).
att(1613,1636).
att(1426,385).
att(1427,379).
att(1342,493).
att(1713,2180).
att(1620,1622).
att(1350,522).
att(1621,1639).
att(1618,1637).
att(1711,2190).
att(1348,518).
att(1348,515).
att(1610,1744).
att(1343,542).
att(1590,1741).
att(1694,2189).
att(1694,2192).
att(1345,554).
att(1591,1743).
att(1688,2203).
att(1688,2197).
att(1342,531).
att(1429,403).
att(1592,1739).
att(1428,407).
att(1341,532).
att(1427,418).
att(1686,2064).
att(1426,403).
att(1595,1742).
att(1715,2200).
att(1342,510).
att(1591,1745).
att(1696,2200).
att(1690,2060).
att(1347,516).
att(1428,387).
att(1686,2080).
att(1428,474).
att(1421,433).
att(1425,431).
att(1420,426).
att(1429,455).
att(1423,434).
att(1686,2102).
att(1422,437).
att(1711,1418).
att(1715,2077).
att(1712,1388).
att(1343,548).
att(1734,2161).
att(1731,2160).
att(1731,2183).
att(1363,438).
att(1724,2175).
att(1731,2181).
att(1631,1740).
att(1629,1747).
att(1735,2141).
att(1368,411).
att(1371,431).
att(1370,511).
att(1634,1738).
att(1367,498).
att(1367,490).
att(1734,2190).
att(1734,2191).
att(1638,1744).
att(1727,2060).
att(1635,1755).
att(1369,456).
att(1365,437).
att(1365,518).
att(1619,1742).
att(1706,2067).
att(1709,2060).
att(1621,1740).
att(1362,514).
att(1710,2060).
att(1707,2077).
att(1370,534).
att(1730,1416).
att(1371,520).
att(1620,1756).
att(1712,2080).
att(1342,409).
att(1731,1416).
att(1364,559).
att(1343,398).
att(1363,550).
att(1341,399).
att(1344,432).
att(1350,437).
att(1349,434).
att(1369,559).
att(1362,556).
att(1734,1386).
att(1367,554).
att(1363,537).
att(1709,2135).
att(1350,399).
att(1711,2108).
att(1362,533).
att(1209,1438).
att(1397,534).
att(1006,1864).
att(1500,378).
att(1035,1790).
att(1209,1495).
att(1007,2040).
att(1038,1775).
att(1372,532).
att(1205,1508).
att(1036,1810).
att(1012,1853).
att(1398,495).
att(1035,1968).
att(1042,1798).
att(1208,1548).
att(1015,1860).
att(1041,1792).
att(1473,428).
att(1014,1854).
att(1393,536).
att(1666,1667).
att(1661,1692).
att(1473,405).
att(1503,382).
att(1661,1667).
att(1207,1545).
att(1015,1882).
att(1037,1802).
att(1044,1780).
att(1394,516).
att(1037,1974).
att(1398,539).
att(1503,379).
att(990,1879).
att(1501,472).
att(1007,1801).
att(1192,1334).
att(1473,470).
att(1206,1244).
att(1197,1351).
att(1200,1337).
att(1202,1453).
att(1500,456).
att(1473,452).
att(1192,1358).
att(1200,1352).
att(1191,1402).
att(1497,496).
att(1013,1990).
att(1501,510).
att(1191,1409).
att(1205,1273).
att(1197,1389).
att(1503,500).
att(1208,1265).
att(1208,1267).
att(1010,2017).
att(1016,1988).
att(1209,1456).
att(1197,1402).
att(1197,1404).
att(1201,1479).
att(1009,2042).
att(1013,2045).
att(1009,2046).
att(1427,520).
att(1043,1867).
att(1424,500).
att(1661,1617).
att(1218,1522).
att(1421,473).
att(1426,513).
att(1220,1540).
att(1217,1527).
att(1060,1806).
att(1423,478).
att(1056,1968).
att(1700,1617).
att(1426,490).
att(1058,1808).
att(1701,1590).
att(1671,1610).
att(1422,475).
att(1701,1597).
att(1213,1339).
att(1213,1338).
att(1420,449).
att(1393,378).
att(1216,1335).
att(1212,1358).
att(1212,1356).
att(1659,1745).
att(1700,1629).
att(1218,1333).
att(1391,382).
att(1395,414).
att(1398,387).
att(1700,1618).
att(1398,389).
att(1057,1801).
att(1053,1994).
att(1420,513).
att(1056,1989).
att(1212,1377).
att(1212,1381).
att(1686,1713).
att(1686,1711).
att(1422,518).
att(1213,1358).
att(1666,1693).
att(1201,1385).
att(1038,1992).
att(1041,1967).
att(1213,1246).
att(1220,1263).
att(1397,437).
att(1664,1727).
att(1043,1994).
att(1220,1487).
att(1671,1735).
att(1666,1708).
att(1202,1409).
att(1212,1436).
att(1216,1444).
att(1700,1709).
att(1421,533).
att(1372,431).
att(1211,1453).
att(1429,556).
att(1217,1265).
att(1701,1696).
att(1056,1771).
att(1661,1573).
att(1391,478).
att(1211,1481).
att(1041,1991).
att(1669,1722).
att(1701,1712).
att(1393,453).
att(1036,1896).
att(1397,474).
att(1393,455).
att(1056,1798).
att(1059,1771).
att(1207,1402).
att(1390,438).
att(1664,1590).
att(1043,2021).
att(1397,460).
att(1059,1880).
att(1184,1804).
att(1537,453).
att(1563,435).
att(1537,458).
att(1184,1967).
att(1062,1886).
att(1557,409).
att(1696,1621).
att(1716,1594).
att(1060,1880).
att(1185,1808).
att(1555,384).
att(1565,385).
att(1694,1744).
att(1688,1748).
att(1189,1962).
att(1182,1990).
att(1186,1994).
att(1698,1743).
att(1538,473).
att(1693,1739).
att(1182,2017).
att(1182,2020).
att(1539,451).
att(1060,2023).
att(1056,2020).
att(1686,1730).
att(1062,2025).
att(1536,542).
att(1217,1352).
att(1696,1709).
att(1536,531).
att(1696,1708).
att(1539,520).
att(1057,2023).
att(1538,514).
att(1212,1399).
att(1666,1754).
att(1183,1772).
att(1567,478).
att(1185,1779).
att(1688,1591).
att(1060,2037).
att(1382,1762).
att(1388,1763).
att(1188,1792).
att(1567,529).
att(1378,1762).
att(1688,1619).
att(1696,1615).
att(1186,1790).
att(1690,1610).
att(1061,1867).
att(1060,1853).
att(1181,1781).
att(1565,522).
att(1463,379).
att(1711,1638).
att(1461,389).
att(1432,418).
att(1735,1631).
att(1191,1989).
att(1471,384).
att(1465,398).
att(1709,1748).
att(1430,391).
att(1196,1995).
att(1195,2045).
att(1191,2039).
att(1202,1773).
att(1191,2036).
att(1194,2020).
att(1191,2040).
att(1459,432).
att(1196,1991).
att(1469,428).
att(1191,1860).
att(1728,1733).
att(1196,2018).
att(1430,438).
att(1714,1731).
att(1430,522).
att(1708,1731).
att(1706,1575).
att(1465,492).
att(1188,2020).
att(1184,1864).
att(1712,1575).
att(1190,1867).
att(1708,1579).
att(1186,1866).
att(1713,1575).
att(1188,2036).
att(1710,1590).
att(1710,1596).
att(1537,403).
att(1190,1896).
att(1197,1790).
att(1714,1592).
att(1714,1593).
att(1714,1597).
att(1714,1598).
att(1710,1638).
att(1469,513).
att(1430,542).
att(1190,1890).
att(1191,1966).
att(1191,1963).
att(1189,1885).
att(1197,1801).
att(1185,1885).
att(1459,492).
att(1188,1885).
att(1188,1892).
att(1471,496).
att(1580,465).
att(1747,2110).
att(1578,467).
att(1593,1898).
att(1666,175).
att(1259,512).
att(1272,379).
att(1753,1405).
att(1266,378).
att(1669,175).
att(1257,522).
att(1592,1921).
att(1597,1865).
att(1754,2198).
att(1755,2178).
att(1592,1919).
att(1755,2179).
att(1667,170).
att(1742,2144).
att(1742,2146).
att(1579,481).
att(1590,1898).
att(1445,554).
att(1749,2178).
att(1671,162).
att(1757,2158).
att(1754,2181).
att(1599,1898).
att(1571,363).
att(1574,339).
att(1571,365).
att(1248,418).
att(1575,331).
att(1572,329).
att(1598,1855).
att(1596,1881).
att(1591,1920).
att(1598,1894).
att(1243,398).
att(1599,1865).
att(1757,2190).
att(1690,303).
att(1755,2204).
att(1664,1104).
att(1750,2069).
att(1751,2061).
att(1661,1083).
att(1700,198).
att(1750,2066).
att(1664,271).
att(1272,474).
att(1574,1951).
att(1728,365).
att(1742,2199).
att(1572,1916).
att(1243,454).
att(1247,456).
att(1578,1912).
att(1747,2208).
att(1745,2200).
att(1245,471).
att(1572,1942).
att(1579,1951).
att(1243,470).
att(1272,511).
att(1740,2105).
att(1577,444).
att(1740,2116).
att(1266,510).
att(1245,495).
att(1575,441).
att(1667,301).
att(1248,514).
att(1743,2087).
att(1750,2156).
att(1270,532).
att(1573,483).
att(1578,440).
att(1745,2081).
att(1659,132).
att(1275,549).
att(1748,1413).
att(1579,436).
att(1579,439).
att(1661,146).
att(1255,401).
att(1700,105).
att(1580,440).
att(1234,385).
att(1245,529).
att(1694,164).
att(1252,409).
att(1613,1861).
att(1248,553).
att(1249,552).
att(1620,1920).
att(1248,559).
att(1686,1079).
att(1253,430).
att(1590,359).
att(1595,329).
att(1613,1918).
att(1618,1902).
att(1596,320).
att(1620,1881).
att(1698,193).
att(1698,1083).
att(1618,1913).
att(1253,452).
att(1710,308).
att(1599,325).
att(1690,1097).
att(1622,1920).
att(1615,444).
att(1252,477).
att(1617,440).
att(1714,309).
att(1707,289).
att(1232,451).
att(1618,448).
att(1706,297).
att(1251,480).
att(1255,496).
att(1696,1104).
att(1255,498).
att(1234,473).
att(1615,442).
att(1592,469).
att(1699,1083).
att(1667,1099).
att(1659,1130).
att(1752,2066).
att(1667,1105).
att(1594,448).
att(1579,357).
att(1661,1106).
att(1579,363).
att(1700,1084).
att(1255,522).
att(1580,363).
att(1592,436).
att(1716,301).
att(1597,440).
att(1235,493).
att(1232,490).
att(1240,378).
att(1254,530).
att(1669,1136).
att(1592,462).
att(1690,93).
att(1253,531).
att(1716,102).
att(1241,384).
att(1752,2112).
att(1701,1123).
att(1232,520).
att(1254,552).
att(1237,380).
att(1234,531).
att(1615,1865).
att(1597,488).
att(1597,489).
att(1594,485).
att(1752,2139).
att(1590,501).
att(1223,384).
att(1242,437).
att(1591,489).
att(1754,2136).
att(1715,146).
att(1757,2108).
att(1690,168).
att(1636,1952).
att(1484,475).
att(1707,1085).
att(1476,449).
att(1709,1081).
att(1714,1084).
att(1618,353).
att(1636,448).
att(1619,348).
att(1711,1086).
att(1722,299).
att(1629,439).
att(1639,1887).
att(1622,333).
att(1706,1106).
att(1521,516).
att(1727,295).
att(1486,516).
att(1722,295).
att(1635,1943).
att(1733,305).
att(1484,529).
att(1710,1155).
att(1474,515).
att(1706,1157).
att(1521,554).
att(1724,91).
att(1692,1153).
att(1621,443).
att(1433,380).
att(1493,430).
att(1437,399).
att(1696,1123).
att(1735,273).
att(1690,1159).
att(1490,431).
att(1620,443).
att(1692,1159).
att(1617,487).
att(1614,479).
att(1619,461).
att(1619,462).
att(1696,1157).
att(1437,433).
att(1620,464).
att(1439,435).
att(1713,142).
att(1617,507).
att(1711,129).
att(1618,488).
att(1435,438).
att(1634,1855).
att(1637,1895).
att(1610,320).
att(1629,1863).
att(1706,160).
att(1434,453).
att(1636,1863).
att(1641,1865).
att(1641,1894).
att(1707,197).
att(1708,193).
att(1706,192).
att(1713,164).
att(1622,484).
att(1615,324).
att(1713,170).
att(1441,490).
att(1730,1100).
att(1743,1946).
att(1577,309).
att(1744,448).
att(1639,363).
att(1745,1916).
att(1573,110).
att(1742,1914).
att(1734,1081).
att(1580,269).
att(1577,293).
att(1580,303).
att(1574,297).
att(1741,442).
att(1571,102).
att(1733,1104).
att(1730,1117).
att(1731,1119).
att(1747,440).
att(1732,1123).
att(1449,418).
att(1741,463).
att(1743,457).
att(1671,890).
att(1671,886).
att(1671,896).
att(1571,166).
att(1578,143).
att(1437,553).
att(1738,488).
att(1659,897).
att(1738,487).
att(1451,437).
att(1743,483).
att(1262,438).
att(1435,552).
att(1727,134).
att(1728,91).
att(1724,134).
att(1734,87).
att(1262,460).
att(1638,479).
att(1735,1153).
att(1728,134).
att(1733,134).
att(1730,166).
att(1637,333).
att(1728,200).
att(1729,193).
att(1729,197).
att(1742,1902).
att(1636,339).
att(1747,1887).
att(1262,497).
att(1731,196).
att(1728,1076).
att(1724,1086).
att(1746,1893).
att(1637,350).
att(1738,1739).
att(1574,2196).
att(1571,2207).
att(1659,1952).
att(1572,2191).
att(1580,2181).
att(1580,2182).
att(1575,2205).
att(1669,1915).
att(1743,1745).
att(1664,1944).
att(1699,1917).
att(1699,1915).
att(1659,446).
att(1743,1755).
att(1597,1376).
att(1573,2114).
att(1700,1943).
att(1700,447).
att(1579,2069).
att(1572,1388).
att(1641,1755).
att(1731,2081).
att(1519,389).
att(1734,2084).
att(1664,1865).
att(1517,399).
att(1511,389).
att(1733,2103).
att(1577,2176).
att(1671,1861).
att(1732,2129).
att(1513,430).
att(1519,433).
att(1667,1865).
att(1667,1861).
att(1513,432).
att(1572,2179).
att(1669,1894).
att(1686,1945).
att(1507,434).
att(1509,432).
att(1549,470).
att(1598,2190).
att(1510,455).
att(1666,355).
att(1671,361).
att(1593,2062).
att(1692,1944).
att(1594,2069).
att(1519,477).
att(1613,1386).
att(1688,1946).
att(1509,455).
att(1696,1943).
att(1690,445).
att(1510,471).
att(1716,1952).
att(1519,492).
att(1598,2061).
att(1598,2069).
att(1617,2157).
att(1617,2162).
att(1590,2135).
att(1595,2102).
att(1595,2103).
att(1715,459).
att(1592,2127).
att(1698,463).
att(1716,445).
att(1610,2161).
att(1692,486).
att(1573,2135).
att(1517,539).
att(1507,522).
att(1486,391).
att(1572,2127).
att(1575,2103).
att(1507,514).
att(1507,515).
att(1575,2116).
att(1575,2110).
att(1594,1417).
att(1667,469).
att(1576,2102).
att(1505,510).
att(1482,387).
att(1578,2103).
att(1507,529).
att(1595,2158).
att(1667,487).
att(1590,2179).
att(1686,1894).
att(1576,2144).
att(1701,464).
att(1598,1415).
att(1478,405).
att(1507,552).
att(1594,2176).
att(1693,1898).
att(1595,2172).
att(1486,435).
att(1521,458).
att(1579,2144).
att(1701,479).
att(1580,2144).
att(1482,434).
att(1594,2188).
att(1698,1922).
att(1590,2203).
att(1523,471).
att(1694,1897).
att(1700,504).
att(1591,2196).
att(1477,455).
att(1716,1861).
att(1690,1916).
att(1699,507).
att(1712,1943).
att(1614,2080).
att(1622,2202).
att(1709,441).
att(1641,1382).
att(1706,479).
att(1709,459).
att(1621,2082).
att(1710,463).
att(1617,2146).
att(1620,2099).
att(1706,484).
att(1629,2161).
att(1631,2158).
att(1706,489).
att(1634,2177).
att(1634,2181).
att(1735,464).
att(1635,2156).
att(1640,2157).
att(1714,486).
att(1709,1898).
att(1594,2133).
att(1686,505).
att(1688,502).
att(1618,2163).
att(1618,2161).
att(1694,488).
att(1614,2163).
att(1698,479).
att(1599,2114).
att(1615,2172).
att(1706,1895).
att(1597,2135).
att(1686,325).
att(1694,499).
att(1688,328).
att(1613,2190).
att(1707,1921).
att(1696,320).
att(1619,2163).
att(1715,483).
att(1708,1897).
att(1716,479).
att(1709,1950).
att(1619,2181).
att(1706,1917).
att(1692,355).
att(1714,1891).
att(1707,1946).
att(1614,2203).
att(1622,2196).
att(1716,331).
att(1714,1913).
att(1638,2077).
att(1747,1416).
att(1631,2129).
att(1631,2103).
att(1730,457).
att(1641,2086).
att(1573,1897).
att(1742,1408).
att(1743,2158).
att(1576,1902).
att(1724,507).
att(1724,504).
att(1572,1894).
att(1727,323).
att(1728,328).
att(1740,2203).
att(1732,508).
att(1739,2192).
att(1729,335).
att(1579,1861).
att(1747,2172).
att(1636,2194).
att(1710,331).
att(1641,2198).
att(1727,1881).
att(1708,335).
att(1735,499).
att(1634,2180).
att(1631,2196).
att(1631,2197).
att(1728,1913).
att(1732,1897).
att(1724,1914).
att(1713,329).
att(1636,2202).
att(1730,448).
att(1629,2077).
att(1629,2082).
att(1735,363).
att(1640,2199).
att(1733,1912).
att(1637,2063).
att(1727,445).
att(1724,443).
att(1734,1943).
att(1734,1948).
att(2086,1338).
att(2177,1968).
att(2083,1337).
att(2183,1854).
att(2172,1968).
att(2181,1974).
att(2087,1331).
att(2180,1803).
att(2184,1882).
att(2088,1544).
att(2082,1353).
att(2116,1269).
att(2179,1995).
att(2198,1803).
att(2114,1269).
att(2175,2016).
att(2178,2044).
att(2175,2024).
att(2112,1267).
att(2099,1489).
att(2159,2017).
att(2184,1993).
att(2156,2044).
att(2083,1453).
att(2157,2026).
att(2067,1402).
att(2082,1525).
att(2178,1771).
att(2067,1406).
att(2069,1401).
att(2184,2022).
att(2084,1506).
att(2084,1550).
att(2180,1771).
att(2180,1777).
att(2086,1508).
att(2088,1525).
att(2163,1853).
att(2108,1356).
att(2110,1337).
att(2139,1265).
att(2188,1994).
att(2191,1802).
att(2097,1389).
att(2103,1334).
att(2127,1276).
att(2189,1995).
att(2097,1387).
att(2103,1389).
att(2135,1271).
att(2192,2025).
att(2136,1436).
att(2103,1375).
att(2099,1402).
att(2192,2021).
att(2144,1258).
att(2196,2024).
att(2136,1440).
att(2194,2021).
att(2110,1404).
att(2132,1516).
att(2141,1491).
att(2201,1786).
att(2127,1524).
att(2103,1409).
att(2189,2040).
att(2127,1520).
att(2199,1775).
att(2114,1402).
att(2189,1867).
att(2114,1492).
att(2084,1399).
att(2176,2046).
att(2110,1485).
att(2190,1778).
att(2102,1527).
att(2177,1852).
att(2103,1520).
att(2189,1796).
att(2102,1540).
att(2180,1858).
att(2195,1773).
att(2196,1788).
att(2178,1884).
att(2182,1886).
att(2108,1336).
att(2179,1888).
att(2132,1246).
att(2190,1967).
att(2191,1805).
att(2205,1986).
att(2146,1353).
att(2205,1990).
att(2141,1355).
att(2205,2023).
att(2207,1965).
att(2133,1401).
att(2141,1380).
att(2202,2017).
att(2141,1383).
att(2135,1399).
att(2066,1774).
att(2206,2021).
att(2202,2041).
att(2206,2043).
att(2199,1892).
att(2060,1798).
att(2060,1792).
att(2065,1779).
att(2144,1520).
att(2190,1857).
att(2203,1768).
att(2202,1779).
att(2196,2042).
att(2129,1551).
att(2146,1518).
att(2191,1879).
att(2189,1892).
att(2129,1545).
att(2139,1334).
att(2141,1334).
att(2133,1359).
att(2141,1361).
att(2067,2021).
att(2067,2045).
att(2063,2041).
att(2064,2019).
att(2065,1991).
att(2066,2020).
att(2065,2044).
att(2062,1854).
att(2069,2041).
att(2063,1884).
att(2067,1860).
att(2060,1878).
att(2084,1777).
att(2081,1769).
att(2067,1852).
att(2065,1884).
att(2062,1967).
att(2069,1786).
att(2064,1794).
att(2208,1857).
att(2068,1784).
att(2068,1786).
att(2206,1882).
att(2208,1885).
att(2064,1973).
att(2062,2020).
att(2064,2026).
att(2062,2018).
att(2163,1356).
att(2081,962).
att(2172,1263).
att(2176,1267).
att(2162,1357).
att(2087,747).
att(2160,1380).
att(2083,778).
att(2160,1385).
att(2084,749).
att(2080,778).
att(2175,1438).
att(2183,1373).
att(2161,1383).
att(2162,1380).
att(2181,1263).
att(2086,760).
att(2182,1495).
att(2179,1489).
att(2184,1374).
att(2172,1479).
att(2181,1442).
att(2087,781).
att(2183,1402).
att(2099,859).
att(2082,833).
att(2083,859).
att(939,1761).
att(939,1760).
att(2065,810).
att(936,1764).
att(938,1761).
att(2166,1400).
att(2158,1550).
att(2067,838).
att(2063,1658).
att(2064,833).
att(2065,832).
att(942,1762).
att(2061,835).
att(2158,1540).
att(2082,921).
att(2086,928).
att(2063,1689).
att(2087,882).
att(2087,884).
att(2087,925).
att(2084,927).
att(2183,1516).
att(2080,933).
att(2158,1331).
att(2088,888).
att(2156,1389).
att(2084,971).
att(2068,1662).
att(2080,968).
att(2172,1244).
att(2081,971).
att(2077,958).
att(2162,1360).
att(2172,1276).
att(2114,789).
att(2105,818).
att(2112,747).
att(2181,1380).
att(2114,752).
att(2178,1406).
att(2179,1414).
att(2112,780).
att(2195,1442).
att(2198,1387).
att(1416,1776).
att(1376,1786).
att(2189,1550).
att(2114,813).
att(2110,833).
att(2193,1339).
att(1376,1804).
att(1416,1798).
att(1417,1790).
att(1382,1809).
att(2195,1527).
att(1378,1808).
att(2099,1668).
att(2175,1546).
att(2175,1339).
att(2081,1652).
att(2077,1658).
att(2116,932).
att(2181,1542).
att(2181,1339).
att(2198,1540).
att(2088,1654).
att(2086,1691).
att(2099,964).
att(2103,968).
att(2177,1358).
att(2178,1381).
att(2193,1450).
att(2194,1271).
att(2175,1381).
att(2088,1695).
att(2191,1276).
att(2196,1269).
att(2150,515).
att(2133,811).
att(2143,491).
att(1419,2021).
att(2207,1492).
att(1382,1853).
att(2132,1652).
att(2146,813).
att(2150,539).
att(1376,1884).
att(2146,814).
att(2132,1663).
att(1384,1857).
att(1417,2040).
att(2206,1522).
att(2133,838).
att(1378,1862).
att(1413,1784).
att(1413,1811).
att(995,1765).
att(1384,1890).
att(2121,418).
att(2149,548).
att(2135,1654).
att(994,1766).
att(2137,532).
att(2136,1652).
att(994,1761).
att(2120,426).
att(2133,1682).
att(1410,1804).
att(2117,405).
att(2206,1546).
att(1410,1802).
att(999,1763).
att(2063,1271).
att(1403,1964).
att(1411,1801).
att(1403,1974).
att(1413,1803).
att(2165,1805).
att(2204,1331).
att(2146,1652).
att(2109,398).
att(2140,558).
att(2134,554).
att(2102,1679).
att(2132,964).
att(2102,1695).
att(2195,1551).
att(2135,884).
att(1378,1968).
att(2114,1663).
att(2197,1540).
att(2136,919).
att(2136,763).
att(2194,1335).
att(1382,1994).
att(2117,460).
att(2141,915).
att(1378,1986).
att(2191,1352).
att(1384,1964).
att(2114,1682).
att(2103,1695).
att(2106,454).
att(1419,1803).
att(2109,450).
att(2109,456).
att(2201,1492).
att(2189,1399).
att(2201,1494).
att(2141,968).
att(2188,1383).
att(2191,1356).
att(1418,1963).
att(1418,1993).
att(2135,762).
att(2115,495).
att(2192,1383).
att(1419,2023).
att(2194,1374).
att(2139,781).
att(2190,1406).
att(2195,1375).
att(2189,1402).
att(2200,1436).
att(2119,514).
att(2109,490).
att(2192,1404).
att(2115,513).
att(2065,1506).
att(2161,1769).
att(2064,1547).
att(2068,1481).
att(2068,1522).
att(2163,1807).
att(2067,1544).
att(2063,1336).
att(1411,1884).
att(2060,1333).
att(2111,542).
att(2061,1338).
att(2109,529).
att(2109,542).
att(2063,1352).
att(1027,1762).
att(2159,1992).
att(1025,1767).
att(2159,1990).
att(2063,1377).
att(2064,1354).
att(2060,1373).
att(2087,1271).
att(2159,2026).
att(2060,1374).
att(2060,1379).
att(2081,1273).
att(2141,1682).
att(2063,1450).
att(1411,1963).
att(2063,1456).
att(2144,1679).
att(2165,1974).
att(2166,1801).
att(2205,1354).
att(2205,1355).
att(2062,1491).
att(1415,2023).
att(2062,1487).
att(2199,1402).
att(1403,2045).
att(2199,1414).
att(2204,1377).
att(2204,1381).
att(2062,1520).
att(2206,1385).
att(2159,1771).
att(2202,1404).
att(1413,2021).
att(2065,1457).
att(2208,1375).
att(1411,2046).
att(1411,2044).
att(2061,1483).
att(2157,1778).
att(2066,1475).
att(1413,1867).
att(2208,1412).
att(2066,1524).
att(1050,1762).
att(1787,387).
att(1797,399).
att(1793,414).
att(1799,474).
att(1110,1762).
att(1110,1766).
att(365,1758).
att(365,1759).
att(1783,432).
att(1795,437).
att(1098,1763).
att(1894,444).
att(350,1766).
att(1068,1766).
att(1863,487).
att(1902,468).
att(1897,483).
att(1881,1912).
att(1855,1914).
att(1863,1922).
att(1894,1889).
att(339,1760).
att(1894,1920).
att(1863,1917).
att(1863,1915).
att(335,1763).
att(324,1758).
att(1902,1920).
att(1863,448).
att(1859,441).
att(1855,444).
att(1818,382).
att(1829,536).
att(1920,466).
att(1921,479).
att(1827,514).
att(1831,522).
att(1920,486).
att(1824,474).
att(1822,471).
att(1813,391).
att(1818,430).
att(1891,339).
att(1922,505).
att(1825,548).
att(1887,325).
att(1822,537).
att(1825,533).
att(1861,348).
att(1861,353).
att(1168,1767).
att(1887,1948).
att(1902,348).
att(1920,1914).
att(1818,460).
att(1920,1951).
att(1893,1945).
att(1894,359).
att(1881,459).
att(1881,467).
att(1883,443).
att(1819,513).
att(1922,1944).
att(1821,500).
att(1881,479).
att(1887,467).
att(1820,498).
att(1818,497).
att(1817,456).
att(1887,457).
att(1914,329).
att(1797,480).
att(1914,324).
att(1915,324).
att(1789,450).
att(1916,324).
att(1951,328).
att(1793,478).
att(1791,474).
att(1825,389).
att(1942,1949).
att(1791,542).
att(1829,387).
att(1830,384).
att(1797,518).
att(1795,510).
att(1793,513).
att(1791,518).
att(1827,437).
att(1913,441).
att(1824,403).
att(1922,363).
att(1828,407).
att(1828,403).
att(1827,409).
att(1783,549).
att(1829,432).
att(1826,414).
att(1913,443).
att(1787,531).
att(1825,409).
att(1951,447).
att(1827,477).
att(1823,434).
att(1916,487).
att(1088,1765).
att(1178,1758).
att(2116,1771).
att(2108,1784).
att(2084,1867).
att(2102,1769).
att(2102,1775).
att(2086,2036).
att(2082,1856).
att(1844,549).
att(2087,1858).
att(1843,539).
att(2085,2041).
att(1840,407).
att(2086,1857).
att(2099,1780).
att(2112,1779).
att(2103,1794).
att(1835,453).
att(1837,470).
att(1835,434).
att(1841,475).
att(1834,434).
att(1837,460).
att(1839,431).
att(1835,492).
att(2086,1974).
att(2083,1964).
att(2083,1992).
att(2084,1802).
att(1836,493).
att(2087,1989).
att(1899,379).
att(1841,556).
att(2086,1989).
att(1839,533).
att(2080,2038).
att(1841,534).
att(2099,1772).
att(1848,411).
att(2146,1770).
att(1818,558).
att(1821,539).
att(1812,522).
att(1848,378).
att(1818,534).
att(2114,1880).
att(1849,453).
att(1849,451).
att(2136,1995).
att(1113,1765).
att(1842,414).
att(1842,407).
att(2129,1995).
att(2146,1963).
att(1850,414).
att(2105,2024).
att(2108,2019).
att(2112,1964).
att(1847,475).
att(1851,474).
att(2110,2018).
att(2132,1769).
att(2112,1990).
att(2105,2039).
att(2108,1852).
att(2133,1773).
att(2133,1772).
att(2114,2037).
att(1851,518).
att(2146,1886).
att(1873,470).
att(1869,454).
att(1874,496).
att(1872,471).
att(1868,455).
att(1876,480).
att(1876,476).
att(1873,460).
att(1870,450).
att(1960,378).
att(1941,389).
att(1872,513).
att(1871,511).
att(1868,491).
att(1875,510).
att(1875,515).
att(1874,514).
att(1869,542).
att(1953,389).
att(1872,551).
att(1961,403).
att(1876,553).
att(1872,534).
att(1958,409).
att(1874,552).
att(1961,379).
att(1958,455).
att(2144,1857).
att(1868,554).
att(1869,549).
att(1907,471).
att(1899,435).
att(1905,437).
att(1906,434).
att(1903,438).
att(1901,399).
att(1909,491).
att(1899,455).
att(1872,379).
att(1904,542).
att(1905,530).
att(1900,512).
att(1875,381).
att(1875,453).
att(1874,433).
att(1868,391).
att(1871,403).
att(1900,534).
att(1903,558).
att(2163,1889).
att(1940,531).
att(2163,1920).
att(2165,323).
att(2007,384).
att(1930,511).
att(2159,447).
att(1936,510).
att(2060,2066).
att(1930,495).
att(2166,331).
att(2007,433).
att(1983,437).
att(2062,2081).
att(1940,559).
att(2064,2077).
att(2160,442).
att(2163,469).
att(1932,536).
att(2060,2102).
att(2156,466).
att(2061,2085).
att(2162,446).
att(2183,448).
att(2163,436).
att(2066,2088).
att(1928,531).
att(1410,442).
att(1410,446).
att(1405,446).
att(2204,2087).
att(1859,1760).
att(1408,464).
att(2003,434).
att(1403,481).
att(1411,465).
att(1934,559).
att(2166,446).
att(2013,433).
att(2007,520).
att(2003,491).
att(1413,479).
att(2206,2097).
att(2205,2133).
att(2164,461).
att(1403,324).
att(2159,1887).
att(1405,325).
att(1403,339).
att(1405,323).
att(2208,2146).
att(1959,522).
att(1959,518).
att(2176,1943).
att(1941,522).
att(1957,478).
att(1941,513).
att(1960,492).
att(1958,495).
att(2184,357).
att(2177,441).
att(2179,436).
att(1960,558).
att(2179,469).
att(2081,2085).
att(2082,2097).
att(1954,537).
att(2181,445).
att(1957,522).
att(1954,530).
att(2083,2097).
att(1961,534).
att(1957,515).
att(2080,2129).
att(2083,2141).
att(2175,485).
att(2180,461).
att(2172,483).
att(2181,459).
att(2198,445).
att(1932,434).
att(1910,471).
att(2060,2136).
att(2156,488).
att(1911,453).
att(2069,2077).
att(1910,453).
att(1957,558).
att(2062,2146).
att(2067,2102).
att(1936,435).
att(1930,401).
att(2061,2141).
att(2066,2133).
att(1910,430).
att(2172,1897).
att(1932,385).
att(1910,434).
att(2064,2132).
att(1930,474).
att(1911,495).
att(1934,450).
att(2178,1915).
att(2176,1914).
att(2172,1915).
att(1416,273).
att(1949,1766).
att(2190,436).
att(1376,102).
att(2196,1948).
att(1419,271).
att(2192,443).
att(2191,461).
att(2099,2129).
att(2197,465).
att(2108,2135).
att(1388,176).
att(1376,166).
att(1378,166).
att(1378,138).
att(2191,467).
att(1378,134).
att(2189,484).
att(2105,2144).
att(2190,507).
att(2112,2133).
att(2112,2141).
att(2195,487).
att(2202,1894).
att(2189,504).
att(2114,2133).
att(2192,501).
att(2175,501).
att(2172,324).
att(2081,2144).
att(2189,1865).
att(2182,479).
att(2193,1893).
att(2188,1912).
att(2190,1895).
att(1916,1760).
att(2194,1912).
att(2180,355).
att(1376,104).
att(2198,331).
att(1417,1121).
att(1410,97).
att(1410,145).
att(1405,95).
att(1386,1153).
att(1413,91).
att(1419,1134).
att(1416,1117).
att(2164,95).
att(2201,501).
att(1408,172).
att(2009,532).
att(2129,2136).
att(2013,512).
att(1415,170).
att(2066,1895).
att(1410,162).
att(1410,173).
att(2067,1902).
att(2205,507).
att(2069,1861).
att(2005,548).
att(1405,198).
att(2166,164).
att(2061,1922).
att(1415,192).
att(1382,190).
att(1382,193).
att(2201,1912).
att(1384,196).
att(2197,503).
att(2200,1921).
att(2207,1859).
att(2194,502).
att(1382,1076).
att(1376,1104).
att(1378,1103).
att(2203,1912).
att(1887,1763).
att(1419,198).
att(2194,325).
att(1893,1762).
att(1415,269).
att(2199,443).
att(1881,1761).
att(1388,1101).
att(2194,353).
att(2205,440).
att(1411,289).
att(1418,1121).
att(2199,444).
att(2204,445).
att(1413,2068).
att(2166,2069).
att(1403,2141).
att(2165,2105).
att(2166,2080).
att(464,1759).
att(459,1761).
att(2166,2105).
att(457,1765).
att(1415,2133).
att(1405,2163).
att(1752,1867).
att(1753,2040).
att(1756,2038).
att(1749,1858).
att(1388,2141).
att(1755,1880).
att(1410,2179).
att(1419,2129).
att(1419,2135).
att(1413,2181).
att(1405,2194).
att(1410,2203).
att(1413,2203).
att(2157,2112).
att(2184,2062).
att(2158,2132).
att(2158,2144).
att(441,1763).
att(2184,2110).
att(2179,2198).
att(2178,2189).
att(2157,2188).
att(2161,2181).
att(2159,2206).
att(2183,2182).
att(2158,2204).
att(2162,2197).
att(2158,2202).
att(2156,2061).
att(2158,2060).
att(2163,2201).
att(447,1767).
att(2159,2083).
att(2179,2112).
att(2188,2189).
att(1376,1902).
att(1378,1859).
att(1417,1894).
att(2190,2203).
att(2188,2069).
att(1419,1883).
att(2178,2202).
att(2176,2199).
att(2177,2201).
att(507,1759).
att(2179,2205).
att(2182,2064).
att(1415,1895).
att(1410,1859).
att(1410,1861).
att(1386,357).
att(1413,1916).
att(1415,1917).
att(488,1760).
att(1405,441).
att(2199,2085).
att(2203,2206).
att(2194,2200).
att(1388,448).
att(2190,2061).
att(2190,2064).
att(1382,446).
att(2191,2082).
att(2195,2065).
att(2189,2088).
att(1386,446).
att(2188,2135).
att(1384,468).
att(2192,2112).
att(1388,462).
att(1388,487).
att(2190,2129).
att(1403,1859).
att(2194,2108).
att(2163,817).
att(2160,785).
att(2087,102).
att(2161,779).
att(2162,781).
att(2184,760).
att(2163,779).
att(2067,1128).
att(2163,785).
att(2161,812).
att(2175,886).
att(2085,297).
att(2061,1159).
att(2177,890).
att(2087,138).
att(2179,888).
att(2081,140).
att(2181,856).
att(2163,1665).
att(2083,197).
att(2161,1658).
att(2085,134).
att(2163,1660).
att(1403,1682).
att(2165,1654).
att(2157,880).
att(2164,834).
att(2063,1080).
att(2160,921).
att(2060,1083).
att(2063,1105).
att(2063,1106).
att(2166,1682).
att(2162,765).
att(2063,1099).
att(2184,762).
att(2069,1084).
att(2116,146).
att(2102,127).
att(2110,142).
att(2086,1149).
att(2188,896).
att(2114,177).
att(2175,1670).
att(2110,134).
att(2110,176).
att(2172,1679).
att(2088,1157).
att(2182,1665).
att(2179,1658).
att(2175,1680).
att(2195,880).
att(2181,1657).
att(2189,968).
att(2114,173).
att(2178,1680).
att(2197,966).
att(2180,1689).
att(2112,193).
att(2188,749).
att(1376,1267).
att(2103,1087).
att(2099,1083).
att(2198,884).
att(2182,919).
att(2177,765).
att(2178,749).
att(2082,1097).
att(2172,787).
att(2083,1130).
att(2175,779).
att(2176,779).
att(2198,960).
att(2116,297).
att(2085,1117).
att(2176,809).
att(2102,295).
att(2103,299).
att(2112,308).
att(2193,1668).
att(2205,880).
att(2190,1660).
att(2195,834).
att(2202,923).
att(1378,1546).
att(2127,173).
att(1416,1541).
att(1388,1361).
att(2139,194).
att(2204,972).
att(2133,192).
att(2191,1685).
att(1418,1540).
att(2135,162).
att(1378,1360).
att(2129,193).
att(2199,972).
att(2200,915).
att(1419,1540).
att(2197,1660).
att(2193,1689).
att(2204,917).
att(2144,199).
att(1382,1352).
att(1376,1380).
att(2206,915).
att(1403,1260).
att(2133,1080).
att(1378,1375).
att(2199,765).
att(2135,198).
att(1413,1271).
att(2197,1687).
att(1415,1258).
att(2164,1276).
att(2201,817).
att(1378,1404).
att(2203,962).
att(1411,1277).
att(2207,958).
att(1416,1269).
att(2139,269).
att(1384,1265).
att(2189,758).
att(2188,811).
att(2102,1130).
att(2188,812).
att(2132,91).
att(1382,1494).
att(2191,760).
att(2099,1119).
att(2196,756).
att(1419,1263).
att(1386,1487).
att(1419,1448).
att(2139,85).
att(2110,1128).
att(2132,132).
att(2188,829).
att(2103,1145).
att(1378,1485).
att(1378,1522).
att(2105,1149).
att(2135,104).
att(1382,1506).
att(1382,1550).
att(2112,1136).
att(2204,854).
att(2206,1654).
att(2203,1682).
att(1403,1389).
att(2063,763).
att(1405,1353).
att(2060,972).
att(2166,1545).
att(1410,1353).
att(2203,1695).
att(2162,1276).
att(2156,1456).
att(2183,1276).
att(1415,1387).
att(2158,1520).
att(2064,818).
att(2065,787).
att(1413,1412).
att(2067,781).
att(2206,752).
att(1382,1412).
att(1417,1387).
att(1403,1485).
att(2202,817).
att(2165,1444).
att(2204,782).
att(1416,1375).
att(2166,1489).
att(2201,833).
att(1417,1400).
att(1411,1491).
att(2127,1163).
att(2135,1124).
att(2165,1440).
att(1405,1524).
att(2135,1136).
att(2144,1128).
att(2066,886).
att(1410,1508).
att(2199,1657).
att(2206,839).
att(2165,1475).
att(2060,886).
att(2165,1483).
att(2204,837).
att(2062,966).
att(2064,882).
att(2166,1514).
att(2082,1897).
att(2063,505).
att(2065,479).
att(2157,138).
att(2166,1145).
att(2163,127).
att(2067,481).
att(2063,324).
att(2084,1865).
att(2065,507).
att(2081,1865).
att(2086,1919).
att(2160,197).
att(2065,323).
att(2065,333).
att(2085,1883).
att(2077,1913).
att(2088,1863).
att(2069,499).
att(2162,195).
att(2064,350).
att(2178,273).
att(2065,354).
att(2085,1887).
att(2162,1076).
att(2183,196).
att(2069,1887).
att(2069,1920).
att(2203,355).
att(2207,323).
att(1415,1076).
att(2206,365).
att(1411,1096).
att(1411,1102).
att(2161,269).
att(2061,1949).
att(2166,1082).
att(2208,363).
att(1415,1100).
att(1415,1101).
att(2062,439).
att(2158,293).
att(2164,1082).
att(1405,1142).
att(2064,445).
att(2165,1117).
att(2183,267).
att(2166,1103).
att(1410,1157).
att(2158,175).
att(2067,465).
att(2161,91).
att(2183,105).
att(1415,1153).
att(2184,105).
att(2084,508).
att(2080,339).
att(2103,1898).
att(2103,1894).
att(2188,273).
att(2103,1891).
att(2181,194).
att(2177,1080).
att(2105,448).
att(2116,1950).
att(2102,1946).
att(2081,365).
att(2172,1101).
att(2198,197).
att(2103,1918).
att(2099,1942).
att(2086,365).
att(2193,289).
att(2175,1117).
att(2193,295).
att(2180,1103).
att(2172,1149).
att(2188,295).
att(2088,365).
att(2196,271).
att(2156,1126).
att(2183,1102).
att(2162,1105).
att(2161,1134).
att(2175,145).
att(2085,440).
att(2085,1948).
att(2158,1145).
att(2086,442).
att(2181,295).
att(2160,1159).
att(2160,1155).
att(2081,463).
att(2077,479).
att(2088,439).
att(2181,145).
att(2160,1142).
att(2180,127).
att(2085,467).
att(2088,461).
att(2198,145).
att(2102,348).
att(1378,752).
att(2097,361).
att(2112,509).
att(2135,1891).
att(2196,191).
att(1388,754).
att(2194,1081).
att(2190,1099).
att(2146,1918).
att(2205,309).
att(2141,1916).
att(2135,1916).
att(2135,1951).
att(1386,756).
att(2192,1101).
att(2204,110).
att(2141,1944).
att(2208,303).
att(2202,297).
att(2133,442).
att(2133,440).
att(2133,445).
att(2204,289).
att(2208,273).
att(1382,839).
att(2132,484).
att(1417,818).
att(1378,816).
att(2200,97).
att(1418,817).
att(2144,442).
att(2197,105).
att(2102,457).
att(2180,1128).
att(2102,463).
att(2198,1119).
att(2178,1152).
att(2179,1117).
att(2188,164).
att(2191,132).
att(2181,1145).
att(2099,484).
att(2182,1145).
att(2196,91).
att(2192,200).
att(1452,1759).
att(2116,487).
att(2190,160).
att(1417,854).
att(2190,170).
att(1460,1764).
att(2114,486).
att(2192,166).
att(1378,933).
att(2114,484).
att(2116,509).
att(2190,194).
att(2132,1914).
att(2195,160).
att(2188,1079).
att(2188,1080).
att(1468,1765).
att(1468,1767).
att(2099,350).
att(2103,506).
att(1466,1765).
att(2127,1920).
att(1415,789).
att(2164,960).
att(2144,357).
att(2144,359).
att(2164,749).
att(2069,301).
att(2199,1163).
att(1413,780).
att(2061,293).
att(1415,780).
att(2068,306).
att(2156,890).
att(1411,813).
att(2165,778).
att(2165,782).
att(2208,1121).
att(2061,93).
att(2062,132).
att(2066,93).
att(2069,297).
att(2162,897).
att(2159,923).
att(2166,812).
att(2207,1163).
att(2068,97).
att(2158,927).
att(1416,815).
att(1415,897).
att(1378,1652).
att(2206,142).
att(2202,176).
att(2135,481).
att(1418,815).
att(2144,464).
att(1388,833).
att(1419,815).
att(2197,1163).
att(2136,488).
att(1376,1682).
att(1416,835).
att(2133,502).
att(1417,831).
att(2133,503).
att(1388,1663).
att(1415,882).
att(2205,166).
att(1416,1670).
att(1382,1687).
att(1411,921).
att(2203,194).
att(1378,1697).
att(2146,503).
att(1410,954).
att(1410,962).
att(1403,763).
att(2165,911).
att(2129,361).
