arg(1..1523).
att(1210,664).
att(1213,664).
att(1190,463).
att(1451,1245).
att(1189,686).
att(1347,212).
att(1064,931).
att(1331,122).
att(1344,216).
att(1445,1183).
att(1064,1004).
att(1455,1244).
att(1207,665).
att(1069,931).
att(1197,695).
att(1358,118).
att(1213,605).
att(1361,128).
att(1200,600).
att(1331,386).
att(1197,601).
att(1333,128).
att(1313,1506).
att(1451,1185).
att(1323,1503).
att(1189,668).
att(1470,1185).
att(1323,1509).
att(1470,1183).
att(1333,1454).
att(1447,985).
att(397,747).
att(1472,1041).
att(1220,427).
att(399,745).
att(1069,1092).
att(1453,952).
att(1250,134).
att(1069,1094).
att(1220,134).
att(1220,416).
att(1065,666).
att(1218,134).
att(1082,592).
att(1085,605).
att(1445,980).
att(402,743).
att(402,749).
att(1457,993).
att(1457,1294).
att(1457,1233).
att(1207,470).
att(1449,1281).
att(1072,997).
att(1194,474).
att(1445,1231).
att(1449,936).
att(1447,947).
att(1347,1454).
att(1445,948).
att(1468,942).
att(1468,934).
att(1162,644).
att(1399,1499).
att(1399,1505).
att(1160,646).
att(1311,116).
att(1311,425).
att(1310,134).
att(1145,665).
att(1401,1503).
att(1144,698).
att(1311,173).
att(1315,227).
att(1160,661).
att(1152,671).
att(1158,638).
att(1317,216).
att(1310,124).
att(1145,696).
att(1144,585).
att(1145,600).
att(1406,1433).
att(1420,1503).
att(1323,134).
att(1406,1465).
att(1420,1509).
att(1412,1496).
att(1152,647).
att(1158,1104).
att(1148,598).
att(1406,1462).
att(1344,429).
att(1329,1452).
att(1344,384).
att(457,740).
att(1200,1049).
att(1200,1053).
att(1162,491).
att(1189,1092).
att(1317,1458).
att(1200,1100).
att(1317,1485).
att(1329,259).
att(1329,257).
att(1189,1055).
att(1156,664).
att(435,745).
att(1315,266).
att(446,743).
att(441,749).
att(1190,1045).
att(1311,226).
att(1315,261).
att(466,740).
att(1145,429).
att(1308,1434).
att(1406,1292).
att(1399,952).
att(1301,1459).
att(1145,384).
att(1293,1458).
att(1297,1436).
att(1297,1435).
att(1396,1294).
att(1293,1491).
att(1301,1490).
att(1162,382).
att(1396,947).
att(1299,1460).
att(1308,216).
att(1386,584).
att(1304,170).
att(1396,1136).
att(1306,229).
att(480,744).
att(1364,591).
att(484,748).
att(1367,599).
att(1302,226).
att(1315,1193).
att(1396,1050).
att(1158,183).
att(1145,216).
att(1150,170).
att(1158,124).
att(1315,1171).
att(1144,263).
att(1396,595).
att(1416,584).
att(1150,216).
att(1418,595).
att(1416,604).
att(1406,1090).
att(4,529).
att(1293,1507).
att(1412,1052).
att(1420,1039).
att(1154,118).
att(1302,1454).
att(1304,1454).
att(9,553).
att(1145,126).
att(1152,144).
att(1162,126).
att(1148,124).
att(1406,996).
att(1412,1103).
att(1399,1039).
att(1401,1043).
att(1319,1139).
att(1295,1503).
att(1375,1175).
att(1075,468).
att(1372,1233).
att(1449,629).
att(1085,693).
att(1390,1283).
att(1392,948).
att(1250,263).
att(1060,472).
att(1386,1224).
att(1457,595).
att(1364,1177).
att(1457,581).
att(1293,380).
att(1075,498).
att(1453,639).
att(1075,505).
att(1293,431).
att(1253,1438).
att(1457,633).
att(1333,1505).
att(1457,1046).
att(516,745).
att(1333,1506).
att(1445,1038).
att(1331,1490).
att(1066,634).
att(1377,1185).
att(1377,1183).
att(1263,230).
att(1072,666).
att(1066,663).
att(1293,177).
att(1266,1508).
att(1260,1496).
att(1375,1056).
att(1364,977).
att(1295,116).
att(1247,1508).
att(1386,1041).
att(1250,1510).
att(1364,996).
att(1372,1101).
att(510,747).
att(1367,1046).
att(1302,116).
att(1386,1091).
att(508,742).
att(1386,999).
att(1297,429).
att(1386,1003).
att(1293,136).
att(1367,950).
att(1069,503).
att(1266,1490).
att(1260,1483).
att(1293,183).
att(1301,118).
att(1260,1454).
att(32,611).
att(1349,1097).
att(1197,1486).
att(535,745).
att(34,652).
att(1062,118).
att(1210,1503).
att(1336,1048).
att(1336,1044).
att(1358,1105).
att(1349,584).
att(38,614).
att(1333,1046).
att(1075,173).
att(34,614).
att(1072,126).
att(1358,1108).
att(1453,306).
att(34,608).
att(43,622).
att(43,630).
att(1253,1188).
att(536,748).
att(1355,1108).
att(1213,1432).
att(38,711).
att(1213,1433).
att(1449,25).
att(1065,429).
att(1449,35).
att(1065,382).
att(28,675).
att(1310,632).
att(1472,24).
att(1065,386).
att(1197,1438).
att(1447,39).
att(1213,1464).
att(1361,993).
att(1213,1459).
att(1186,1490).
att(1213,1462).
att(1085,382).
att(1213,1465).
att(1197,1459).
att(1207,1435).
att(1453,41).
att(1449,310).
att(1468,307).
att(1355,999).
att(26,654).
att(1194,1458).
att(1347,980).
att(1455,119).
att(17,538).
att(1392,309).
att(1266,952).
att(16,541).
att(1220,1294).
att(36,726).
att(1355,645).
att(1331,599).
att(1447,127).
att(18,530).
att(1247,1273).
att(1386,10).
att(1066,254).
att(32,710).
att(40,720).
att(20,538).
att(1386,311).
att(1453,174).
att(38,720).
att(1375,29).
att(1453,184).
att(1060,1454).
att(1062,1460).
att(1260,948).
att(1220,1188).
att(17,614).
att(1075,226).
att(1358,595).
att(1207,1508).
att(1468,420).
att(1250,1241).
att(21,630).
att(1250,1177).
att(1260,1136).
att(18,566).
att(619,747).
att(17,572).
att(19,625).
att(32,723).
att(1263,1171).
att(631,747).
att(1336,581).
att(21,588).
att(1352,602).
att(1064,266).
att(28,723).
att(1445,422).
att(4,576).
att(1144,1486).
att(1323,999).
att(1,582).
att(1200,386).
att(1200,384).
att(1145,1490).
att(1162,1490).
att(1317,1048).
att(1189,187).
att(1317,1052).
att(1313,977).
att(1311,1005).
att(5,576).
att(1189,126).
att(1317,1044).
att(1310,1003).
att(1148,1481).
att(1310,945).
att(1144,1436).
att(1154,1438).
att(1399,645).
att(1162,270).
att(1315,1292).
att(5,683).
att(5,676).
att(1406,595).
att(7,660).
att(1329,999).
att(1329,1005).
att(1154,1459).
att(1315,952).
att(1311,1287).
att(5,659).
att(2,616).
att(1158,254).
att(561,744).
att(4,709).
att(42,538).
att(38,520).
att(1336,1244).
att(1207,181).
att(1319,632).
att(5,721).
att(1323,593).
att(1213,268).
att(42,528).
att(1213,261).
att(1449,33).
att(4,673).
att(1449,11).
att(1325,639).
att(1347,947).
att(1310,604).
att(1323,639).
att(1189,1428).
att(1315,1108).
att(1189,177).
att(1158,1496).
att(1200,122).
att(2,722).
att(43,576).
att(1197,122).
att(1317,1089).
att(532,749).
att(1197,118).
att(1200,229).
att(43,555).
att(1358,1183).
att(1194,170).
att(1352,1134).
att(1156,1509).
att(1317,590).
att(1148,1241).
att(1308,581).
att(1399,418).
att(1420,120).
att(1299,629).
att(1148,1244).
att(1399,414).
att(1302,1089).
att(71,716).
att(1304,1093).
att(1160,1185).
att(1399,428).
att(1156,1136).
att(1293,626).
att(1416,417).
att(1148,1292).
att(1412,180).
att(71,706).
att(1297,626).
att(1160,1171).
att(1306,599).
att(1148,1224).
att(1158,1237).
att(64,648).
att(1295,632).
att(1302,597).
att(64,723).
att(1406,308).
att(1299,1089).
att(1293,1089).
att(1401,430).
att(1412,133).
att(67,719).
att(1144,1241).
att(1416,385).
att(64,702).
att(1401,264).
att(1396,256).
att(53,611).
att(1315,350).
att(1315,352).
att(1399,256).
att(705,745).
att(1158,945).
att(1152,993).
att(45,588).
att(1313,309).
att(45,569).
att(1325,306).
att(1189,1181).
att(1162,1038).
att(1327,377).
att(1329,379).
att(51,582).
att(1152,1052).
att(1310,352).
att(1319,430).
att(1393,269).
att(1406,127).
att(1329,24).
att(1420,209).
att(49,677).
att(1412,211).
att(1323,319).
att(1420,269).
att(1396,215).
att(1311,35).
att(1393,176).
att(19,711).
att(13,660).
att(1370,378).
att(12,660).
att(1370,392).
att(13,652).
att(12,659).
att(1302,1192).
att(1295,1171).
att(1253,637).
att(1250,595).
att(1299,1171).
att(1306,1185).
att(1377,377).
att(1392,347).
att(12,712).
att(12,714).
att(1247,1056).
att(1266,985).
att(1082,1464).
att(71,554).
att(20,722).
att(1364,311).
att(1386,389).
att(1453,267).
att(1255,1105).
att(1370,344).
att(1388,344).
att(1445,255).
att(1388,346).
att(1392,256).
att(72,622).
att(1401,25).
att(579,744).
att(575,748).
att(68,566).
att(1367,215).
att(1297,934).
att(1386,209).
att(1367,176).
att(73,586).
att(73,588).
att(1418,311).
att(1401,351).
att(69,541).
att(71,576).
att(71,569).
att(1401,350).
att(71,574).
att(13,721).
att(1399,319).
att(1293,1038).
att(1372,253).
att(1386,264).
att(1416,307).
att(1302,928).
att(68,658).
att(68,652).
att(1293,948).
att(1293,947).
att(1218,593).
att(1372,176).
att(1293,945).
att(1372,178).
att(1302,1287).
att(1372,169).
att(1412,315).
att(67,625).
att(1420,41).
att(1367,127).
att(1390,176).
att(1260,626).
att(1220,637).
att(73,622).
att(579,748).
att(1364,125).
att(1386,171).
att(566,264).
att(566,267).
att(569,255).
att(85,572).
att(547,387).
att(569,264).
att(76,541).
att(700,1282).
att(97,726).
att(700,1274).
att(706,926).
att(553,430).
att(76,538).
att(544,347).
att(700,1276).
att(673,769).
att(103,720).
att(707,926).
att(109,728).
att(674,775).
att(679,789).
att(85,555).
att(710,974).
att(101,719).
att(675,808).
att(76,534).
att(538,390).
att(93,554).
att(673,805).
att(700,938).
att(83,660).
att(704,976).
att(681,1147).
att(544,418).
att(93,659).
att(89,614).
att(533,41).
att(672,824).
att(674,832).
att(80,580).
att(90,652).
att(681,1133).
att(554,171).
att(673,1141).
att(203,530).
att(582,186).
att(700,820).
att(90,721).
att(574,130).
att(83,708).
att(85,701).
att(708,1180).
att(704,817).
att(569,120).
att(566,120).
att(1449,1042).
att(702,1182).
att(83,673).
att(707,1178).
att(704,1135).
att(93,676).
att(572,176).
att(574,171).
att(89,724).
att(710,1223).
att(85,730).
att(711,1222).
att(85,726).
att(707,1176).
att(541,23).
att(85,723).
att(572,210).
att(544,25).
att(566,209).
att(1317,1403).
att(1323,1381).
att(687,767).
att(91,724).
att(1311,1405).
att(83,716).
att(578,264).
att(89,710).
att(93,721).
att(529,426).
att(109,538).
att(529,379).
att(55,715).
att(654,796).
att(526,378).
att(662,830).
att(51,718).
att(679,974).
att(674,933).
att(675,974).
att(45,704).
att(62,717).
att(534,125).
att(657,824).
att(654,785).
att(107,522).
att(63,721).
att(662,1180).
att(103,572).
att(109,613).
att(533,228).
att(662,1137).
att(672,995).
att(109,608).
att(522,121).
att(529,172).
att(1375,1402).
att(103,557).
att(109,578).
att(109,569).
att(55,727).
att(109,574).
att(533,252).
att(51,724).
att(526,176).
att(49,727).
att(662,1223).
att(111,553).
att(97,538).
att(528,219).
att(1399,1409).
att(101,658).
att(1401,1408).
att(533,24).
att(557,215).
att(547,176).
att(676,1132).
att(530,310).
att(544,174).
att(679,1176).
att(1401,1405).
att(673,1191).
att(1401,1402).
att(559,256).
att(534,351).
att(105,648).
att(538,210).
att(677,1291).
att(676,1225).
att(533,392).
att(112,725).
att(975,1262).
att(1422,1381).
att(554,264).
att(676,1289).
att(982,1265).
att(99,710).
att(984,1254).
att(1412,1368).
att(656,779).
att(520,350).
att(91,526).
att(660,763).
att(112,718).
att(662,792).
att(648,767).
att(1412,1402).
att(656,808).
att(672,1274).
att(976,1246).
att(656,805).
att(97,675).
att(112,710).
att(520,390).
att(616,41).
att(151,660).
att(658,209).
att(728,1236).
att(728,1240).
att(114,687).
att(139,622).
att(620,318).
att(630,306).
att(656,210).
att(139,608).
att(165,657).
att(657,225).
att(1247,1410).
att(730,1289).
att(650,178).
att(1401,940).
att(725,1168).
att(1412,997).
att(1392,472).
att(160,648).
att(725,1172).
att(658,269).
att(659,252).
att(630,389).
att(726,1291).
att(613,319).
att(727,1291).
att(297,520).
att(1367,592).
att(1390,644).
att(160,717).
att(620,344).
att(648,260).
att(720,782).
att(630,385).
att(721,763).
att(716,767).
att(114,715).
att(1377,1098).
att(1255,1409).
att(720,792).
att(714,769).
att(618,430).
att(618,379).
att(1386,627).
att(712,769).
att(721,824).
att(719,827).
att(614,432).
att(530,1090).
att(662,432).
att(284,553).
att(657,390).
att(1399,1102).
att(728,792).
att(281,557).
att(528,1095).
att(139,716).
att(657,378).
att(157,720).
att(290,520).
att(1416,1098).
att(165,723).
att(1396,592).
att(659,422).
att(652,428).
att(281,531).
att(530,597).
att(656,422).
att(659,135).
att(1412,627).
att(533,639).
att(1416,598).
att(1422,1042).
att(1412,1110).
att(1370,470).
att(652,414).
att(1370,463).
att(524,590).
att(654,418).
att(1399,988).
att(728,1146).
att(729,1147).
att(729,1146).
att(528,629).
att(659,121).
att(725,827).
att(1420,988).
att(1372,463).
att(250,650).
att(297,614).
att(724,1143).
att(622,41).
att(1416,1109).
att(284,572).
att(722,815).
att(729,1184).
att(654,184).
att(520,629).
att(1367,498).
att(725,1142).
att(656,174).
att(1377,463).
att(251,622).
att(281,578).
att(729,1180).
att(1416,1047).
att(1358,1368).
att(717,1230).
att(574,311).
att(197,614).
att(195,622).
att(1449,644).
att(1333,1339).
att(572,305).
att(1347,1374).
att(608,223).
att(721,1278).
att(572,351).
att(1333,1382).
att(1358,1407).
att(199,582).
att(1333,1374).
att(611,262).
att(197,572).
att(706,782).
att(191,557).
att(569,305).
att(191,541).
att(1331,1368).
att(707,782).
att(719,929).
att(712,1291).
att(711,765).
att(1470,667).
att(1472,669).
att(199,557).
att(201,538).
att(702,781).
att(199,681).
att(205,706).
att(717,944).
att(714,949).
att(1447,1047).
att(1472,607).
att(711,824).
att(574,381).
att(1468,1106).
att(716,935).
att(199,660).
att(576,417).
att(1344,1341).
att(576,420).
att(716,979).
att(1457,1104).
att(1445,1102).
att(725,944).
att(1449,505).
att(1377,1055).
att(625,420).
att(718,825).
att(1445,491).
att(714,794).
att(1447,493).
att(1445,474).
att(1367,1059).
att(202,723).
att(165,528).
att(207,717).
att(717,815).
att(205,719).
att(1372,1104).
att(625,127).
att(1386,607).
att(613,420).
att(191,683).
att(1388,1098).
att(191,672).
att(195,701).
att(201,675).
att(582,33).
att(611,117).
att(1457,671).
att(1331,1408).
att(1470,472).
att(718,1133).
att(1390,937).
att(716,1180).
att(713,1132).
att(157,553).
att(114,613).
att(201,726).
att(713,1182).
att(154,541).
att(158,580).
att(718,1172).
att(1447,475).
att(1392,1109).
att(582,315).
att(1372,1055).
att(576,25).
att(718,1168).
att(1372,1059).
att(622,256).
att(139,531).
att(1370,1001).
att(139,524).
att(574,24).
att(716,1236).
att(1468,473).
att(1457,693).
att(554,1240).
att(541,1170).
att(544,1172).
att(1315,468).
att(1317,501).
att(533,779).
att(541,1223).
att(1358,1049).
att(534,782).
att(1472,380).
att(554,1272).
att(1315,499).
att(544,1230).
att(1355,1109).
att(529,751).
att(533,796).
att(1361,1000).
att(1158,1394).
att(1156,1374).
att(1323,664).
att(541,1274).
att(1310,627).
att(1150,1405).
att(1162,1402).
att(531,808).
att(1329,473).
att(1329,472).
att(524,805).
att(550,933).
att(534,825).
att(1361,997).
att(1319,476).
att(531,784).
att(1349,997).
att(544,944).
att(1203,1409).
att(1451,229).
att(576,926).
att(1213,1378).
att(538,782).
att(1331,627).
att(547,794).
att(574,926).
att(1470,170).
att(580,974).
att(1472,229).
att(1344,665).
att(1468,181).
att(557,832).
att(569,926).
att(576,976).
att(1455,168).
att(555,816).
att(1472,257).
att(550,825).
att(1447,181).
att(1449,227).
att(574,976).
att(538,825).
att(554,1146).
att(569,976).
att(550,815).
att(544,815).
att(1336,647).
att(1344,646).
att(1349,636).
att(1445,131).
att(1457,416).
att(557,1234).
att(1401,695).
att(533,1280).
att(1416,686).
att(1396,670).
att(297,681).
att(287,660).
att(287,657).
att(1396,472).
att(520,1284).
att(251,683).
att(1406,698).
att(290,625).
att(1406,689).
att(1299,1402).
att(1420,663).
att(292,727).
att(292,726).
att(528,984).
att(1396,647).
att(281,716).
att(1304,1339).
att(529,976).
att(1401,627).
att(1406,592).
att(1308,1409).
att(292,715).
att(1416,661).
att(281,702).
att(300,706).
att(1412,689).
att(1406,624).
att(547,992).
att(522,805).
att(526,786).
att(1319,640).
att(534,1132).
att(529,817).
att(529,1147).
att(284,722).
att(531,1132).
att(1311,594).
att(520,1146).
att(1315,624).
att(1148,1376).
att(1323,1109).
att(1327,1098).
att(1311,1057).
att(533,1226).
att(520,1191).
att(534,1222).
att(524,1236).
att(1154,1341).
att(1329,600).
att(529,1225).
att(1370,1481).
att(1372,1490).
att(1270,1098).
att(613,784).
att(1308,647).
att(1367,1479).
att(654,979).
att(611,825).
att(1370,1486).
att(1392,1503).
att(1416,419).
att(608,832).
att(1304,1102).
att(1393,384).
att(611,1146).
att(1301,665).
att(1386,1507).
att(1295,1109).
att(1293,607).
att(1247,503).
att(1293,601).
att(1372,1463).
att(1401,386).
att(1392,1479).
att(620,1223).
att(618,1226).
att(1297,1092).
att(1390,1463).
att(1306,463).
att(534,267).
att(1406,271).
att(1304,472).
att(531,252).
att(531,264).
att(1393,216).
att(1154,1055).
att(531,258).
att(1416,266).
att(660,949).
att(650,1170).
att(1162,1040).
att(1412,1465).
att(662,1282).
att(648,1222).
att(1329,431).
att(625,781).
att(1396,268).
att(1406,268).
att(1412,1462).
att(622,763).
att(1295,498).
att(1150,1042).
att(1301,696).
att(1293,695).
att(1416,227).
att(611,782).
att(1304,661).
att(618,796).
att(618,794).
att(1399,179).
att(1308,671).
att(1393,118).
att(1396,128).
att(620,765).
att(1304,638).
att(1396,118).
att(1293,686).
att(1295,665).
att(1406,118).
att(662,984).
att(614,789).
att(1416,170).
att(1295,664).
att(1297,670).
att(1418,229).
att(1364,1510).
att(662,989).
att(1293,473).
att(613,796).
att(657,975).
att(650,933).
att(622,816).
att(1455,1432).
att(1457,1436).
att(576,1135).
att(1372,429).
att(1472,1488).
att(1468,1454).
att(1468,1452).
att(572,1137).
att(1355,504).
att(574,1135).
att(1336,501).
att(1457,1434).
att(580,1176).
att(1260,1110).
att(1336,491).
att(1468,1461).
att(1455,1460).
att(1364,437).
att(1386,136).
att(1386,134).
att(1064,1376).
att(569,1135).
att(1472,1507).
att(578,1236).
att(1250,585).
att(588,1222).
att(1457,1464).
att(1358,463).
att(569,1240).
att(1331,689).
att(1250,978).
att(1445,212).
att(588,1274).
att(1207,1409).
att(1361,463).
att(1445,272).
att(572,1291).
att(1347,477).
att(1220,991).
att(576,1272).
att(1247,1049).
att(1220,978).
att(547,767).
att(1266,1110).
att(1331,468).
att(1472,1461).
att(1347,504).
att(555,808).
att(1447,266).
att(547,782).
att(1445,1439).
att(1468,1437).
att(557,808).
att(574,1272).
att(1370,216).
att(1218,664).
att(1266,696).
att(1372,224).
att(1377,229).
att(625,1284).
att(1085,1403).
att(1308,1000).
att(1375,230).
att(618,1280).
att(1263,689).
att(1367,229).
att(1072,1408).
att(625,929).
att(1377,170).
att(1308,994).
att(574,773).
att(1370,265).
att(566,767).
att(588,825).
att(1250,469).
att(578,796).
att(1367,224).
att(1386,270).
att(574,794).
att(1370,124).
att(1370,126).
att(1065,1403).
att(1075,1379).
att(1445,1488).
att(1445,1481).
att(586,1143).
att(574,784).
att(1468,1507).
att(1386,116).
att(1468,1509).
att(1218,627).
att(1072,1405).
att(1367,122).
att(608,992).
att(608,979).
att(572,1146).
att(1223,336).
att(235,418).
att(709,947).
att(830,1369).
att(1232,317).
att(700,1233).
att(817,1514).
att(398,816).
att(1272,655).
att(396,818).
att(557,436).
att(1272,649).
att(403,824).
att(244,381).
att(275,35).
att(578,1458).
att(710,993).
att(1289,336).
att(1282,540).
att(275,11).
att(553,429).
att(832,1421).
att(407,1180).
att(701,948).
att(1282,536).
att(1284,535).
att(547,382).
att(1142,1522).
att(707,928).
att(574,1452).
att(1286,451).
att(278,31).
att(490,974).
att(588,1486).
att(700,934).
att(1272,527).
att(237,117).
att(574,1461).
att(231,379).
att(554,136).
att(830,1425).
att(401,773).
att(830,1430).
att(1232,397).
att(547,419).
att(820,1443).
att(708,1052).
att(588,1510).
att(702,996).
att(827,1500).
att(802,1259).
att(403,775).
att(1222,393).
att(553,126).
att(1223,393).
att(538,134).
att(547,126).
att(569,1481).
att(559,170).
att(1280,692).
att(1230,457).
att(1274,573).
att(507,992).
att(405,786).
att(1232,435).
att(1282,612).
att(550,116).
att(1282,575).
att(248,379).
att(681,1134).
att(704,1041).
att(246,392).
att(234,415).
att(405,796).
att(822,1466).
att(235,378).
att(403,805).
att(507,984).
att(396,786).
att(822,1450).
att(574,1508).
att(273,346).
att(717,1108).
att(794,1249).
att(273,344).
att(574,134).
att(830,1474).
att(374,1291).
att(1230,466).
att(718,1050).
att(374,1223).
att(1225,511).
att(237,262).
att(244,225).
att(572,126).
att(1225,488).
att(1232,551).
att(288,349).
att(711,1136).
att(403,1291).
att(613,1508).
att(1223,518).
att(582,230).
att(275,432).
att(714,1038).
att(288,430).
att(278,415).
att(1289,464).
att(1232,510).
att(447,786).
att(718,1099).
att(407,935).
att(799,1335).
att(719,591).
att(288,388).
att(707,1192).
att(458,781).
att(401,1278).
att(452,767).
att(713,1095).
att(282,347).
att(403,949).
att(282,344).
att(784,1429).
att(576,214).
att(794,1328).
att(1223,523).
att(407,1234).
att(700,1188).
att(288,37).
att(720,623).
att(720,629).
att(234,209).
att(1222,536).
att(233,215).
att(576,259).
att(765,1335).
att(784,1478).
att(576,257).
att(700,1235).
att(830,1523).
att(1223,548).
att(704,1244).
att(447,751).
att(576,1439).
att(1230,545).
att(407,1228).
att(569,214).
att(718,635).
att(832,1520).
att(1225,481).
att(403,1174).
att(588,1436).
att(588,1438).
att(707,1287).
att(574,270).
att(574,259).
att(713,623).
att(794,1389).
att(805,1448).
att(1228,688).
att(1240,393).
att(526,384).
att(550,1464).
att(529,436).
att(541,1459).
att(369,346).
att(530,131).
att(519,808).
att(483,941).
att(509,785).
att(354,414).
att(483,929).
att(528,419).
att(520,433).
att(554,1485).
att(367,346).
att(515,765).
att(533,187).
att(357,424).
att(513,825).
att(528,132).
att(1174,333).
att(1240,441).
att(799,1384).
att(1234,435).
att(369,417).
att(371,133).
att(1240,448).
att(1230,631).
att(483,975).
att(1225,653).
att(1225,649).
att(683,1108).
att(1291,688).
att(1232,587).
att(354,121).
att(1222,655).
att(509,1143).
att(533,181).
att(467,974).
att(802,1446).
att(660,1134).
att(674,990).
att(674,996).
att(340,267).
att(805,1498).
att(547,1509).
att(979,1207).
att(334,252).
att(526,126).
att(662,1193).
att(1234,480).
att(656,1134).
att(327,269).
att(799,1484).
att(462,1176).
att(779,1243).
att(483,1232).
att(976,1207).
att(656,1181).
att(321,252).
att(544,1506).
att(331,215).
att(507,789).
att(513,781).
att(765,1444).
att(471,1228).
att(509,808).
att(1174,406).
att(524,229).
att(676,1091).
att(1176,494).
att(1170,518).
att(1170,506).
att(1236,480).
att(529,214).
att(657,1171).
att(650,1185).
att(569,1509).
att(982,1145).
att(538,118).
att(708,590).
att(992,1306).
att(781,1312).
att(1174,562).
att(248,311).
att(363,258).
att(796,1493).
att(369,210).
att(687,1245).
att(708,584).
att(559,254).
att(976,1295).
att(751,1346).
att(237,25).
att(1168,545).
att(979,1297).
att(559,268).
att(773,1242).
att(513,1289).
att(765,1500).
att(1169,461).
att(702,591).
att(241,346).
att(675,1245).
att(394,777).
att(687,1294).
att(709,626).
att(239,351).
att(244,25).
att(1240,523).
att(398,751).
att(976,1154).
att(557,268).
att(1234,536).
att(799,1522).
att(789,1474).
att(365,225).
att(706,632).
att(979,1145).
att(513,1222).
att(674,1177).
att(1169,480).
att(233,41).
att(681,1275).
att(1236,685).
att(371,120).
att(1169,621).
att(779,1363).
att(975,1218).
att(1238,573).
att(1174,617).
att(767,1413).
att(672,1245).
att(701,599).
att(995,1325).
att(777,1473).
att(1178,400).
att(984,1333).
att(986,1327).
att(357,115).
att(533,386).
att(490,825).
att(700,633).
att(471,984).
att(354,172).
att(367,135).
att(674,1233).
att(674,1231).
att(700,632).
att(771,1320).
att(979,1266).
att(771,1316).
att(771,1324).
att(233,311).
att(982,1301).
att(674,1294).
att(995,1253).
att(369,166).
att(492,1143).
att(777,1384).
att(1240,589).
att(492,818).
att(763,1517).
att(234,318).
att(509,1238).
att(687,985).
att(559,1483).
att(509,1170).
att(544,1432).
att(321,1236).
att(340,1168).
att(529,669).
att(129,255).
att(321,1174).
att(155,219).
att(337,1169).
att(654,181).
att(1178,1316).
att(1234,1519).
att(650,175).
att(989,536).
att(1172,1493).
att(1191,1316).
att(974,494).
att(728,1224).
att(337,1232).
att(1240,1513).
att(526,696).
att(725,1171).
att(1133,1262).
att(1180,1346).
att(331,1176).
att(334,1236).
att(1191,1346).
att(731,1273).
att(650,224).
att(1182,1242).
att(321,1141).
att(524,474).
att(989,579).
att(129,171).
att(410,974).
att(1168,1522).
att(1169,1517).
att(662,1438).
att(1191,1363).
att(729,1279).
att(330,1137).
att(340,815).
att(129,178).
att(1184,1366).
att(337,820).
att(452,979).
att(327,817).
att(656,1428).
att(522,474).
att(662,1454).
att(449,982).
att(656,1436).
att(321,1180).
att(524,503).
att(622,436).
att(1182,1314).
att(1238,1521).
att(654,1435).
att(303,1141).
att(618,386).
att(327,1135).
att(976,527).
att(1170,1521).
att(324,1137).
att(334,816).
att(354,1141).
att(354,1140).
att(1002,512).
att(530,606).
att(673,1431).
att(979,692).
att(1184,1467).
att(357,827).
att(932,454).
att(975,589).
att(944,512).
att(363,832).
att(531,1094).
att(687,1486).
att(657,386).
att(674,1436).
att(656,433).
att(324,979).
att(656,382).
att(674,1437).
att(1191,1469).
att(353,1133).
att(529,1106).
att(530,605).
att(654,384).
att(984,612).
att(982,583).
att(672,1464).
att(1135,1389).
att(361,1146).
att(1132,1425).
att(1191,1480).
att(371,769).
att(357,781).
att(933,510).
att(303,1291).
att(1140,1252).
att(533,661).
att(656,126).
att(528,627).
att(1140,1357).
att(528,624).
att(337,1228).
att(361,782).
att(650,421).
att(1142,1243).
att(656,187).
att(927,461).
att(1146,1360).
att(365,781).
att(1002,488).
att(662,229).
att(938,461).
att(941,508).
att(357,763).
att(650,144).
att(662,179).
att(731,1183).
att(526,646).
att(337,941).
att(728,1193).
att(975,690).
att(353,824).
att(1137,1444).
att(726,1179).
att(933,506).
att(1140,1246).
att(935,488).
att(1178,1497).
att(1141,1265).
att(938,478).
att(726,1193).
att(656,229).
att(974,705).
att(650,126).
att(929,508).
att(1142,1320).
att(449,1147).
att(720,1294).
att(729,623).
att(938,631).
att(442,1180).
att(278,223).
att(608,218).
att(1002,631).
att(410,815).
att(288,178).
att(458,1138).
att(1137,1520).
att(1140,1417).
att(452,1147).
att(1141,1398).
att(1280,333).
att(146,29).
att(442,1236).
att(718,1281).
att(941,551).
att(137,309).
att(1182,1478).
att(932,545).
att(716,1273).
att(1140,1326).
att(295,184).
att(449,1133).
att(927,551).
att(142,311).
att(1180,1515).
att(718,934).
att(938,684).
att(412,763).
att(611,1438).
att(717,942).
att(951,391).
att(949,400).
att(941,579).
att(941,609).
att(373,949).
att(1140,1469).
att(447,830).
att(719,985).
att(410,767).
att(614,1454).
att(618,1483).
att(376,926).
att(572,429).
att(442,784).
att(616,1459).
att(625,1483).
att(1280,402).
att(713,999).
att(717,977).
att(618,1485).
att(447,1182).
att(288,127).
att(721,1039).
att(718,977).
att(452,784).
att(941,587).
att(719,1050).
att(288,130).
att(410,792).
att(625,1508).
att(935,589).
att(1141,1371).
att(331,775).
att(129,417).
att(412,1278).
att(449,949).
att(620,423).
att(303,769).
att(1284,508).
att(455,926).
att(458,935).
att(1276,375).
att(452,1284).
att(657,1485).
att(820,1262).
att(330,805).
att(620,134).
att(452,1276).
att(613,429).
att(658,1503).
att(140,377).
att(1274,510).
att(723,999).
att(618,126).
att(129,120).
att(314,818).
att(725,977).
att(1147,1440).
att(1143,1471).
att(314,1146).
att(618,187).
att(340,824).
att(458,995).
att(654,1486).
att(652,1499).
att(1272,404).
att(650,1490).
att(654,1508).
att(279,225).
att(832,1328).
att(817,1513).
att(648,1499).
att(648,1503).
att(820,1322).
att(447,1286).
att(722,1108).
att(815,1493).
att(728,595).
att(720,1171).
att(1272,564).
att(275,262).
att(1141,1517).
att(1280,536).
att(445,1286).
att(458,1274).
att(1146,1480).
att(447,935).
att(817,1426).
att(155,348).
att(137,388).
att(618,271).
att(817,1424).
att(713,1193).
att(729,591).
att(723,1105).
att(726,599).
att(149,349).
att(720,1229).
att(822,1360).
att(1280,561).
att(231,944).
att(1280,1424).
att(275,789).
att(700,430).
att(231,1002).
att(574,590).
att(704,417).
att(244,1223).
att(702,424).
att(588,633).
att(282,751).
att(704,420).
att(278,808).
att(1280,1450).
att(248,932).
att(554,1229).
att(550,1231).
att(572,629).
att(559,947).
att(1282,1369).
att(707,117).
att(711,166).
att(547,1233).
att(704,120).
att(288,808).
att(246,951).
att(278,824).
att(708,172).
att(557,1275).
att(550,1227).
att(1284,1456).
att(554,1273).
att(1230,1243).
att(538,1229).
att(1272,1494).
att(681,310).
att(1286,1346).
att(702,174).
att(244,1135).
att(1272,1497).
att(1272,1429).
att(554,945).
att(1274,1423).
att(711,269).
att(248,1286).
att(273,769).
att(275,782).
att(275,777).
att(541,934).
att(557,993).
att(241,1291).
att(544,942).
att(244,1240).
att(704,225).
att(1289,1421).
att(713,176).
att(1230,1314).
att(578,934).
att(586,993).
att(718,225).
att(700,37).
att(721,260).
att(277,1176).
att(295,1142).
att(278,1170).
att(288,1184).
att(582,980).
att(713,215).
att(704,25).
att(720,262).
att(710,344).
att(582,987).
att(949,1517).
att(578,996).
att(586,1108).
att(1232,1342).
att(569,1003).
att(1274,1478).
att(707,305).
att(298,1170).
att(566,999).
att(951,1517).
att(702,352).
att(1282,1520).
att(278,1291).
att(711,387).
att(1284,1517).
att(588,1052).
att(1225,1351).
att(711,346).
att(709,344).
att(704,305).
att(277,1228).
att(1272,1476).
att(248,979).
att(576,1041).
att(275,1146).
att(700,349).
att(1289,1473).
att(1289,1466).
att(246,992).
att(701,306).
att(285,824).
att(557,1134).
att(1226,1466).
att(288,820).
att(582,1097).
att(708,430).
att(554,1179).
att(586,581).
att(709,432).
att(700,348).
att(547,1183).
att(1232,1411).
att(554,1193).
att(1232,1385).
att(1291,1444).
att(541,1188).
att(574,1095).
att(522,1245).
att(687,228).
att(533,952).
att(353,1277).
att(1238,1256).
att(530,1281).
att(231,779).
att(550,637).
att(673,123).
att(1172,1243).
att(1170,1256).
att(234,769).
att(538,623).
att(520,1287).
att(538,629).
att(1226,1502).
att(524,1273).
att(673,172).
att(1289,1430).
att(652,41).
att(676,174).
att(683,217).
att(235,775).
att(361,949).
att(1286,1513).
att(659,312).
att(241,769).
att(369,1228).
att(529,930).
att(533,996).
att(675,210).
att(1226,1440).
att(1236,1265).
att(234,765).
att(359,1274).
att(534,977).
att(533,1056).
att(683,267).
att(683,258).
att(652,319).
att(676,225).
att(531,996).
att(986,336).
att(1172,1320).
att(657,305).
att(679,258).
att(648,319).
att(533,1038).
att(652,306).
att(365,1182).
att(1240,1357).
att(1240,1360).
att(1230,1480).
att(1168,1243).
att(1234,1322).
att(361,1169).
att(533,1105).
att(1225,1502).
att(359,1170).
att(365,1132).
att(1222,1498).
att(520,1058).
att(1172,1360).
att(656,389).
att(235,1143).
att(701,217).
att(235,815).
att(700,219).
att(555,1108).
att(547,987).
att(248,818).
att(246,832).
att(677,344).
att(237,818).
att(544,977).
att(673,355).
att(677,346).
att(687,432).
att(533,1181).
att(1222,1520).
att(533,1183).
att(1240,1414).
att(550,1052).
att(530,1134).
att(239,1138).
att(677,377).
att(239,1137).
att(550,1108).
att(237,1184).
att(237,808).
att(679,432).
att(673,377).
att(530,1173).
att(995,510).
att(1240,1441).
att(1240,1425).
att(246,779).
att(361,938).
att(369,1280).
att(361,927).
att(1176,1430).
att(357,929).
att(1180,1265).
att(354,992).
att(554,595).
att(234,785).
att(675,133).
att(231,817).
att(237,822).
att(1174,1389).
att(1174,1371).
att(555,645).
att(681,186).
att(530,1231).
att(371,989).
att(550,595).
att(529,1245).
att(555,639).
att(1240,1450).
att(673,135).
att(986,496).
att(365,935).
att(672,415).
att(528,1233).
att(526,1490).
att(531,1503).
att(152,989).
att(528,1503).
att(976,1414).
att(529,1507).
att(622,1183).
att(650,1058).
att(727,346).
att(650,993).
att(657,1043).
att(730,381).
att(524,1509).
att(524,1508).
att(979,1314).
att(652,1039).
att(618,1183).
att(725,390).
att(982,1354).
att(658,1105).
att(648,1108).
att(976,1321).
att(620,1134).
att(660,602).
att(611,1183).
att(652,1105).
att(975,1389).
att(1449,1407).
att(975,1391).
att(146,1284).
att(975,1385).
att(1445,1397).
att(613,1136).
att(975,1366).
att(155,941).
att(728,130).
att(608,1183).
att(726,418).
att(630,1224).
att(1457,1380).
att(657,602).
att(986,1430).
att(976,1363).
att(728,120).
att(149,927).
att(142,992).
att(656,645).
att(726,184).
att(650,581).
att(984,1369).
att(657,643).
att(1390,1405).
att(529,272).
att(676,584).
att(941,1254).
att(1002,1360).
att(524,218).
att(534,263).
att(673,584).
att(1367,1374).
att(676,604).
att(526,216).
att(520,226).
att(531,266).
att(982,1504).
att(656,1224).
att(933,1256).
att(674,581).
att(1386,1365).
att(657,1229).
att(672,602).
att(672,599).
att(979,1429).
att(1367,1408).
att(524,266).
att(524,270).
att(730,25).
att(674,637).
att(1386,1405).
att(984,1441).
att(729,29).
att(1002,1243).
att(650,1227).
att(726,41).
att(728,311).
att(658,999).
att(975,1482).
att(652,952).
att(656,934).
att(730,350).
att(530,1485).
att(941,1342).
att(932,1243).
att(989,1520).
att(657,999).
att(975,1511).
att(1370,1340).
att(944,1360).
att(982,1511).
att(648,999).
att(656,996).
att(992,1520).
att(726,305).
att(729,356).
att(995,1521).
att(657,987).
att(533,1507).
att(730,390).
att(611,1108).
att(288,975).
att(298,933).
att(715,377).
att(137,827).
att(163,789).
att(155,786).
att(941,1385).
att(288,992).
att(719,424).
att(630,604).
att(278,989).
att(576,1193).
att(712,346).
att(721,418).
att(720,418).
att(927,1389).
att(152,808).
att(277,989).
att(975,1517).
att(129,1135).
att(712,377).
att(298,995).
att(618,604).
att(719,127).
att(588,1227).
att(588,1231).
att(145,815).
att(279,984).
att(279,975).
att(282,986).
att(576,1224).
att(720,184).
att(620,643).
att(618,645).
att(572,1294).
att(611,623).
att(611,629).
att(716,121).
att(298,1274).
att(278,992).
att(1002,1423).
att(718,180).
att(155,775).
att(719,213).
att(707,39).
att(137,782).
att(275,929).
att(702,41).
att(708,312).
att(938,1443).
att(728,228).
att(929,1477).
att(929,1474).
att(622,948).
att(1002,1522).
att(145,1291).
att(152,1176).
att(145,1226).
att(927,1492).
att(728,221).
att(1280,1335).
att(1274,1256).
att(1282,1254).
att(1455,1340).
att(1472,1394).
att(926,1442).
att(1449,1368).
att(608,1273).
att(941,1497).
att(1447,1376).
att(730,264).
att(152,1228).
att(718,315).
att(941,1478).
att(1278,1348).
att(620,939).
att(730,260).
att(1272,1265).
att(720,305).
att(724,215).
att(1282,1421).
att(926,1516).
att(129,1240).
att(926,1514).
att(718,308).
att(1284,1411).
att(723,225).
att(145,1182).
att(145,1138).
att(1272,1414).
att(616,996).
att(720,344).
att(137,1176).
att(618,1043).
att(941,1521).
att(608,1056).
att(719,383).
att(721,428).
att(630,1093).
att(1272,1318).
att(630,1091).
att(715,344).
att(933,1521).
att(1272,1326).
att(720,378).
att(1272,1312).
att(714,646).
att(714,644).
att(369,1490).
att(715,661).
att(827,1392).
att(789,1060).
att(1232,337).
att(235,144).
att(820,1392).
att(832,1453).
att(786,1393).
att(820,1372).
att(246,431).
att(711,940).
att(820,1367).
att(233,122).
att(490,999).
att(611,1405).
att(794,1064).
att(713,664).
att(785,1418).
att(805,1194).
att(248,126).
att(394,1181).
att(712,661).
att(717,698).
att(513,1108).
att(714,661).
att(517,1097).
att(786,1344).
att(241,170).
att(239,128).
att(239,118).
att(492,993).
att(244,136).
att(1240,129).
att(794,1152).
att(805,1306).
att(700,1000).
att(1240,145).
att(704,1014).
att(1289,513).
att(710,1110).
att(354,1458).
att(1286,485).
att(802,1250).
att(708,1040).
att(517,1281).
att(517,1279).
att(365,266).
att(234,433).
att(471,623).
att(718,504).
att(233,144).
att(714,474).
att(233,132).
att(700,1059).
att(718,493).
att(832,1451).
att(711,1096).
att(802,1144).
att(234,423).
att(820,1470).
att(702,1047).
att(716,499).
att(792,1154).
att(369,1436).
att(365,1436).
att(509,996).
att(515,939).
att(248,259).
att(248,257).
att(407,1273).
att(729,499).
att(1240,231).
att(495,629).
att(713,988).
att(728,502).
att(721,1106).
att(246,259).
att(796,1266).
att(490,593).
att(244,214).
att(513,629).
att(719,1092).
att(721,1102).
att(802,1325).
att(802,1313).
att(1174,140).
att(794,1308).
att(799,1255).
att(1289,465).
att(799,1260).
att(1232,483).
att(405,947).
att(405,952).
att(235,1434).
att(233,1459).
att(248,179).
att(765,1315).
att(713,606).
att(808,1422).
att(246,179).
att(374,1183).
att(799,1412).
att(244,118).
att(246,182).
att(1234,455).
att(492,1052).
att(782,1203).
att(246,122).
att(720,646).
att(975,876).
att(779,1060).
att(234,271).
att(765,1323).
att(781,1064).
att(1222,543).
att(495,584).
att(1174,241).
att(718,624).
att(794,1344).
att(231,257).
att(507,643).
att(630,1409).
att(1232,568).
att(231,1439).
att(376,1241).
att(718,634).
att(1170,359).
att(234,261).
att(976,878).
att(246,177).
att(614,1381).
att(782,1060).
att(490,1105).
att(234,265).
att(513,595).
att(569,1410).
att(354,136).
att(687,988).
att(995,1111).
att(775,1152).
att(808,1451).
att(681,1057).
att(353,131).
att(146,493).
att(361,382).
att(324,1452).
att(359,427).
att(479,980).
att(460,947).
att(700,695).
att(485,999).
att(771,1190).
att(700,693).
att(771,1186).
att(357,131).
att(489,1039).
att(354,183).
att(765,1396).
att(483,1058).
att(775,1203).
att(708,501).
att(707,477).
att(330,1506).
att(1240,410).
att(337,1479).
att(808,1377).
att(674,978).
att(976,965).
att(976,953).
att(782,1154).
att(340,1483).
att(700,477).
att(782,1150).
att(1172,445).
att(1236,405).
att(1236,407).
att(1172,439).
att(700,476).
att(679,1042).
att(359,416).
att(765,1418).
att(672,1055).
att(675,1047).
att(483,1288).
att(1184,285).
att(137,475).
att(303,218).
att(673,1040).
att(702,502).
att(781,1218).
att(702,499).
att(152,472).
att(155,477).
att(340,265).
att(324,257).
att(1240,543).
att(487,1294).
att(674,1045).
att(543,595).
att(334,218).
att(1176,462).
att(1234,563).
att(976,1195).
att(324,1439).
att(700,498).
att(489,930).
att(675,1100).
att(340,1433).
att(471,1290).
att(155,493).
att(471,1227).
att(146,477).
att(483,950).
att(982,1117).
att(1174,403).
att(781,1304).
att(676,1100).
att(334,270).
att(1180,278).
att(986,1211).
att(354,380).
att(687,627).
att(674,1104).
att(507,1288).
att(487,629).
att(507,1290).
att(701,1045).
att(1174,571).
att(1182,365).
att(781,1323).
att(781,1325).
att(944,881).
att(711,594).
att(465,599).
att(995,1298).
att(773,1333).
att(507,1294).
att(515,1171).
att(704,1094).
att(1133,353).
att(517,1237).
att(369,230).
att(767,1323).
att(704,607).
att(704,606).
att(782,1418).
att(1168,549).
att(357,266).
att(371,261).
att(1184,237).
att(369,257).
att(465,645).
att(483,632).
att(580,1381).
att(1180,363).
att(700,603).
att(515,1294).
att(576,1365).
att(1180,367).
att(707,640).
att(1135,410).
att(507,1185).
att(707,624).
att(700,647).
att(782,1453).
att(369,128).
att(588,1404).
att(982,1267).
att(771,1393).
att(507,1193).
att(1184,410).
att(781,1453).
att(324,1505).
att(1133,449).
att(1180,407).
att(576,1394).
att(769,1388).
att(751,1422).
att(324,1507).
att(569,1373).
att(932,881).
att(517,1175).
att(487,591).
att(711,694).
att(465,1105).
att(578,1410).
att(702,664).
att(709,689).
att(367,128).
att(574,1405).
att(334,1509).
att(517,1134).
att(706,696).
att(751,1327).
att(460,1050).
att(974,462).
att(941,237).
att(982,479).
att(155,224).
att(568,119).
att(932,295).
att(455,581).
att(442,591).
att(565,418).
att(543,377).
att(565,424).
att(445,593).
att(938,361).
att(1189,744).
att(984,546).
att(1180,1325).
att(1189,743).
att(334,1185).
att(1189,749).
att(681,1380).
att(1132,1304).
att(975,513).
att(975,495).
att(556,135).
att(944,282).
att(1184,1218).
att(927,278).
att(546,135).
att(995,549).
att(337,1235).
att(775,577).
att(933,298).
att(337,1239).
att(546,422).
att(546,415).
att(675,1381).
att(146,212).
att(782,610).
att(675,1368).
att(782,579).
att(1143,1060).
att(1137,1327).
att(1184,1420).
att(155,126).
att(773,705).
att(771,685).
att(1184,1401).
att(674,1380).
att(565,347).
att(674,1374).
att(145,124).
att(410,999).
att(672,1380).
att(675,1405).
att(731,931).
att(129,214).
att(447,584).
att(1147,1062).
att(1135,1310).
att(769,688).
att(412,1039).
att(771,579).
att(779,692).
att(941,357).
att(340,1136).
att(543,344).
att(565,385).
att(767,705).
att(565,377).
att(568,381).
att(324,1183).
att(324,1139).
att(1147,1064).
att(938,495).
att(552,262).
att(704,1394).
att(340,996).
att(565,264).
att(487,350).
att(1140,1306).
att(546,225).
att(704,1403).
att(558,217).
att(1191,1470).
att(303,987).
att(137,1506).
att(941,452).
att(327,1095).
att(1140,1158).
att(1141,1145).
att(1178,1451).
att(149,1483).
att(327,1041).
att(465,350).
att(546,258).
att(1141,1162).
att(483,348).
att(331,993).
att(1146,1150).
att(543,269).
att(926,314).
att(1135,1386).
att(571,217).
att(483,27).
att(929,467).
att(565,209).
att(340,952).
att(941,483).
att(467,39).
att(556,123).
att(155,1434).
att(487,41).
att(543,120).
att(337,1227).
att(1141,1336).
att(340,942).
att(489,307).
att(556,172).
att(929,497).
att(1282,163).
att(1137,1470).
att(1284,137).
att(340,999).
att(1137,1451).
att(941,492).
att(1284,146).
att(145,1481).
att(1140,1293).
att(1140,1299).
att(327,945).
att(334,1273).
att(1158,746).
att(324,999).
att(1280,285).
att(1146,1255).
att(1158,740).
att(327,999).
att(248,1507).
att(376,1046).
att(273,170).
att(951,314).
att(724,600).
att(1142,1313).
att(246,1507).
att(659,1374).
att(1075,745).
att(731,663).
att(731,664).
att(278,230).
att(447,1193).
att(822,1072).
att(398,1093).
att(394,1091).
att(1280,330).
att(275,173).
att(1069,742).
att(731,667).
att(1069,743).
att(1274,359).
att(376,1105).
att(394,602).
att(278,268).
att(723,627).
att(458,1241).
att(288,224).
att(941,549).
att(719,931).
att(656,1408).
att(727,661).
att(927,568).
att(401,1093).
att(455,1188).
att(246,1458).
att(654,1409).
att(248,1459).
att(1146,1451).
att(248,1452).
att(235,1464).
att(724,671).
att(723,663).
att(288,421).
att(723,664).
att(817,1399).
att(718,931).
att(1140,1470).
att(784,1207).
att(718,1000).
att(1140,1445).
att(275,423).
att(237,1460).
att(1272,410).
att(273,128).
att(394,1108).
att(231,1507).
att(407,1038).
att(728,473).
att(246,1491).
att(278,168).
att(288,126).
att(298,134).
att(244,1463).
att(1284,452).
att(288,144).
att(818,1393).
att(237,1483).
att(1272,324).
att(784,1082).
att(1278,412).
att(1280,447).
att(1280,439).
att(1064,742).
att(278,1483).
att(1291,273).
att(786,1145).
att(817,1468).
att(1286,282).
att(298,1438).
att(412,952).
att(1277,517).
att(546,10).
att(373,645).
att(445,930).
att(442,999).
att(449,1281).
att(724,994).
att(731,1049).
att(1223,142).
att(452,948).
att(822,1218).
att(785,1308).
att(1272,495).
att(830,1304).
att(1280,495).
att(458,983).
att(1291,140).
att(285,1483).
att(458,990).
att(146,437).
att(568,349).
att(1284,497).
att(455,1005).
att(1277,376).
att(1228,152).
att(142,134).
att(1272,374).
att(1280,515).
att(374,595).
att(728,1094).
att(455,1231).
att(278,1434).
att(405,626).
att(1210,747).
att(1276,549).
att(730,592).
att(410,1179).
att(449,1173).
att(662,1339).
att(785,1352).
att(658,1341).
att(373,639).
att(1230,295).
att(373,626).
att(1232,288).
att(1282,462).
att(820,1253).
att(820,1344).
att(568,27).
att(784,1266).
att(455,1227).
att(730,627).
att(449,1227).
att(724,592).
att(449,1231).
att(822,1331).
att(721,1505).
att(576,598).
att(582,601).
att(718,1483).
att(582,605).
att(569,607).
att(832,536).
att(832,537).
att(1232,1145).
att(495,176).
att(1276,1392).
att(376,41).
att(721,1499).
att(802,323).
att(513,174).
att(365,645).
att(704,136).
att(1228,1306).
att(234,939).
att(237,1283).
att(248,942).
att(495,209).
att(497,225).
att(700,421).
att(1289,1160).
att(492,215).
att(1232,1197).
att(1282,1377).
att(398,307).
att(566,627).
att(1280,1468).
att(1289,1154).
att(794,320).
att(1289,1358).
att(513,133).
att(799,446).
att(825,655).
att(588,693).
att(495,414).
att(832,685).
att(711,271).
att(1232,1331).
att(588,695).
att(711,222).
att(233,1227).
att(582,695).
att(234,1294).
att(566,663).
att(820,587).
att(354,633).
att(822,628).
att(554,1006).
att(559,997).
att(371,639).
att(588,476).
att(707,222).
att(707,226).
att(711,254).
att(704,214).
att(709,254).
att(557,991).
att(1232,1220).
att(580,472).
att(557,978).
att(507,169).
att(792,336).
att(507,167).
att(244,1244).
att(1226,1218).
att(513,117).
att(513,120).
att(557,1055).
att(785,537).
att(407,422).
att(394,420).
att(401,428).
att(235,1105).
att(288,1239).
att(239,595).
att(721,268).
att(716,218).
att(244,1041).
att(802,482).
att(277,1245).
att(618,470).
att(763,400).
att(784,692).
att(403,430).
att(1250,743).
att(574,1006).
att(246,604).
att(278,1283).
att(569,1006).
att(278,1275).
att(1291,1327).
att(786,655).
att(1236,1064).
att(233,632).
att(802,506).
att(588,1051).
att(405,420).
att(405,418).
att(720,1438).
att(716,266).
att(235,581).
att(237,602).
att(237,593).
att(580,1042).
att(718,1433).
att(1228,1451).
att(717,1432).
att(233,1108).
att(1240,1160).
att(495,264).
att(576,1109).
att(718,1438).
att(1289,1453).
att(244,945).
att(572,1042).
att(398,347).
att(588,1104).
att(720,1460).
att(1228,1470).
att(566,1109).
att(718,1462).
att(721,1483).
att(275,1192).
att(582,606).
att(1223,1418).
att(574,1109).
att(586,647).
att(719,1479).
att(246,1050).
att(405,378).
att(796,516).
att(374,344).
att(586,592).
att(398,432).
att(799,562).
att(1232,1372).
att(1225,1416).
att(1232,1367).
att(1226,1388).
att(608,503).
att(1172,1203).
att(353,1281).
att(340,635).
att(672,132).
att(992,277).
att(707,1501).
att(675,128).
att(467,115).
att(337,643).
att(681,230).
att(1176,1257).
att(1234,1361).
att(677,170).
att(683,229).
att(559,689).
att(1170,1220).
att(509,31).
att(802,573).
att(554,663).
att(974,163).
att(681,212).
att(765,542).
att(1174,1162).
att(357,1283).
att(557,693).
att(487,210).
att(675,227).
att(799,539).
att(976,129).
att(976,142).
att(517,33).
att(799,631).
att(989,277).
att(1234,1220).
att(1236,1247).
att(687,259).
att(782,323).
att(559,472).
att(672,168).
att(509,23).
att(1222,1451).
att(782,336).
att(353,1173).
att(550,693).
att(1172,1313).
att(303,1048).
att(354,1245).
att(489,414).
att(779,375).
att(1169,1352).
att(687,1439).
att(359,1188).
att(340,1090).
att(303,1044).
att(805,678).
att(371,1179).
att(353,1237).
att(995,359).
att(340,1099).
att(340,1105).
att(467,432).
att(547,699).
att(789,705).
att(361,1134).
att(796,692).
att(487,432).
att(479,417).
att(146,1503).
att(751,451).
att(340,593).
att(675,266).
att(340,591).
att(533,1049).
att(465,133).
att(773,336).
att(465,424).
att(485,418).
att(986,363).
att(1240,1310).
att(363,1245).
att(976,231).
att(337,1101).
att(371,1193).
att(314,632).
att(976,244).
att(687,1461).
att(782,393).
att(533,1092).
att(779,441).
att(1191,1160).
att(569,686).
att(495,390).
att(361,1095).
att(231,1185).
att(559,1110).
att(1176,1422).
att(557,1110).
att(460,256).
att(1304,745).
att(702,266).
att(495,355).
att(976,442).
att(517,345).
att(709,1438).
att(234,1179).
att(1236,1470).
att(513,344).
att(779,481).
att(460,269).
att(492,355).
att(574,476).
att(1302,745).
att(569,476).
att(782,464).
att(576,504).
att(353,597).
att(576,498).
att(363,599).
att(1240,1420).
att(519,135).
att(371,1105).
att(515,383).
att(708,1464).
att(574,500).
att(986,445).
att(777,482).
att(367,1038).
att(976,327).
att(354,599).
att(566,504).
att(1234,1377).
att(1191,1186).
att(771,391).
att(357,999).
att(929,163).
att(513,319).
att(554,607).
att(707,1454).
att(569,500).
att(706,1460).
att(1002,295).
att(465,221).
att(707,1463).
att(497,309).
att(1178,1299).
att(485,225).
att(517,310).
att(704,1461).
att(704,1452).
att(487,221).
att(1180,1247).
att(471,169).
att(710,1496).
att(479,262).
att(515,318).
att(554,598).
att(709,1487).
att(517,315).
att(979,405).
att(711,1496).
att(513,350).
att(1293,748).
att(471,219).
att(975,410).
att(1240,1468).
att(550,596).
att(767,481).
att(361,1056).
att(677,128).
att(673,419).
att(550,647).
att(369,939).
att(550,601).
att(361,977).
att(777,537).
att(1135,1154).
att(515,350).
att(777,523).
att(553,646).
att(1191,1299).
att(1191,484).
att(137,1046).
att(410,260).
att(549,1276).
att(331,355).
att(771,1469).
att(662,1053).
att(781,1425).
att(155,1052).
att(568,927).
att(658,1109).
att(935,1064).
att(1174,678).
att(650,981).
att(935,1203).
att(927,1062).
att(337,349).
att(773,1430).
att(774,586).
att(330,392).
att(487,773).
att(549,1286).
att(412,260).
att(764,715).
att(485,767).
att(324,347).
att(782,1498).
att(941,1065).
att(732,722).
att(976,1310).
att(471,767).
att(129,595).
att(303,344).
att(146,1050).
att(489,830).
att(155,1101).
att(992,1327).
att(778,541).
att(975,1331).
att(658,1102).
att(467,789).
att(730,419).
att(734,713).
att(648,1109).
att(776,544).
att(1176,680).
att(324,430).
att(1168,610).
att(1135,404).
att(726,437).
att(652,1102).
att(724,429).
att(728,419).
att(929,1156).
att(772,611).
att(782,1520).
att(771,1497).
att(455,217).
att(314,351).
att(654,1092).
att(728,136).
att(730,126).
att(327,25).
att(775,1519).
att(455,174).
att(657,601).
att(1180,540).
att(324,24).
att(439,210).
att(546,1180).
att(1135,564).
att(772,576).
att(556,1174).
att(458,262).
att(552,1230).
att(772,574).
att(941,1210).
att(556,1236).
att(155,996).
att(571,951).
att(772,569).
att(944,1203).
att(410,225).
att(571,949).
att(330,344).
att(340,306).
att(729,126).
att(775,1512).
att(340,308).
att(565,1226).
att(768,572).
att(1138,464).
att(327,305).
att(767,1513).
att(766,586).
att(524,1376).
att(724,126).
att(657,646).
att(984,1377).
att(926,1062).
att(303,123).
att(772,687).
att(929,1266).
att(321,176).
att(1143,320).
att(353,315).
att(465,1182).
att(941,1263).
att(1137,536).
att(768,677).
att(324,172).
att(554,1365).
att(674,592).
att(1133,651).
att(479,1169).
att(321,172).
att(674,601).
att(687,663).
att(361,27).
att(1135,525).
att(357,309).
att(1135,527).
att(677,661).
att(781,1523).
att(487,1222).
att(770,660).
att(772,654).
att(465,1176).
att(1184,536).
att(982,1468).
att(369,41).
att(554,1394).
att(1184,628).
att(324,209).
att(327,225).
att(673,644).
att(331,176).
att(672,636).
att(359,311).
att(479,1225).
att(1141,333).
att(359,23).
att(467,824).
att(681,695).
att(766,724).
att(1132,610).
att(471,794).
att(662,940).
att(817,441).
att(303,378).
att(750,712).
att(772,720).
att(1135,692).
att(479,818).
att(479,817).
att(547,1407).
att(757,553).
att(772,716).
att(1147,514).
att(330,121).
att(467,827).
att(1137,579).
att(1184,682).
att(770,719).
att(756,553).
att(142,595).
att(145,604).
att(330,135).
att(768,720).
att(935,1420).
att(324,420).
att(656,1001).
att(538,1405).
att(672,667).
att(774,723).
att(816,400).
att(324,415).
att(544,1409).
att(479,1180).
att(938,1313).
att(471,822).
att(662,1054).
att(155,632).
att(314,178).
att(676,686).
att(759,526).
att(321,123).
att(772,706).
att(662,988).
att(1143,435).
att(932,1255).
att(1002,1313).
att(340,184).
att(757,526).
att(933,1253).
att(353,31).
att(1184,579).
att(487,1146).
att(656,997).
att(1184,690).
att(770,702).
att(465,830).
att(674,693).
att(1141,406).
att(927,1352).
att(449,315).
att(725,1432).
att(734,531).
att(938,1455).
att(394,267).
att(403,252).
att(410,311).
att(648,504).
att(941,1372).
att(288,996).
att(458,306).
att(620,1096).
att(730,1490).
att(730,1487).
att(737,544).
att(933,1392).
att(278,1056).
att(410,41).
att(718,437).
att(447,350).
att(455,311).
att(455,23).
att(401,221).
att(713,384).
att(815,464).
att(282,930).
att(816,484).
att(552,751).
att(817,391).
att(951,1186).
att(1282,1069).
att(1142,512).
att(447,430).
att(730,1499).
att(718,134).
att(737,526).
att(298,996).
att(1277,1085).
att(736,526).
att(608,1094).
att(724,1487).
att(1280,1203).
att(728,1503).
att(568,782).
att(1280,1207).
att(279,1229).
att(713,419).
att(722,1486).
att(734,574).
att(403,121).
att(737,613).
att(820,320).
att(1140,653).
att(1358,742).
att(1272,1297).
att(764,538).
att(396,176).
att(735,555).
att(403,123).
att(816,537).
att(927,1455).
att(735,538).
att(951,1299).
att(278,993).
att(941,1470).
att(608,627).
att(630,686).
att(723,1503).
att(1143,562).
att(1276,1210).
att(439,319).
att(620,663).
att(733,555).
att(620,661).
att(622,689).
att(1331,744).
att(285,1283).
att(405,176).
att(275,936).
att(618,691).
att(713,179).
att(452,39).
att(403,176).
att(458,125).
att(658,663).
att(412,414).
att(571,1191).
att(820,435).
att(648,627).
att(1143,577).
att(558,832).
att(522,1374).
att(529,1397).
att(727,170).
att(951,1393).
att(657,664).
att(660,689).
att(734,648).
att(1140,703).
att(815,610).
att(785,444).
att(142,1294).
att(762,622).
att(764,611).
att(152,1245).
att(657,666).
att(830,451).
att(298,637).
att(439,174).
att(1274,1220).
att(949,1352).
att(145,930).
att(556,1141).
att(447,225).
att(648,663).
att(820,317).
att(827,444).
att(295,639).
att(733,622).
att(729,212).
att(1284,1266).
att(657,689).
att(657,693).
att(327,10).
att(657,696).
att(1141,575).
att(1280,1370).
att(817,705).
att(1282,1418).
att(832,464).
att(951,1390).
att(447,424).
att(825,518).
att(571,824).
att(817,680).
att(729,259).
att(622,1045).
att(630,1109).
att(737,717).
att(726,266).
att(630,1051).
att(662,503).
att(762,674).
att(458,415).
att(728,1435).
att(439,418).
att(558,763).
att(563,824).
att(155,1239).
att(571,1146).
att(620,1053).
att(556,805).
att(734,687).
att(832,496).
att(611,1055).
att(1277,1349).
att(556,763).
att(733,683).
att(650,476).
att(145,1241).
att(295,1108).
att(278,599).
att(830,511).
att(724,1434).
att(822,514).
att(1278,1399).
att(442,424).
att(1272,1323).
att(816,703).
att(277,599).
att(442,415).
att(650,477).
att(465,468).
att(507,1053).
att(462,472).
att(828,658).
att(828,662).
att(492,1000).
att(829,625).
att(495,1109).
att(821,588).
att(821,586).
att(828,611).
att(819,580).
att(826,614).
att(460,472).
att(835,630).
att(467,493).
att(465,667).
att(829,709).
att(337,1404).
att(809,522).
att(809,524).
att(485,663).
att(826,702).
att(821,672).
att(465,697).
att(487,463).
att(497,943).
att(487,468).
att(334,1410).
att(471,665).
att(509,991).
att(509,994).
att(460,670).
att(497,634).
att(361,1403).
att(828,730).
att(810,566).
att(509,667).
att(809,578).
att(371,1368).
att(826,726).
att(507,667).
att(517,693).
att(371,1407).
att(490,638).
att(492,646).
att(821,709).
att(826,715).
att(509,695).
att(517,605).
att(495,606).
att(1472,746).
att(495,1106).
att(791,572).
att(1468,749).
att(517,606).
att(515,1096).
att(492,1042).
att(513,1100).
att(814,616).
att(1451,744).
att(492,592).
att(495,592).
att(1445,746).
att(809,608).
att(791,544).
att(819,729).
att(467,931).
att(565,468).
att(758,616).
att(753,572).
att(761,625).
att(755,555).
att(549,475).
att(758,586).
att(467,997).
att(483,1055).
att(772,728).
att(483,1059).
att(485,988).
att(768,726).
att(558,689).
att(447,1403).
att(754,654).
att(565,627).
att(549,663).
att(755,622).
att(487,946).
att(489,1014).
att(753,622).
att(754,616).
att(489,946).
att(439,1409).
att(327,1373).
att(760,723).
att(327,1365).
att(835,533).
att(483,603).
att(483,596).
att(759,706).
att(489,661).
att(755,683).
att(485,664).
att(327,1403).
att(485,627).
att(314,1404).
att(835,613).
att(828,588).
att(465,1049).
att(465,1047).
att(828,572).
att(821,557).
att(1377,744).
att(485,1109).
att(487,594).
att(758,724).
att(828,547).
att(758,723).
att(487,1100).
att(556,501).
att(447,627).
att(412,1106).
att(458,585).
att(870,717).
att(868,720).
att(855,533).
att(868,713).
att(447,663).
att(275,1379).
att(565,124).
att(449,1057).
att(851,572).
att(849,582).
att(403,491).
att(458,1047).
att(841,538).
att(376,475).
att(851,557).
att(861,722).
att(867,716).
att(872,731).
att(847,550).
att(855,547).
att(568,382).
att(868,723).
att(442,1094).
att(861,713).
att(845,611).
att(571,1431).
att(851,660).
att(556,218).
att(458,469).
att(330,1049).
att(337,981).
att(549,268).
att(565,263).
att(337,937).
att(855,656).
att(855,659).
att(855,654).
att(556,270).
att(552,1432).
att(568,1460).
att(452,493).
att(855,618).
att(321,1040).
att(845,553).
att(314,937).
att(855,712).
att(452,634).
att(279,1380).
att(412,638).
att(449,636).
att(455,693).
att(854,702).
att(849,681).
att(546,181).
att(452,663).
att(279,1408).
att(279,1407).
att(407,1094).
att(810,706).
att(809,701).
att(374,1098).
att(376,1104).
att(394,600).
att(812,677).
att(398,627).
att(809,683).
att(403,606).
att(519,474).
att(867,522).
att(401,1014).
att(401,1004).
att(398,1045).
att(801,721).
att(861,533).
att(870,544).
att(804,712).
att(490,663).
att(809,722).
att(401,946).
att(513,697).
att(868,528).
att(809,716).
att(865,580).
att(244,1397).
att(244,1394).
att(237,1408).
att(396,696).
att(237,1405).
att(857,555).
att(874,580).
att(394,689).
att(807,731).
att(376,695).
att(807,729).
att(863,541).
att(791,720).
att(376,693).
att(867,531).
att(376,601).
att(407,636).
att(867,654).
att(234,1405).
att(239,1368).
att(857,622).
att(861,659).
att(239,1339).
att(244,1365).
att(868,658).
att(497,181).
att(883,555).
att(899,559).
att(908,723).
att(235,1000).
att(369,691).
att(921,727).
att(896,538).
att(919,731).
att(900,586).
att(369,689).
att(369,686).
att(900,566).
att(905,553).
att(908,718).
att(515,271).
att(515,222).
att(485,1505).
att(483,1479).
att(479,1501).
att(483,1489).
att(896,620).
att(371,624).
att(460,1496).
att(883,586).
att(517,168).
att(509,168).
att(890,616).
att(900,648).
att(517,122).
att(354,669).
att(471,1490).
att(513,118).
att(903,618).
att(492,144).
att(233,601).
att(394,423).
att(246,1104).
att(517,1488).
att(248,1106).
att(365,499).
att(239,1100).
att(883,674).
att(890,706).
att(900,713).
att(490,1436).
att(490,1438).
att(728,1365).
att(899,683).
att(394,187).
att(235,647).
att(495,1485).
att(729,1376).
att(896,677).
att(730,1403).
att(374,134).
att(405,126).
att(730,1407).
att(722,1341).
att(726,1373).
att(726,1376).
att(726,1368).
att(246,1102).
att(492,1464).
att(235,592).
att(244,607).
att(728,1397).
att(237,594).
att(1024,538).
att(371,468).
att(725,1374).
att(1009,534).
att(726,1407).
att(354,501).
att(973,572).
att(515,254).
att(513,266).
att(357,475).
att(903,727).
att(893,719).
att(1018,533).
att(248,1049).
att(900,730).
att(1018,528).
att(241,1098).
att(896,712).
att(890,720).
att(1035,534).
att(900,723).
att(973,538).
att(234,1096).
att(883,701).
att(723,1409).
att(233,1104).
att(396,384).
att(556,1487).
att(129,1404).
att(303,592).
att(331,647).
att(851,725).
att(546,1509).
att(485,118).
att(841,720).
att(847,727).
att(129,1397).
att(137,1374).
att(923,538).
att(855,722).
att(353,943).
att(314,696).
att(340,664).
att(337,671).
att(711,1341).
att(337,667).
att(155,1408).
att(487,227).
att(479,212).
att(847,712).
att(410,504).
att(565,1485).
att(571,1491).
att(324,1092).
att(337,1107).
att(915,613).
att(925,614).
att(324,1102).
att(543,1438).
att(340,592).
att(129,1373).
att(704,1365).
att(702,1373).
att(843,727).
att(543,1459).
att(563,1483).
att(708,1410).
att(925,580).
att(565,1481).
att(552,1479).
att(919,557).
att(853,730).
att(337,493).
att(718,1368).
att(919,672).
att(915,687).
att(720,1405).
att(321,503).
att(357,1042).
att(921,660).
att(367,1055).
att(361,1107).
att(720,1409).
att(353,605).
att(462,1454).
att(369,1096).
att(485,1459).
att(908,620).
att(915,654).
att(334,499).
att(485,1454).
att(303,501).
att(479,1488).
att(515,433).
att(303,491).
att(367,1049).
att(713,1407).
att(371,931).
att(901,555).
att(479,1439).
att(919,716).
att(330,474).
att(487,261).
att(912,702).
att(922,727).
att(908,709).
att(149,1405).
att(357,931).
att(903,533).
att(321,689).
att(921,708).
att(483,216).
att(467,268).
att(354,1110).
att(923,713).
att(340,468).
att(369,997).
att(363,1049).
att(917,702).
att(922,712).
att(900,526).
att(369,1001).
att(324,463).
att(303,696).
att(314,498).
att(359,991).
att(365,931).
att(129,1092).
att(439,1436).
att(155,1053).
att(275,493).
att(563,1283).
att(275,505).
att(129,598).
att(458,1459).
att(146,1109).
att(447,1485).
att(321,382).
att(321,384).
att(145,598).
att(565,930).
att(142,1098).
att(149,1107).
att(558,1283).
att(552,1171).
att(412,179).
att(447,266).
att(282,661).
att(571,1283).
att(458,263).
att(155,1000).
att(279,696).
att(442,270).
att(556,1052).
att(467,1134).
att(152,667).
att(568,602).
att(145,686).
att(571,599).
att(140,661).
att(452,1506).
att(565,1091).
att(337,122).
att(412,1499).
att(412,1505).
att(155,696).
att(340,222).
att(337,175).
att(129,640).
att(303,384).
att(314,116).
att(155,647).
att(452,1479).
att(155,603).
att(442,1486).
att(149,606).
att(331,144).
att(129,664).
att(155,642).
att(337,126).
att(455,1510).
att(452,1503).
att(455,1506).
att(145,661).
att(155,634).
att(394,265).
att(231,476).
att(288,981).
att(239,463).
att(237,694).
att(237,696).
att(403,218).
att(279,1055).
att(1030,622).
att(248,473).
att(231,504).
att(447,382).
att(398,1454).
att(1028,630).
att(288,1053).
att(407,1435).
att(233,498).
att(278,1110).
att(883,724).
att(973,614).
att(248,470).
att(394,1428).
att(1024,557).
att(376,122).
att(394,181).
att(231,667).
att(246,644).
att(407,230).
att(1018,687).
att(374,118).
att(248,646).
att(403,128).
att(515,1509).
att(246,601).
att(1035,676).
att(248,663).
att(1030,683).
att(235,671).
att(278,978).
att(1028,679).
att(405,216).
att(233,693).
att(1018,656).
att(278,1000).
att(396,216).
att(490,1509).
att(234,689).
att(233,695).
att(376,1487).
att(410,134).
att(278,667).
att(571,1139).
att(455,134).
att(1028,722).
att(394,1508).
att(549,1136).
att(412,182).
att(571,1171).
att(401,1499).
att(445,170).
att(563,1134).
att(278,596).
att(374,1438).
att(237,504).
att(403,1434).
att(405,1435).
att(1009,725).
att(278,636).
att(455,436).
att(1009,720).
att(396,1490).
att(1067,1284).
att(1083,1277).
att(1086,949).
att(1073,1284).
att(1070,1284).
att(1115,763).
att(1128,763).
att(1080,1274).
att(1061,974).
att(1063,982).
att(1126,775).
att(1067,1176).
att(1076,1289).
att(894,210).
att(1076,1222).
att(1083,1133).
att(878,269).
att(897,262).
att(1073,1232).
att(1117,1236).
att(1114,1291).
att(1080,941).
att(1121,832).
att(1073,995).
att(1117,786).
att(1117,1147).
att(1121,1135).
att(1128,816).
att(1115,1147).
att(1128,815).
att(1119,1142).
att(1195,1286).
att(891,318).
att(1025,258).
att(886,355).
att(894,315).
att(1204,932).
att(1187,929).
att(894,306).
att(1211,1286).
att(894,308).
att(1187,926).
att(881,41).
att(897,11).
att(1204,1172).
att(1201,1138).
att(1205,818).
att(1208,1143).
att(1198,1132).
att(876,351).
att(888,41).
att(1015,252).
att(998,267).
att(894,33).
att(1019,176).
att(1166,986).
att(1076,1138).
att(894,424).
att(1211,986).
att(891,418).
att(1080,820).
att(1061,1176).
att(1063,1240).
att(886,223).
att(894,184).
att(1063,1174).
att(891,121).
att(1070,1137).
att(1063,832).
att(1078,775).
att(1187,995).
att(876,133).
att(1208,1276).
att(1198,929).
att(884,424).
att(891,377).
att(1073,786).
att(897,432).
att(1208,926).
att(1063,817).
att(891,385).
att(1033,830).
att(1007,1140).
att(1025,832).
att(1022,1147).
att(1022,1146).
att(1016,769).
att(958,979).
att(1033,773).
att(998,808).
att(1010,824).
att(1016,1291).
att(877,763).
att(881,751).
att(1033,1286).
att(1033,1291).
att(1015,1280).
att(884,773).
att(1015,992).
att(878,808).
att(1025,1191).
att(1012,1291).
att(1115,935).
att(1119,1002).
att(955,775).
att(1119,1276).
att(953,779).
att(958,767).
att(1121,1286).
att(1115,1284).
att(1119,932).
att(1121,951).
att(953,1226).
att(959,1238).
att(971,1222).
att(1007,771).
att(963,1228).
att(522,744).
att(529,740).
att(524,742).
att(953,1180).
att(524,743).
att(971,815).
att(531,742).
att(958,1182).
att(531,743).
att(528,744).
att(953,1240).
att(969,815).
att(479,1340).
att(487,1368).
att(489,1382).
att(471,1407).
att(557,743).
att(557,744).
att(465,1373).
att(462,1381).
att(557,748).
att(467,1402).
att(888,1143).
att(884,1138).
att(891,818).
att(876,1289).
att(886,1234).
att(897,1191).
att(1022,982).
att(878,825).
att(894,765).
att(886,785).
att(876,1132).
att(1033,986).
att(574,749).
att(886,1143).
att(572,748).
att(886,816).
att(881,815).
att(881,1002).
att(546,1410).
att(894,1284).
att(881,944).
att(877,949).
att(894,1172).
att(549,1374).
att(568,1402).
att(571,1404).
att(565,1403).
att(565,1407).
att(886,933).
att(891,1228).
att(405,1409).
att(401,1374).
att(394,1402).
att(376,1374).
att(401,1382).
att(608,744).
att(398,1381).
att(611,748).
att(630,743).
att(401,1339).
att(558,1045).
att(565,606).
att(447,1373).
att(571,640).
att(455,1341).
att(556,606).
att(563,997).
att(546,1045).
att(515,1402).
att(656,743).
att(513,1368).
att(656,749).
att(497,1374).
att(657,748).
att(507,1341).
att(507,1339).
att(675,742).
att(1086,1283).
att(876,1459).
att(876,1454).
att(679,740).
att(675,745).
att(894,1433).
att(1221,37).
att(1083,1275).
att(891,257).
att(1073,950).
att(1080,1231).
att(1332,184).
att(1208,633).
att(1076,952).
att(1083,1227).
att(1063,945).
att(1063,930).
att(891,265).
att(1330,121).
att(1353,172).
att(1356,176).
att(1337,223).
att(687,744).
att(1332,217).
att(897,1463).
att(1267,305).
att(891,1428).
att(1332,174).
att(891,1436).
att(1080,950).
att(1353,215).
att(1067,1173).
att(1076,1229).
att(897,220).
att(897,226).
att(1362,123).
att(1208,1105).
att(897,227).
att(1353,422).
att(891,170).
att(1067,1287).
att(897,265).
att(1267,27).
att(876,1438).
att(1083,1244).
att(1073,1233).
att(1201,645).
att(1073,1231).
att(1166,584).
att(884,266).
att(1128,1185).
att(1083,1097).
att(1219,383).
att(1267,424).
att(1080,1052).
att(1070,1101).
att(1070,599).
att(701,748).
att(884,1503).
att(894,1483).
att(1261,307).
att(894,1464).
att(702,742).
att(702,743).
att(1337,252).
att(1063,1038).
att(1221,348).
att(1216,355).
att(1267,430).
att(1221,388).
att(894,1496).
att(1073,1052).
att(1330,252).
att(1078,993).
att(1080,1058).
att(998,1428).
att(998,1436).
att(1214,1229).
att(1161,626).
att(1022,271).
att(1131,584).
att(1157,591).
att(1353,31).
att(1204,942).
att(1025,1431).
att(1201,952).
att(1022,266).
att(1208,1231).
att(1157,629).
att(1022,259).
att(1198,947).
att(1157,639).
att(1130,1044).
att(1130,1038).
att(1131,1044).
att(1161,1093).
att(1195,1193).
att(1161,1046).
att(1187,1233).
att(1198,1237).
att(1022,216).
att(1015,257).
att(1166,1193).
att(1153,602).
att(1016,170).
att(1166,987).
att(878,118).
att(1007,1507).
att(1063,1136).
att(876,227).
att(1204,1093).
att(888,144).
att(1019,1491).
att(1208,1058).
att(1187,599).
att(1166,1052).
att(1067,1139).
att(1330,392).
att(1076,1171).
att(897,173).
att(1067,1192).
att(886,230).
att(1356,378).
att(1073,1139).
att(1076,1185).
att(1195,1093).
att(891,187).
att(891,124).
att(1330,346).
att(1345,351).
att(1019,1431).
att(719,742).
att(884,437).
att(1007,1452).
att(1187,1052).
att(1033,1454).
att(1022,1488).
att(1025,1491).
att(1166,999).
att(894,433).
att(1211,999).
att(1359,306).
att(891,431).
att(1330,312).
att(1019,1463).
att(953,1041).
att(955,1048).
att(998,1181).
att(1131,355).
att(1155,383).
att(1163,389).
att(1303,267).
att(955,1044).
att(1149,432).
att(1161,383).
att(1163,430).
att(1007,1185).
att(958,590).
att(957,1105).
att(957,1103).
att(1161,388).
att(1268,267).
att(1155,432).
att(1010,1134).
att(961,1108).
att(1269,174).
att(1307,217).
att(957,942).
att(1268,184).
att(963,1275).
att(963,947).
att(1149,350).
att(1305,252).
att(1153,305).
att(1298,253).
att(1300,267).
att(1007,1285).
att(1149,174).
att(1130,123).
att(969,639).
att(1007,948).
att(1204,41).
att(1151,176).
att(1157,117).
att(1201,41).
att(1007,930).
att(1131,172).
att(726,748).
att(729,742).
att(1204,306).
att(1155,256).
att(1151,215).
att(1022,1279).
att(731,748).
att(1163,422).
att(1130,430).
att(1025,1171).
att(1163,135).
att(965,593).
att(969,1108).
att(957,581).
att(953,590).
att(971,591).
att(1187,37).
att(965,645).
att(957,635).
att(1159,415).
att(1151,184).
att(1219,210).
att(1221,219).
att(1121,980).
att(1296,355).
att(1126,947).
att(1217,176).
att(1124,947).
att(1216,174).
att(1305,312).
att(1121,1038).
att(1121,1050).
att(1216,215).
att(1216,210).
att(1119,977).
att(1117,980).
att(1126,1233).
att(1219,184).
att(1309,31).
att(1267,176).
att(1300,10).
att(1251,228).
att(1216,418).
att(1303,39).
att(1115,1285).
att(1221,167).
att(1121,1003).
att(1261,209).
att(1128,952).
att(1271,39).
att(1267,219).
att(1119,952).
att(1080,643).
att(1298,309).
att(1117,1279).
att(1298,23).
att(1117,1285).
att(1124,1290).
att(1111,637).
att(1303,133).
att(1307,125).
att(958,1273).
att(1305,422).
att(1124,1095).
att(1305,135).
att(1271,127).
att(971,1292).
att(1126,637).
att(1124,595).
att(953,1179).
att(1268,306).
att(1217,267).
att(959,1188).
att(1300,420).
att(963,1188).
att(1267,817).
att(878,599).
att(1067,130).
att(279,744).
att(878,595).
att(1221,820).
att(1217,796).
att(1080,378).
att(1264,824).
att(1073,415).
att(1078,378).
att(1070,415).
att(1338,995).
att(894,626).
att(1219,816).
att(1267,1182).
att(1219,832).
att(1078,418).
att(1251,1135).
att(1063,426).
att(1248,763).
att(1251,808).
att(888,993).
att(1070,388).
att(1359,944).
att(1359,932).
att(1061,432).
att(1076,377).
att(277,744).
att(1073,348).
att(278,743).
att(1267,777).
att(1205,269).
att(1345,926).
att(884,1108).
att(1070,348).
att(1261,751).
att(897,1095).
att(876,591).
att(897,1089).
att(1267,786).
att(1080,348).
att(1359,1002).
att(1083,345).
att(881,1105).
att(881,1093).
att(282,745).
att(1221,1232).
att(1248,949).
att(1117,356).
att(1119,307).
att(1258,1228).
att(1261,1286).
att(1114,346).
att(1078,215).
att(1221,1284).
att(1267,938).
att(1264,949).
att(1117,389).
att(1305,769).
att(1267,1169).
att(1217,815).
att(894,635).
att(1070,176).
att(1258,1137).
att(1067,166).
att(1119,41).
att(1221,1169).
att(1121,307).
att(1080,169).
att(1217,1137).
att(1251,1226).
att(1187,415).
att(1353,794).
att(897,1139).
att(1337,808).
att(878,1179).
att(878,1185).
att(876,1193).
att(1211,346).
att(1198,432).
att(1166,381).
att(1338,792).
att(1330,805).
att(1362,1141).
att(897,1171).
att(1214,130).
att(1362,818).
att(1015,599).
att(1022,1091).
att(1205,311).
att(155,743).
att(155,747).
att(1201,306).
att(152,744).
att(1151,267).
att(998,1091).
att(163,745).
att(146,742).
att(1195,347).
att(876,1183).
att(998,1105).
att(1362,763).
att(1159,267).
att(1359,751).
att(1025,1058).
att(1208,355).
att(1166,176).
att(888,952).
att(1195,221).
att(1076,305).
att(1076,319).
att(1083,33).
att(1359,1172).
att(891,952).
att(1067,350).
att(1337,1228).
att(1063,392).
att(1338,1238).
att(1353,1291).
att(1076,346).
att(886,1056).
att(1201,267).
att(897,1005).
att(881,977).
att(1166,424).
att(1353,1141).
att(1007,633).
att(891,1244).
att(886,1283).
att(1362,1180).
att(1201,184).
att(1359,1146).
att(1359,1142).
att(1022,591).
att(1359,815).
att(1332,832).
att(1214,178).
att(1359,1168).
att(1067,35).
att(1334,1137).
att(1337,1180).
att(1332,816).
att(897,1287).
att(1070,27).
att(1073,37).
att(891,1224).
att(965,210).
att(1131,1191).
att(957,211).
att(1015,312).
att(969,184).
att(957,209).
att(1157,1132).
att(354,746).
att(1149,1289).
att(354,740).
att(965,264).
att(1025,305).
att(957,267).
att(963,223).
att(969,174).
att(1149,1223).
att(1131,824).
att(953,117).
att(998,31).
att(971,133).
att(971,418).
att(1153,818).
att(1161,785).
att(957,186).
att(957,184).
att(1161,827).
att(1149,1137).
att(1163,1184).
att(957,180).
att(961,184).
att(1153,1178).
att(1166,794).
att(1163,979).
att(1022,417).
att(1033,432).
att(1153,989).
att(1022,385).
att(1153,992).
att(1019,430).
att(1187,1137).
att(1204,1138).
att(330,748).
att(1157,1291).
att(1157,1289).
att(327,749).
att(1214,767).
att(1033,352).
att(1163,949).
att(1161,1276).
att(1163,1280).
att(330,744).
att(1022,351).
att(1198,767).
att(959,253).
att(1022,356).
att(961,267).
att(1007,379).
att(1166,751).
att(998,420).
att(1187,820).
att(1211,769).
att(1012,377).
att(1198,796).
att(331,745).
att(1121,228).
att(1117,115).
att(239,745).
att(1307,816).
att(961,41).
att(248,740).
att(1305,1137).
att(246,740).
att(957,319).
att(957,318).
att(1298,1238).
att(1298,1170).
att(1221,941).
att(1267,975).
att(1221,927).
att(1126,383).
att(1269,794).
att(1269,765).
att(1309,824).
att(1216,1277).
att(1124,387).
att(1296,1143).
att(1121,121).
att(1121,115).
att(1258,974).
att(1216,932).
att(1258,989).
att(1305,827).
att(231,749).
att(1258,992).
att(1117,424).
att(1268,792).
att(1271,1284).
att(1269,1280).
att(1307,926).
att(1124,269).
att(971,377).
att(1131,763).
att(958,420).
att(1155,825).
att(1298,995).
att(1111,269).
att(1128,217).
att(961,319).
att(357,742).
att(371,742).
att(369,748).
att(953,351).
att(957,308).
att(969,41).
att(963,23).
att(1124,167).
att(1124,166).
att(1111,253).
att(957,355).
att(1117,213).
att(1128,256).
att(1149,773).
att(1151,775).
att(1303,1289).
att(971,350).
att(1126,256).
att(1309,949).
att(969,319).
att(1119,267).
att(961,306).
att(1303,1223).
att(1362,218).
att(1063,1006).
att(1334,229).
att(1022,1405).
att(1166,638).
att(1338,118).
att(1208,693).
att(1362,270).
att(1356,216).
att(1205,665).
att(1166,606).
att(1166,1100).
att(1338,427).
att(1166,1106).
att(1353,144).
att(376,747).
att(401,740).
att(1345,126).
att(1362,185).
att(749,779).
att(1345,116).
att(1353,185).
att(1015,1408).
att(744,769).
att(1214,646).
att(1198,634).
att(1356,126).
att(1195,638).
att(1362,1487).
att(1063,601).
att(1251,132).
att(886,1340).
att(1267,131).
att(1353,1458).
att(398,740).
att(1221,421).
att(1076,624).
att(1083,605).
att(884,1376).
att(1221,144).
att(1217,382).
att(876,1368).
att(1251,182).
att(1070,647).
att(401,747).
att(1070,600).
att(1337,266).
att(1337,270).
att(1362,1434).
att(1078,1000).
att(1083,997).
att(1086,997).
att(1073,1059).
att(1166,696).
att(1353,270).
att(1195,475).
att(1063,1040).
att(1080,1000).
att(1198,477).
att(1205,696).
att(1345,1463).
att(1214,498).
att(1208,498).
att(1211,504).
att(1080,981).
att(1208,476).
att(1198,493).
att(1078,994).
att(1080,1054).
att(1251,380).
att(1353,1431).
att(965,1381).
att(749,1223).
att(1155,661).
att(741,1178).
att(749,1286).
att(1155,670).
att(748,1228).
att(747,1176).
att(1153,644).
att(742,1182).
att(1187,940).
att(1163,668).
att(1131,644).
att(749,1278).
att(744,1228).
att(747,1276).
att(1157,624).
att(957,1409).
att(1153,665).
att(953,1404).
att(953,1397).
att(746,1228).
att(749,1002).
att(958,1340).
att(1130,1040).
att(746,1272).
att(1157,1049).
att(953,1339).
att(748,992).
att(1163,600).
att(1149,594).
att(740,751).
att(740,769).
att(1214,1109).
att(1157,468).
att(1208,994).
att(1157,463).
att(748,808).
att(742,781).
att(749,817).
att(1131,503).
att(740,789).
att(1015,1340).
att(744,808).
att(1356,384).
att(1131,501).
att(1356,429).
att(747,827).
att(1131,491).
att(746,1141).
att(746,1147).
att(1163,689).
att(1131,665).
att(969,1409).
att(1187,1059).
att(1130,665).
att(961,1409).
att(1151,696).
att(1131,661).
att(740,816).
att(1166,1014).
att(1208,937).
att(445,740).
att(963,1045).
att(965,1109).
att(958,1094).
att(465,745).
att(1303,254).
att(1124,699).
att(1300,1435).
att(957,1110).
att(953,1094).
att(1296,1464).
att(953,607).
att(963,1110).
att(1115,493).
att(1303,227).
att(1300,254).
att(1117,665).
att(1113,689).
att(1126,693).
att(1111,475).
att(971,1014).
att(971,1004).
att(489,740).
att(1126,689).
att(483,748).
att(1163,170).
att(1269,1508).
att(1149,229).
att(971,624).
att(1130,185).
att(1159,118).
att(963,636).
att(1149,170).
att(953,664).
att(958,470).
att(1155,254).
att(1163,271).
att(747,262).
att(743,174).
att(746,213).
att(1149,134).
att(958,636).
att(971,1100).
att(957,605).
att(1300,1486).
att(1309,1483).
att(742,221).
att(1271,1454).
att(1303,1465).
att(957,647).
att(971,594).
att(1163,187).
att(1131,144).
att(963,647).
att(1153,126).
att(957,624).
att(1271,1488).
att(955,646).
att(955,644).
att(1271,1479).
att(1151,126).
att(1076,468).
att(1221,224).
att(1080,693).
att(1251,257).
att(1113,997).
att(1061,472).
att(1078,671).
att(1117,943).
att(1216,271).
att(1076,661).
att(507,744).
att(1067,644).
att(897,1379).
att(877,1402).
att(1073,642).
att(1080,603).
att(1073,646).
att(1217,423).
att(1063,669).
att(513,742).
att(1251,177).
att(1078,592).
att(1251,179).
att(1267,212).
att(497,745).
att(1258,229).
att(894,1409).
att(1217,187).
att(1080,634).
att(492,745).
att(1078,646).
att(1080,642).
att(1267,1507).
att(1303,144).
att(1296,126).
att(1217,1481).
att(1269,419).
att(1217,1485).
att(1307,132).
att(1269,429).
att(1303,423).
att(1219,1496).
att(1217,1501).
att(1300,181).
att(1307,122).
att(1115,634).
att(1267,1460).
att(1128,1045).
att(1217,1428).
att(1121,1104).
att(1078,472).
att(1080,476).
att(1067,505).
att(1264,1483).
att(1269,431).
att(1126,1098).
att(1124,1053).
att(1307,427).
att(1248,1483).
att(1063,183).
att(1067,425).
att(886,636).
att(1362,1048).
att(1204,1506).
att(1080,384).
att(1070,421).
att(1205,1459).
att(1073,132).
att(888,647).
att(1248,1134).
att(884,664).
att(894,627).
att(1359,1095).
att(1070,116).
att(1083,132).
att(1198,1503).
att(1214,1503).
att(1067,116).
att(1337,1038).
att(1080,132).
att(1080,421).
att(1214,1437).
att(1187,1463).
att(886,1049).
att(1345,1058).
att(1166,1434).
att(1337,934).
att(897,1100).
att(1359,977).
att(1208,1434).
att(897,468).
att(876,499).
att(1251,948).
att(1264,1283).
att(1332,626).
att(897,476).
att(891,696).
att(891,689).
att(891,686).
att(1251,1279).
att(1338,595).
att(894,504).
att(1121,380).
att(1111,427).
att(1076,1459).
att(897,505).
att(1362,602).
att(1063,272).
att(1338,1046).
att(1258,1183).
att(1219,1136).
att(894,664).
att(1208,1506).
att(1264,1134).
att(1067,173).
att(877,689).
att(1070,175).
att(1258,1245).
att(876,468).
att(1067,220).
att(1067,226).
att(894,689).
att(1073,224).
att(881,698).
att(1063,259).
att(1216,1136).
att(1070,224).
att(1345,632).
att(1217,1181).
att(1214,384).
att(1163,1461).
att(1187,416).
att(1187,144).
att(1151,1464).
att(1205,429).
att(1153,1491).
att(1159,1459).
att(1022,1094).
att(1016,1098).
att(1151,1487).
att(1033,1004).
att(963,463).
att(1033,946).
att(1131,216).
att(1019,937).
att(965,504).
att(971,468).
att(953,504).
att(971,472).
att(1025,1049).
att(1015,1092).
att(1007,1110).
att(955,501).
att(955,491).
att(1153,1431).
att(953,498).
att(1157,261).
att(1015,470).
att(1025,689).
att(1338,1179).
att(1007,695).
att(884,931).
att(1007,686).
att(1330,1183).
att(1016,661).
att(1010,689).
att(1187,1437).
att(876,1049).
att(878,1055).
att(1204,1432).
att(886,1055).
att(1019,696).
att(1187,1427).
att(1198,266).
att(1007,463).
att(998,665).
att(1166,419).
att(1007,644).
att(1130,1485).
att(998,661).
att(1161,1506).
att(1025,640).
att(1015,691).
att(1187,224).
att(998,691).
att(1187,216).
att(1334,1185).
att(1334,1183).
att(1015,686).
att(1019,646).
att(1019,644).
att(1309,602).
att(971,227).
att(1307,595).
att(1149,1245).
att(1296,581).
att(1163,1224).
att(1307,639).
att(1298,637).
att(1161,1171).
att(957,266).
att(953,124).
att(1271,980).
att(1296,1052).
att(1117,1488).
att(1307,1058).
att(959,416).
att(1128,1483).
att(1303,993).
att(1303,977).
att(1296,1105).
att(1163,1181).
att(1115,1496).
att(963,128).
att(1268,996).
att(1115,1506).
att(1115,1509).
att(1303,1052).
att(957,227).
att(1115,1508).
att(744,974).
att(998,187).
att(744,989).
att(957,1486).
att(955,1490).
att(1151,993).
att(740,986).
att(1163,1038).
att(998,177).
att(1007,183).
att(998,181).
att(965,1509).
att(1012,128).
att(1159,996).
att(1015,187).
att(1151,1052).
att(1022,131).
att(998,384).
att(1155,948).
att(1303,635).
att(1163,934).
att(1007,436).
att(1025,384).
att(957,1465).
att(957,1462).
att(1217,1038).
att(1309,1134).
att(1114,170).
att(1217,1056).
att(1300,1136).
att(1251,1089).
att(1121,183).
att(1078,1487).
att(1216,996).
att(1115,181).
att(1248,602).
att(1126,170).
att(1128,229).
att(1219,1105).
att(1111,416).
att(1073,1489).
att(1128,436).
att(1217,934).
att(1073,1479).
att(1063,1488).
att(1078,1434).
att(1063,1481).
att(1063,1499).
att(1114,128).
att(1216,934).
att(1086,1483).
att(1078,1464).
att(1070,1490).
att(955,382).
att(1300,985).
att(1307,934).
att(1269,1283).
att(1216,635).
att(1119,1432).
att(1303,1283).
att(958,437).
att(1121,1488).
att(953,419).
att(959,427).
att(1111,1486).
att(1268,934).
att(953,136).
att(1271,999).
att(1268,952).
att(1221,599).
att(1307,1231).
att(1121,259).
att(1216,1097).
att(1261,593).
att(1269,1181).
att(1258,599).
att(1216,1099).
att(1216,1103).
att(1219,626).
att(1303,1292).
att(1217,639).
att(1121,1431).
att(1126,254).
att(1269,1224).
att(1216,595).
att(1217,604).
att(1124,222).
att(593,1474).
att(584,1512).
att(1099,1314).
att(597,1475).
att(169,34).
att(223,191).
att(593,1513).
att(348,842).
att(383,1215).
att(96,1291).
att(1099,1243).
att(1101,1342).
att(604,1478).
att(106,1176).
att(209,90).
att(95,1182).
att(1101,1366).
att(92,982).
att(389,968).
att(581,1519).
att(172,12).
att(1095,1320).
att(96,1146).
att(584,1519).
att(1099,1384).
att(110,832).
att(1099,1383).
att(1099,1387).
att(388,1123).
att(84,989).
att(1091,1419).
att(166,17).
att(590,1515).
att(1089,1316).
att(209,294).
att(344,1017).
att(389,966).
att(590,1478).
att(180,14).
att(1095,1360).
att(174,14).
att(590,1476).
att(211,292).
att(228,68).
att(47,1146).
att(57,808).
att(50,824).
att(1103,1471).
att(180,112).
att(180,90).
att(350,838).
att(387,1167).
att(355,842).
att(388,1165).
att(1101,1442).
att(1091,1446).
att(98,975).
att(351,860).
att(356,860).
att(356,873).
att(57,832).
att(390,1116).
att(48,1147).
att(172,66).
att(350,860).
att(106,974).
att(1097,1387).
att(54,818).
att(1099,1471).
att(176,111).
att(1089,1421).
att(356,858).
att(46,765).
att(228,160).
att(352,909).
att(44,789).
att(305,837).
att(48,779).
att(308,852).
att(46,792).
att(180,207).
att(1105,1493).
att(47,794).
att(1097,1495).
att(1097,1502).
att(1101,1492).
att(106,1223).
att(108,1286).
att(307,836).
att(307,862).
att(166,113).
att(389,1165).
att(172,83).
att(348,1206).
att(172,85).
att(1095,1430).
att(50,763).
att(1091,1440).
att(1089,1469).
att(1101,1512).
att(1048,1398).
att(166,148).
att(356,966).
att(746,1245).
att(75,1132).
att(178,284).
att(741,1192).
att(92,1146).
att(356,968).
att(1043,1360).
att(350,956).
att(1044,1324).
att(123,66).
att(306,1031).
att(127,26).
att(307,918).
att(356,1020).
att(1108,1314).
att(171,189).
att(1103,1493).
att(121,40).
att(123,12).
att(117,30).
att(1097,1475).
att(1038,1421).
att(190,989).
att(1043,1421).
att(206,1002).
att(75,825).
att(121,107).
att(24,790).
att(86,763).
att(198,935).
att(92,781).
att(1044,1371).
att(79,830).
att(188,974).
att(86,808).
att(123,113).
att(749,985).
att(81,1137).
att(75,1142).
att(349,1129).
att(115,64).
att(115,66).
att(121,56).
att(123,60).
att(1039,1417).
att(1048,1389).
att(125,69).
att(355,1116).
att(1041,1442).
att(75,929).
att(312,840).
att(315,906).
att(309,837).
att(1043,1473).
att(23,859).
att(96,789).
att(104,775).
att(1050,1500).
att(1052,1512).
att(108,751).
att(308,1165).
att(110,767).
att(96,782).
att(106,767).
att(82,1276).
att(88,974).
att(351,1087).
att(95,816).
att(1041,1450).
att(186,85).
att(1043,1389).
att(1052,1471).
att(23,803).
att(127,90).
att(79,984).
att(305,1087).
att(123,83).
att(318,846).
att(95,767).
att(980,1360).
att(980,1354).
att(125,154).
att(119,207).
att(120,189).
att(983,1256).
att(1043,1511).
att(79,1223).
att(1043,1480).
att(115,165).
att(990,1320).
att(318,1008).
att(117,157).
att(318,1023).
att(86,1234).
att(133,15).
att(1039,1500).
att(135,40).
att(315,882).
att(110,751).
att(744,1183).
att(308,1215).
att(127,158).
att(79,1282).
att(977,1243).
att(24,911).
att(415,2).
att(117,189).
att(84,1228).
att(133,36).
att(311,150).
att(117,1087).
att(1264,1402).
att(309,141).
att(309,156).
att(127,1206).
att(130,924).
att(315,208).
att(127,1209).
att(1248,1402).
att(749,1507).
att(135,862).
att(1217,1409).
att(308,440).
att(1217,1403).
att(1216,1376).
att(123,1071).
att(133,892).
att(318,343).
att(35,50).
att(25,276).
att(424,916).
att(315,301).
att(420,904).
att(643,1265).
att(25,141).
att(260,13).
att(133,964).
att(133,967).
att(33,104).
att(312,325).
att(262,17).
att(629,1360).
att(25,332).
att(11,96).
att(29,92).
att(253,16).
att(749,259).
att(749,1439).
att(252,40).
att(418,1031).
att(632,1360).
att(746,214).
att(39,106).
att(420,1031).
att(267,14).
att(746,272).
att(385,787).
att(35,141).
att(426,858).
att(379,790).
att(629,1421).
att(27,198).
att(377,787).
att(264,90).
att(1216,1407).
att(37,293).
att(29,161).
att(414,1129).
att(383,806).
att(383,787).
att(741,220).
att(269,49).
att(629,1320).
att(25,408).
att(417,968).
att(749,1452).
att(1337,1340).
att(33,280).
att(269,189).
att(219,34).
att(262,197).
att(645,1493).
att(428,882).
att(591,1242).
att(29,236).
att(381,918).
att(432,836).
att(432,837).
att(432,844).
att(260,113).
att(1359,1409).
att(59,1289).
att(379,838).
att(255,109).
att(377,862).
att(417,1084).
att(256,89).
att(417,1079).
att(256,91).
att(1337,1376).
att(420,1215).
att(253,154).
att(633,1521).
att(633,1514).
att(50,1191).
att(41,338).
att(643,1523).
att(635,1522).
att(48,1182).
att(262,157).
att(52,1138).
att(211,18).
att(27,322).
att(211,15).
att(211,19).
att(10,370).
att(629,1480).
att(10,366).
att(50,1137).
att(31,208).
att(215,9).
att(635,1478).
att(48,1236).
att(426,879).
att(219,36).
att(417,1202).
att(211,36).
att(221,13).
att(379,902).
att(590,1265).
att(46,1222).
att(428,1031).
att(47,1228).
att(632,1497).
att(381,892).
att(57,1138).
att(385,964).
att(379,956).
att(388,864).
att(346,787).
att(388,860).
att(379,1088).
att(430,962).
att(584,1320).
att(383,1026).
att(383,1023).
att(41,408).
att(385,1017).
att(385,1020).
att(604,1419).
att(255,281).
att(426,1088).
att(590,1328).
att(10,332).
att(377,1017).
att(632,1516).
att(632,1514).
att(390,837).
att(348,859).
att(44,974).
att(215,111).
att(1337,1410).
att(584,1450).
att(54,975).
att(47,975).
att(211,89).
att(379,1196).
att(211,87).
att(346,840).
att(379,1212).
att(211,91).
att(344,862).
att(389,840).
att(47,992).
att(1101,1256).
att(50,926).
att(581,1471).
att(390,860).
att(59,984).
att(432,1087).
att(345,806).
att(385,1116).
att(385,1037).
att(221,80).
att(430,443).
att(347,110).
att(210,1031).
att(217,1023).
att(388,194).
att(346,77).
att(344,100).
att(379,450).
att(379,411).
att(1337,1109).
att(223,1026).
att(1337,1047).
att(1338,991).
att(225,1008).
att(1332,1045).
att(385,360).
att(385,370).
att(426,325).
att(346,100).
att(426,450).
att(388,82).
att(211,1023).
att(381,328).
att(219,967).
att(428,450).
att(1338,978).
att(1332,1055).
att(210,1116).
att(213,1037).
att(347,194).
att(390,156).
att(1362,1000).
att(180,873).
att(167,856).
att(225,1165).
att(388,286).
att(1157,1368).
att(388,299).
att(228,836).
att(392,283).
att(1149,1407).
att(1353,1000).
att(223,1129).
att(1131,1410).
att(180,811).
att(345,74).
att(219,1074).
att(345,198).
att(388,141).
att(211,1122).
att(219,1084).
att(344,77).
att(228,904).
att(178,924).
att(1201,1409).
att(387,238).
att(1362,671).
att(1195,1382).
att(1338,596).
att(1195,1373).
att(389,242).
att(166,840).
att(1334,667).
att(223,1199).
att(1359,698).
att(1208,1380).
att(211,1199).
att(211,1215).
att(169,844).
att(166,856).
att(346,304).
att(389,328).
att(389,304).
att(352,110).
att(347,368).
att(348,364).
att(345,328).
att(1353,1094).
att(307,44).
att(169,902).
att(171,924).
att(172,911).
att(1362,646).
att(387,341).
att(178,887).
att(307,77).
att(741,350).
att(749,379).
att(180,1122).
att(172,1129).
att(115,813).
att(123,862).
att(747,388).
att(741,305).
att(228,1118).
att(741,390).
att(307,100).
att(169,967).
att(744,377).
att(344,304).
att(389,408).
att(123,795).
att(169,954).
att(746,379).
att(169,956).
att(169,962).
att(740,377).
att(120,862).
att(171,1084).
att(115,858).
att(305,141).
att(123,911).
att(117,836).
att(355,296).
att(125,873).
att(307,194).
att(749,228).
att(305,156).
att(350,274).
att(746,115).
att(742,424).
att(350,296).
att(117,860).
att(351,141).
att(1163,1340).
att(352,362).
att(127,902).
att(349,322).
att(318,100).
att(125,920).
att(749,24).
att(1153,1404).
att(308,289).
att(120,838).
att(1161,1374).
att(308,243).
att(1149,1368).
att(115,906).
att(1159,1341).
att(318,46).
att(355,358).
att(312,84).
att(127,1123).
att(120,962).
att(743,41).
att(311,77).
att(123,1129).
att(746,356).
att(127,1026).
att(748,344).
att(121,1013).
att(349,328).
att(310,86).
att(747,351).
att(318,79).
att(1296,647).
att(184,370).
att(1296,600).
att(1300,600).
att(420,52).
att(305,1356).
att(115,236).
att(115,247).
att(133,44).
att(319,969).
att(1121,1365).
att(1303,647).
att(312,1016).
att(1126,1340).
att(356,1337).
att(127,243).
att(742,639).
att(1300,646).
att(123,411).
att(135,84).
att(1307,1045).
att(1217,463).
att(417,106).
att(1258,463).
att(1251,501).
att(115,341).
att(121,413).
att(1221,475).
att(123,304).
att(1303,1110).
att(130,102).
att(1307,1104).
att(315,1083).
att(418,52).
att(23,1111).
att(121,304).
att(740,930).
att(1269,691).
att(35,897).
att(312,1161).
att(743,996).
att(742,934).
att(253,803).
att(1157,931).
att(1151,994).
att(1153,1055).
att(741,936).
att(318,1159).
att(1131,994).
att(1149,1047).
att(417,110).
att(1155,1098).
att(1269,473).
att(25,1205).
att(37,888).
att(1305,474).
att(1155,1110).
att(318,1149).
att(422,283).
att(41,961).
att(260,846).
att(35,971).
att(748,599).
att(1269,646).
att(743,1105).
att(1269,636).
att(25,1258).
att(252,840).
att(31,1010).
att(420,243).
att(740,1093).
att(35,1025).
att(135,283).
att(1124,1407).
att(1307,695).
att(747,629).
att(23,1298).
att(1153,937).
att(252,862).
att(418,296).
att(31,877).
att(1151,1000).
att(11,897).
att(1128,1402).
att(420,296).
att(318,1248).
att(1219,1045).
att(1267,1096).
att(1337,503).
att(385,52).
att(133,332).
att(1219,1110).
att(27,1113).
att(269,1017).
att(35,1067).
att(35,1083).
att(135,304).
att(417,370).
att(379,108).
att(418,332).
att(420,338).
att(11,1124).
att(311,1334).
att(35,1124).
att(10,961).
att(10,969).
att(29,1117).
att(37,1080).
att(1216,1110).
att(29,1124).
att(258,882).
att(414,243).
att(420,366).
att(385,74).
att(432,188).
att(267,1116).
att(422,413).
att(219,806).
att(1221,1000).
att(219,860).
att(377,77).
att(219,871).
att(426,161).
att(381,198).
att(10,1205).
att(1345,476).
att(414,450).
att(1353,696).
att(1221,991).
att(1258,1055).
att(426,81).
att(33,1083).
att(379,102).
att(260,1031).
att(385,106).
att(1221,1059).
att(35,1157).
att(255,1020).
att(381,88).
att(417,301).
att(1216,1000).
att(252,1017).
att(418,408).
att(1217,1001).
att(223,842).
att(253,1077).
att(1219,667).
att(31,1309).
att(383,150).
att(1264,689).
att(37,1345).
att(1080,1380).
att(1217,641).
att(378,150).
att(1258,667).
att(432,156).
att(1261,472).
att(1217,689).
att(385,206).
att(1298,978).
att(262,1087).
att(379,153).
att(1307,937).
att(11,1153).
att(256,1087).
att(428,296).
att(37,1221).
att(255,1088).
att(1298,991).
att(39,1300).
att(381,159).
att(1216,670).
att(390,44).
att(1221,601).
att(1221,592).
att(1073,1374).
att(388,44).
att(211,882).
att(211,889).
att(379,366).
att(392,100).
att(381,358).
att(428,332).
att(1221,642).
att(432,238).
att(1083,1380).
att(1070,1374).
att(1063,1394).
att(213,906).
att(209,838).
att(1067,1381).
att(1251,669).
att(232,123).
att(96,1171).
att(356,757).
att(104,1183).
att(1093,1355).
att(92,1095).
att(74,623).
att(308,739).
att(1233,316).
att(950,587).
att(1287,434).
att(245,385).
att(245,383).
att(79,595).
att(102,1171).
att(947,680).
att(1099,1325).
att(1288,393).
att(81,604).
att(82,1093).
att(106,1179).
att(355,757).
att(1099,1315).
att(1285,583).
att(82,1095).
att(1091,1358).
att(351,783).
att(1294,393).
att(96,1229).
att(232,228).
att(1285,649).
att(79,643).
att(86,599).
att(1285,621).
att(355,766).
att(1273,540).
att(351,739).
att(1229,323).
att(245,135).
att(1229,333).
att(1279,628).
att(92,980).
att(236,390).
att(1101,1367).
att(1224,375).
att(1103,1412).
att(1052,1060).
att(1103,1420).
att(232,428).
att(1103,1396).
att(81,1089).
att(1103,1406).
att(1103,1375).
att(1288,482).
att(355,798).
att(1090,1349).
att(389,1035).
att(1273,583).
att(75,1103).
att(98,1181).
att(236,379).
att(389,1028).
att(347,901).
att(350,826).
att(1099,1412).
att(1046,1082).
att(1099,1420).
att(238,432).
att(1229,393).
att(1048,1069).
att(307,804).
att(249,256).
att(1294,523).
att(247,267).
att(1044,1186).
att(1090,1375).
att(305,788).
att(1233,488).
att(102,1058).
att(108,930).
att(1089,1390).
att(440,792).
att(1229,464).
att(1043,1065).
att(104,1056).
att(356,868).
att(276,432).
att(352,801).
att(98,1108).
att(308,829).
att(453,782).
att(104,993).
att(411,771).
att(1043,1072).
att(1233,506).
att(440,799).
att(1233,484).
att(1233,466).
att(456,771).
att(245,260).
att(243,256).
att(1229,488).
att(1229,482).
att(1048,1336).
att(1244,454).
att(309,764).
att(312,738).
att(236,176).
att(1041,1218).
att(289,311).
att(1050,1260).
att(1038,1270).
att(102,934).
att(1050,1257).
att(1052,1255).
att(1235,317).
att(1292,655).
att(249,180).
att(1171,323).
att(289,41).
att(240,180).
att(318,768).
att(1227,655).
att(24,736).
att(92,629).
att(1288,612).
att(236,166).
att(82,623).
att(249,211).
att(1229,523).
att(95,996).
att(236,219).
att(356,917).
att(1245,333).
att(274,350).
att(94,996).
att(1044,1152).
att(296,41).
att(286,25).
att(240,211).
att(350,917).
att(104,1275).
att(283,312).
att(1048,1247).
att(1041,1295).
att(1229,536).
att(1239,397).
att(1290,705).
att(1041,1310).
att(1229,688).
att(204,1041).
att(25,783).
att(193,595).
att(1177,438).
att(1235,391).
att(343,387).
att(23,778).
att(349,1024).
att(1231,573).
att(360,377).
att(1044,1317).
att(196,1038).
att(81,1136).
att(318,823).
att(74,1193).
att(193,1099).
att(318,831).
att(306,1027).
att(360,432).
att(1239,391).
att(75,1173).
att(1224,653).
att(356,1024).
att(75,1175).
att(1290,575).
att(342,430).
att(198,584).
att(198,581).
att(204,1091).
att(372,135).
att(1235,434).
att(200,591).
att(206,1105).
att(372,424).
att(86,1183).
att(1233,577).
att(349,973).
att(342,392).
att(1171,438).
att(194,1093).
att(84,1183).
att(190,602).
att(368,432).
att(351,880).
att(343,311).
att(1050,1388).
att(338,267).
att(1245,542).
att(358,355).
att(192,993).
att(1043,1377).
att(1177,464).
att(364,349).
att(990,1144).
att(1171,464).
att(311,833).
att(1056,1197).
att(372,392).
att(1231,703).
att(1050,1396).
att(23,752).
att(206,990).
att(1043,1323).
att(192,1052).
att(335,258).
att(342,318).
att(746,943).
att(332,267).
att(319,788).
att(980,1072).
att(360,347).
att(1048,1388).
att(993,1301).
att(637,142).
att(1038,1470).
att(81,980).
att(362,260).
att(1193,333).
att(74,987).
att(75,999).
att(92,1279).
att(370,210).
att(23,839).
att(360,217).
att(985,1297).
att(29,737).
att(1235,621).
att(86,1275).
att(1235,619).
att(343,166).
att(1171,536).
att(1171,523).
att(990,1250).
att(311,843).
att(1192,339).
att(41,739).
att(372,258).
att(1239,560).
att(993,1152).
att(1056,1270).
att(242,389).
att(1058,1295).
att(81,1041).
att(370,267).
att(309,865).
att(987,1145).
att(1241,548).
att(249,308).
att(247,319).
att(310,849).
att(980,1150).
att(990,1313).
att(980,1361).
att(318,973).
att(206,595).
att(312,880).
att(1239,579).
att(983,1250).
att(629,277).
att(27,776).
att(10,732).
att(198,629).
att(1239,587).
att(10,783).
att(996,1325).
att(1177,610).
att(24,880).
att(193,645).
att(370,418).
att(1235,682).
att(623,241).
att(1136,444).
att(1181,402).
att(190,639).
att(236,27).
att(1056,1361).
att(206,639).
att(1193,454).
att(1239,621).
att(25,845).
att(249,39).
att(1239,619).
att(37,766).
att(993,1257).
att(1245,579).
att(204,626).
att(23,843).
att(1171,655).
att(1181,438).
att(1235,577).
att(1136,320).
att(1235,587).
att(1136,333).
att(164,169).
att(1173,1475).
att(341,1236).
att(153,210).
att(993,562).
att(312,158).
att(161,166).
att(29,17).
att(143,225).
att(37,73).
att(629,1160).
att(11,26).
att(335,1137).
att(23,154).
att(57,626).
att(11,38).
att(138,209).
att(633,1295).
att(1177,1480).
att(623,1150).
att(1235,1520).
att(196,10).
att(1171,1480).
att(1173,1495).
att(35,36).
att(138,262).
att(35,38).
att(27,8).
att(629,1062).
att(983,510).
att(23,189).
att(193,350).
att(29,42).
att(633,1154).
att(309,158).
att(193,308).
att(206,41).
att(24,207).
att(311,189).
att(977,464).
att(977,631).
att(1003,441).
att(135,880).
att(138,120).
att(54,643).
att(161,424).
att(637,1253).
att(302,784).
att(1185,1421).
att(639,1255).
att(301,794).
att(328,818).
att(11,67).
att(39,53).
att(335,832).
att(141,117).
att(133,922).
att(1192,1395).
att(749,1341).
att(138,171).
att(141,176).
att(338,1138).
att(1239,1516).
att(983,570).
att(1239,1521).
att(10,30).
att(161,115).
att(645,1255).
att(1239,1514).
att(1175,1475).
att(130,890).
att(150,120).
att(143,169).
att(409,989).
att(193,31).
att(632,1295).
att(143,166).
att(328,1132).
att(409,992).
att(1181,1419).
att(48,623).
att(24,300).
att(635,1255).
att(990,655).
att(159,133).
att(335,816).
att(930,375).
att(993,705).
att(204,383).
att(635,1406).
att(1193,1425).
att(643,1399).
att(945,404).
att(192,415).
att(198,381).
att(417,1035).
att(597,1085).
att(417,1028).
att(632,1319).
att(999,482).
att(378,752).
att(192,130).
att(362,827).
att(378,757).
att(985,692).
att(930,457).
att(635,1325).
att(1005,391).
att(942,438).
att(385,774).
att(33,58).
att(999,399).
att(193,166).
att(10,60).
att(1139,1363).
att(366,784).
att(939,393).
att(196,420).
att(430,757).
att(39,113).
att(196,422).
att(1192,1473).
att(1181,1478).
att(360,769).
att(193,383).
att(643,1470).
att(635,1453).
att(604,1148).
att(33,203).
att(358,775).
att(1139,1442).
att(362,773).
att(945,548).
att(377,804).
att(1188,1521).
att(206,319).
att(599,1306).
att(37,250).
att(29,160).
att(190,344).
att(360,751).
att(11,205).
att(150,269).
att(593,1154).
att(633,1364).
att(322,938).
att(33,78).
att(626,1396).
att(343,769).
att(10,99).
att(27,207).
att(301,1289).
att(934,518).
att(1139,1426).
att(632,1420).
att(928,508).
att(322,927).
att(190,377).
att(930,511).
att(1181,1498).
att(362,789).
att(368,751).
att(1003,655).
att(390,739).
att(593,1218).
att(1003,653).
att(291,133).
att(385,839).
att(426,910).
att(1183,1520).
att(54,1288).
att(456,1146).
att(948,435).
att(945,615).
att(948,444).
att(1139,1514).
att(379,915).
att(296,418).
att(999,589).
att(96,623).
att(934,523).
att(96,629).
att(389,732).
att(283,121).
att(291,415).
att(106,593).
att(584,1152).
att(48,1279).
att(289,209).
att(31,148).
att(46,939).
att(584,1160).
att(35,290).
att(289,225).
att(942,545).
att(1139,1513).
att(35,297).
att(456,1191).
att(629,1451).
att(1185,1520).
att(153,10).
att(945,527).
att(59,1231).
att(293,120).
att(274,210).
att(629,1453).
att(104,633).
att(141,25).
att(143,318).
att(291,127).
att(106,645).
att(408,815).
att(430,843).
att(950,397).
att(274,424).
att(942,610).
att(61,1139).
att(348,783).
att(1285,446).
att(597,1349).
att(947,516).
att(50,1139).
att(47,1171).
att(293,387).
att(348,732).
att(387,750).
att(274,120).
att(289,184).
att(952,438).
att(1003,575).
att(48,1237).
att(942,631).
att(426,1035).
att(604,1325).
att(428,1027).
att(50,1171).
att(428,1032).
att(57,1185).
att(283,135).
att(1279,448).
att(98,602).
att(47,1227).
att(409,808).
att(453,785).
att(390,788).
att(1090,1085).
att(1103,1213).
att(59,1043).
att(595,1418).
att(304,769).
att(952,464).
att(161,356).
att(388,865).
att(1097,1197).
att(456,951).
att(159,350).
att(1273,496).
att(389,804).
att(159,306).
att(164,378).
att(302,794).
att(930,685).
att(302,763).
att(742,1376).
att(341,784).
att(387,809).
att(47,584).
att(301,751).
att(947,486).
att(153,383).
att(948,486).
att(392,804).
att(46,595).
att(57,1108).
att(143,133).
att(356,737).
att(390,845).
att(1093,1270).
att(286,262).
att(289,264).
att(595,1470).
att(296,210).
att(387,925).
att(350,739).
att(161,29).
att(345,849).
att(345,847).
att(280,217).
att(57,1283).
att(740,1381).
att(440,949).
att(48,980).
att(1103,1152).
att(440,1284).
att(296,267).
att(164,351).
att(153,306).
att(283,252).
att(1099,1308).
att(54,987).
att(61,1005).
att(344,804).
att(1089,1186).
att(143,387).
att(328,775).
att(948,537).
att(328,781).
att(453,1286).
att(291,211).
att(1275,480).
att(210,1027).
att(171,752).
att(1103,516).
att(348,111).
att(387,80).
att(104,355).
att(84,252).
att(1091,511).
att(108,307).
att(1285,1424).
att(355,6).
att(355,9).
att(1099,464).
att(1093,511).
att(96,378).
att(249,932).
att(1093,375).
att(180,758).
att(217,899).
att(1285,1391).
att(167,752).
att(217,1032).
att(108,347).
att(289,792).
att(388,89).
att(108,344).
att(169,752).
att(597,684).
att(1099,516).
att(344,55).
att(344,49).
att(178,759).
att(74,258).
att(1273,1504).
att(1091,542).
att(96,25).
att(98,318).
att(75,211).
att(308,2).
att(178,875).
att(390,157).
att(86,217).
att(171,810).
att(242,1289).
att(88,221).
att(308,6).
att(1231,1262).
att(81,256).
att(96,319).
att(242,1226).
att(1292,1360).
att(387,139).
att(306,30).
att(350,15).
att(1095,542).
att(1099,537).
att(1279,1492).
att(1101,535).
att(228,843).
att(307,3).
att(92,213).
att(96,305).
att(356,42).
att(1281,1495).
att(1281,1502).
att(950,1511).
att(180,798).
att(96,351).
att(1105,488).
att(1285,1511).
att(1287,1343).
att(345,199).
att(79,260).
att(242,1286).
att(242,1291).
att(166,823).
att(243,1176).
att(388,158).
att(1101,560).
att(1093,481).
att(166,831).
att(166,826).
att(1290,1254).
att(1091,464).
att(96,176).
att(274,1176).
att(1108,438).
att(98,176).
att(291,1142).
att(308,18).
att(296,1138).
att(1050,336).
att(1052,326).
att(48,27).
att(308,19).
att(121,738).
att(305,17).
att(1233,1328).
att(117,764).
att(102,176).
att(123,774).
att(350,56).
att(296,815).
att(52,41).
att(169,910).
att(166,843).
att(355,60).
att(351,66).
att(1229,1314).
att(46,351).
att(110,209).
att(228,915).
att(1231,1346).
att(389,292).
att(348,154).
att(61,25).
att(102,262).
att(950,1514).
att(1231,1351).
att(950,1519).
att(180,849).
att(180,854).
att(274,1291).
att(348,162).
att(274,1289).
att(348,250).
att(1287,1395).
att(52,319).
att(96,210).
att(1229,1320).
att(351,14).
att(184,739).
att(47,305).
att(1288,1417).
att(291,1132).
att(356,64).
att(1294,1421).
att(166,896).
att(291,799).
att(1288,1430).
att(1050,399).
att(307,49).
att(291,792).
att(1093,680).
att(1292,1466).
att(178,973).
att(120,780).
att(1093,688).
att(1292,1473).
att(280,827).
att(299,785).
att(108,432).
att(1287,1426).
att(247,935).
att(98,422).
att(1224,1419).
att(274,1138).
att(274,1137).
att(96,117).
att(1050,444).
att(178,890).
att(1292,1384).
att(352,63).
att(349,58).
att(172,921).
att(174,1027).
att(305,49).
att(1227,1363).
att(119,831).
att(356,157).
att(309,3).
att(362,1276).
att(749,431).
att(308,87).
att(1290,1504).
att(232,779).
att(1043,514).
att(1241,1259).
att(310,1).
att(74,347).
att(92,25).
att(1052,488).
att(1052,562).
att(196,217).
att(305,197).
att(193,264).
att(1287,1475).
att(318,36).
att(360,1286).
att(1039,488).
att(343,1223).
att(77,346).
att(308,97).
att(88,346).
att(364,938).
att(1089,685).
att(92,349).
att(232,808).
att(342,1228).
att(349,78).
att(204,256).
att(171,973).
att(308,112).
att(206,269).
att(350,189).
att(318,2).
att(88,352).
att(1046,466).
att(77,344).
att(79,387).
att(240,767).
att(749,118).
att(206,120).
att(1048,617).
att(1041,527).
att(358,1138).
att(749,185).
att(1224,1478).
att(342,818).
att(1050,523).
att(1292,1523).
att(364,1169).
att(193,209).
att(115,845).
att(1235,1421).
att(24,12).
att(192,169).
att(1171,1320).
att(115,853).
att(987,320).
att(370,815).
att(115,847).
att(117,845).
att(742,437).
att(125,863).
att(355,294).
att(200,209).
att(1041,564).
att(309,32).
att(1229,1480).
att(186,847).
att(309,40).
att(92,29).
att(198,215).
att(352,151).
att(372,1236).
att(744,128).
att(75,319).
att(92,27).
att(198,209).
att(307,202).
att(342,1137).
att(743,134).
att(193,225).
att(115,868).
att(366,1138).
att(318,15).
att(350,294).
att(741,425).
att(360,1176).
att(1239,1342).
att(208,824).
att(993,435).
att(980,448).
att(1058,391).
att(75,120).
att(983,329).
att(236,817).
att(1056,400).
att(1239,1366).
att(249,1143).
att(1041,583).
att(249,1142).
att(985,313).
att(119,923).
att(236,1147).
att(81,121).
att(243,785).
att(84,135).
att(1044,575).
att(977,451).
att(1046,680).
att(318,97).
att(366,979).
att(184,1027).
att(422,780).
att(422,738).
att(75,180).
att(232,1176).
att(135,780).
att(236,1182).
att(25,17).
att(424,739).
att(119,851).
att(309,68).
att(186,900).
att(418,739).
att(987,446).
att(121,880).
att(1052,577).
att(1043,628).
att(247,815).
att(98,10).
att(245,1140).
att(1244,1502).
att(1038,678).
att(645,1203).
att(1245,1498).
att(119,973).
att(130,810).
att(232,825).
att(996,482).
att(238,789).
att(24,83).
att(310,203).
att(635,1203).
att(977,512).
att(240,792).
att(1244,1441).
att(635,1085).
att(1056,510).
att(208,763).
att(232,817).
att(82,383).
att(120,880).
att(1043,682).
att(1188,1256).
att(1235,1442).
att(1043,690).
att(1177,1446).
att(249,799).
att(1044,678).
att(133,826).
att(626,320).
att(319,1116).
att(980,1400).
att(269,780).
att(159,974).
att(193,1132).
att(206,825).
att(645,438).
att(161,982).
att(37,797).
att(629,333).
att(629,336).
att(29,800).
att(746,638).
att(206,802).
att(309,1123).
att(190,815).
att(253,732).
att(623,323).
att(635,444).
att(318,970).
att(312,1013).
att(194,816).
att(1041,1516).
att(1041,1514).
att(417,28).
att(418,14).
att(309,1026).
att(309,1023).
att(983,1351).
att(24,1011).
att(193,1138).
att(258,733).
att(133,64).
att(318,964).
att(159,989).
att(35,837).
att(318,1167).
att(626,393).
att(748,463).
att(749,473).
att(194,751).
att(422,107).
att(196,781).
att(190,794).
att(626,400).
att(993,1471).
att(1058,1442).
att(255,772).
att(164,949).
att(424,105).
att(269,833).
att(747,475).
att(1058,1426).
att(309,1215).
att(632,391).
att(983,1446).
att(193,792).
att(645,464).
att(193,765).
att(11,860).
att(198,782).
att(746,695).
att(147,1276).
att(193,799).
att(643,399).
att(990,1446).
att(138,979).
att(1056,1471).
att(643,393).
att(417,64).
att(135,107).
att(37,850).
att(37,852).
att(198,794).
att(256,752).
att(193,825).
att(206,782).
att(258,755).
att(23,1125).
att(745,472).
att(23,1123).
att(39,864).
att(749,491).
att(253,778).
att(133,97).
att(744,463).
att(253,814).
att(998,748).
att(626,486).
att(1003,1357).
att(190,1280).
att(945,1242).
att(993,1512).
att(262,804).
att(74,794).
att(643,548).
att(29,906).
att(637,482).
att(130,300).
att(192,1284).
att(255,801).
att(192,1274).
att(748,1055).
att(256,874).
att(936,1343).
att(742,1004).
att(75,765).
att(253,834).
att(82,767).
att(977,1423).
att(635,482).
att(1003,1265).
att(1003,1246).
att(635,464).
att(626,518).
att(637,510).
att(637,506).
att(75,792).
att(37,913).
att(130,197).
att(629,393).
att(192,941).
att(417,85).
att(130,162).
att(198,1278).
att(256,804).
att(639,488).
att(255,833).
att(639,464).
att(88,773).
att(987,1513).
att(939,1254).
att(985,1429).
att(133,201).
att(745,1042).
att(81,808).
att(267,788).
att(987,1502).
att(1003,1414).
att(188,1176).
att(626,537).
att(945,1320).
att(262,845).
att(206,1182).
att(945,1326).
att(1005,1363).
att(193,1172).
att(198,1132).
att(204,816).
att(742,1047).
att(10,1031).
att(928,1320).
att(742,1109).
att(936,1395).
att(746,1106).
att(430,66).
att(1003,1318).
att(749,638).
att(385,30).
att(385,28).
att(643,540).
att(942,1360).
att(990,1518).
att(33,898).
att(1003,1312).
att(1056,1521).
att(206,1238).
att(426,21).
att(428,13).
att(936,1320).
att(37,967).
att(204,1135).
att(928,1343).
att(31,1129).
att(267,1027).
att(584,457).
att(584,451).
att(602,400).
att(153,796).
att(211,752).
att(211,758).
att(54,381).
att(581,435).
att(999,1430).
att(274,974).
att(161,777).
att(141,1146).
att(50,130).
att(643,579).
att(604,454).
att(27,1129).
att(379,62).
att(590,313).
att(37,1068).
att(262,905).
att(639,610).
att(59,378).
att(46,120).
att(150,825).
att(291,944).
att(581,326).
att(258,899).
att(223,780).
att(223,766).
att(46,390).
att(383,89).
att(46,346).
att(96,267).
att(286,1276).
att(385,78).
att(48,356).
att(388,3).
att(110,258).
att(1003,1502).
att(1005,1497).
att(597,480).
att(54,351).
att(108,225).
att(211,812).
att(428,151).
att(209,833).
att(936,1495).
att(293,1236).
att(381,197).
att(936,1497).
att(599,542).
att(593,494).
att(1003,1441).
att(260,1027).
att(623,688).
att(930,1444).
att(54,378).
att(1005,1442).
att(260,1032).
att(219,828).
att(1005,1426).
att(385,90).
att(945,1441).
att(293,1223).
att(999,1513).
att(221,801).
att(381,78).
att(29,1212).
att(280,1274).
att(143,792).
att(209,760).
att(213,828).
att(381,85).
att(143,765).
att(293,1228).
att(48,219).
att(928,1474).
att(348,32).
att(928,1482).
att(138,1222).
att(147,1170).
att(930,1474).
att(942,1493).
att(217,865).
att(61,225).
att(897,741).
att(432,294).
att(1005,1516).
att(47,262).
att(388,68).
att(595,523).
att(604,649).
att(894,742).
att(942,1522).
att(746,501).
att(1099,326).
att(741,472).
att(52,210).
att(141,1223).
att(936,1516).
att(891,744).
att(159,1182).
att(213,847).
att(891,743).
att(939,1482).
att(348,9).
att(388,32).
att(57,217).
att(143,1282).
att(57,210).
att(59,219).
att(345,42).
att(1285,1335).
att(379,160).
att(741,498).
att(389,28).
att(1273,1265).
att(590,484).
att(599,536).
att(210,788).
att(936,1475).
att(150,1223).
att(1281,1354).
att(213,905).
att(1093,457).
att(48,115).
att(171,736).
att(950,1366).
att(1095,323).
att(348,67).
att(593,589).
att(172,738).
att(595,655).
att(167,780).
att(161,822).
att(346,55).
att(141,1137).
att(389,55).
att(599,680).
att(46,166).
att(209,925).
att(392,107).
att(1281,1389).
att(52,184).
att(47,169).
att(599,688).
att(1093,336).
att(876,748).
att(389,70).
att(950,1400).
att(50,176).
att(348,16).
att(156,1176).
att(61,178).
att(174,739).
att(138,1240).
att(161,1147).
att(161,1146).
att(153,1138).
att(1091,329).
att(590,540).
att(1279,1419).
att(1273,1328).
att(884,742).
att(52,174).
att(342,1461).
att(75,592).
att(1115,742).
att(1044,1012).
att(1126,743).
att(1231,331).
att(1044,1010).
att(245,380).
att(1124,743).
att(358,1487).
att(1041,965).
att(1108,961).
att(1041,1033).
att(232,181).
att(1093,1261).
att(1090,1307).
att(1290,334).
att(1108,969).
att(242,177).
att(1103,1216).
att(1097,1248).
att(360,1509).
att(1287,452).
att(245,132).
att(204,463).
att(343,265).
att(1290,507).
att(206,469).
att(342,1439).
att(1231,376).
att(1235,155).
att(1044,1113).
att(75,1110).
att(79,1053).
att(1292,462).
att(86,997).
att(358,1434).
att(1227,492).
att(1244,282).
att(1048,1205).
att(236,429).
att(1111,743).
att(204,500).
att(1245,152).
att(204,491).
att(236,431).
att(343,1438).
att(236,386).
att(1043,965).
att(1231,439).
att(1231,455).
att(1043,971).
att(362,1479).
att(1044,955).
att(1233,455).
att(232,134).
att(1052,1078).
att(196,499).
att(81,1102).
att(196,503).
att(88,475).
att(1224,485).
att(1224,465).
att(240,1433).
att(1052,1151).
att(1043,1166).
att(1044,1151).
att(1237,361).
att(1244,363).
att(104,991).
att(249,1433).
att(1041,1166).
att(75,504).
att(232,1461).
att(240,1462).
att(1292,487).
att(1292,465).
att(1171,142).
att(243,254).
att(240,1436).
att(1237,231).
att(245,257).
att(247,266).
att(1237,237).
att(104,978).
att(232,1452).
att(1239,277).
att(1041,1195).
att(84,474).
att(1244,235).
att(1056,963).
att(342,1501).
att(1177,359).
att(81,686).
att(987,965).
att(81,669).
att(243,128).
att(1244,447).
att(245,183).
att(990,961).
att(1048,1362).
att(1048,1353).
att(1239,359).
att(92,666).
att(98,1001).
att(232,259).
att(1050,1296).
att(996,878).
att(81,473).
att(86,693).
att(1044,1153).
att(1235,359).
att(88,697).
att(232,1439).
att(79,694).
att(84,661).
att(86,670).
att(102,937).
att(1173,353).
att(82,663).
att(980,1126).
att(1244,495).
att(1239,376).
att(372,436).
att(302,1435).
att(204,1045).
att(1177,458).
att(198,1047).
att(1181,140).
att(328,1464).
att(338,1436).
att(977,1119).
att(332,1436).
att(1244,401).
att(1244,373).
att(645,52).
att(342,431).
att(993,969).
att(193,634).
att(1241,458).
att(342,384).
att(1043,1264).
att(193,624).
att(192,603).
att(1044,1362).
att(1044,1353).
att(328,1490).
att(372,437).
att(1173,449).
att(1185,277).
att(1239,483).
att(1175,517).
att(629,96).
att(632,94).
att(153,470).
att(161,696).
att(341,266).
att(1179,273).
att(341,270).
att(192,981).
att(328,266).
att(985,1205).
att(143,468).
att(635,193).
att(198,1014).
att(1183,277).
att(1173,495).
att(1183,152).
att(188,1042).
att(1244,465).
att(629,52).
att(193,1096).
att(1058,1205).
att(206,991).
att(193,1109).
att(1235,467).
att(1237,479).
att(150,463).
att(987,1166).
att(635,75).
att(147,475).
att(1173,517).
att(942,881).
att(75,931).
att(88,1004).
att(193,477).
att(945,878).
att(342,177).
att(88,946).
att(637,147).
att(983,1159).
att(204,667).
att(81,1006).
att(999,969).
att(74,1014).
att(198,665).
att(633,286).
att(633,280).
att(366,181).
att(190,696).
att(92,943).
att(343,271).
att(92,931).
att(192,493).
att(342,222).
att(75,1057).
att(88,1014).
att(192,475).
att(81,988).
att(1173,563).
att(1192,371).
att(1192,357).
att(341,1508).
att(302,1483).
att(626,243).
att(945,953).
att(1139,314).
att(645,370).
att(302,1486).
att(645,332).
att(342,429).
att(301,1460).
att(190,641).
att(593,52).
att(1181,405).
att(977,1359).
att(930,965).
att(939,1124).
att(635,247).
att(635,249).
att(980,1267).
att(626,299).
att(1058,1356).
att(985,1300).
att(196,627).
att(1188,374).
att(204,601).
att(987,1332).
att(190,668).
att(459,593).
att(626,1155).
att(48,666).
att(604,876).
att(635,1271).
att(1188,1325).
att(637,1268).
att(47,693).
att(59,646).
att(440,591).
att(939,371).
att(143,222).
att(150,170).
att(59,696).
att(1056,558).
att(1193,1333).
att(1139,1301).
att(945,244).
att(57,667).
att(939,234).
att(302,1181).
att(623,1201).
att(159,227).
att(440,626).
att(1198,745).
att(143,265).
att(1136,1260).
att(1192,1390).
att(48,598).
att(440,1050).
att(164,132).
att(643,1337).
att(411,987).
att(945,324).
att(289,1509).
att(1185,1377).
att(999,374).
att(150,134).
att(291,1465).
att(291,1462).
att(1003,447).
att(411,1044).
att(1005,314).
att(440,1099).
att(141,229).
att(635,1216).
att(54,666).
att(59,627).
att(411,1048).
att(61,646).
att(164,122).
att(54,664).
att(161,131).
att(928,353).
att(286,1506).
att(299,1496).
att(1181,1416).
att(584,884).
att(450,1039).
att(47,666).
att(150,118).
att(1183,1470).
att(602,1086).
att(1183,1451).
att(1185,1470).
att(194,436).
att(590,958).
att(1185,1451).
att(999,485).
att(200,437).
att(945,490).
att(328,993).
att(936,515).
att(593,1061).
att(939,507).
att(198,429).
att(930,410).
att(1192,1449).
att(190,124).
att(153,1508).
att(1183,1377).
att(629,1356).
att(159,1460).
att(143,1509).
att(632,1345).
att(143,1501).
att(159,1454).
att(204,380).
att(164,1483).
att(581,969).
att(138,1435).
att(138,1438).
att(1285,278).
att(947,241).
att(61,476).
att(1279,248).
att(1099,888).
att(1275,278).
att(450,645).
att(928,487).
att(301,1244).
att(581,1078).
att(1003,489).
att(332,952).
att(1163,748).
att(1285,145).
att(302,1283).
att(302,1275).
att(1161,747).
att(50,498).
att(301,1229).
att(338,952).
att(1273,152).
att(1281,285).
att(190,384).
att(141,1460).
att(928,497).
att(280,122).
att(245,1496).
att(276,170).
att(950,361).
att(1099,877).
att(411,1134).
att(1285,365).
att(104,636).
att(453,1136).
att(104,1110).
att(1097,963).
att(108,1109).
att(240,1465).
att(1273,442).
att(1288,163).
att(1101,1070).
att(590,1332).
att(1101,1078).
att(1101,1080).
att(249,1486).
att(232,1507).
att(584,1261).
att(240,1501).
att(289,118).
att(595,1258).
att(240,1487).
att(1089,1010).
att(1099,1124).
att(947,374).
att(1281,447).
att(1273,334).
att(1281,449).
att(110,504).
att(138,382).
att(1231,142).
att(1292,277).
att(46,1100).
att(1090,1083).
att(950,483).
att(54,1104).
att(1105,1201).
att(293,270).
att(59,997).
att(54,1049).
att(947,543).
att(46,1096).
att(141,384).
att(440,934).
att(1281,479).
att(1294,241).
att(47,1100).
att(291,268).
att(1101,1151).
att(1101,1161).
att(1275,509).
att(299,1459).
att(280,1463).
att(1103,1086).
att(440,993).
att(54,594).
att(138,136).
att(164,386).
att(143,423).
att(1097,1083).
att(1099,1198).
att(283,1458).
att(57,1110).
att(291,1438).
att(47,600).
att(1101,1198).
att(1089,1128).
att(153,429).
att(1273,373).
att(291,1433).
att(1101,1208).
att(104,671).
att(1103,1309).
att(61,937).
att(1283,563).
att(1292,371).
att(1233,235).
att(106,663).
att(106,664).
att(1211,740).
att(1099,1216).
att(98,689).
att(44,1042).
att(1101,1271).
att(440,1283).
att(1090,1208).
att(102,504).
att(1285,479).
att(102,498).
att(1287,239).
att(54,1054).
att(1279,568).
att(1099,1303).
att(98,474).
att(104,689).
att(409,1245).
att(74,1460).
att(1229,1270).
att(75,1433).
att(82,268).
att(1233,1144).
att(342,645).
att(1292,1304).
att(81,1458).
att(92,270).
att(242,934).
att(240,952).
att(1097,509).
att(1227,1295).
att(1048,273).
att(1288,1257).
att(1091,513).
att(240,948).
att(1231,1190).
att(98,429).
att(243,948).
att(1281,1457).
att(74,1485).
att(75,1462).
att(94,134).
att(232,1058).
att(1233,1156).
att(1287,1295).
att(79,1459).
att(1287,1302).
att(1288,1306).
att(1101,507).
att(1093,398).
att(236,1237).
att(249,1175).
att(1041,248).
att(372,591).
att(1041,244).
att(1043,277).
att(1103,552).
att(1044,273).
att(1052,235).
att(1233,1250).
att(1292,1333).
att(1044,235).
att(242,1244).
att(1287,1311).
att(86,168).
att(1217,743).
att(343,1095).
att(92,212).
att(92,216).
att(343,602).
att(1090,517).
att(358,645).
att(370,645).
att(1090,495).
att(1043,152).
att(1292,1257).
att(368,593).
att(358,639).
att(1038,137).
att(249,1103).
att(280,1179).
att(1108,439).
att(232,593).
att(98,229).
att(104,128).
att(1294,1377).
att(1038,367).
att(274,1245).
att(249,1099).
att(249,1105).
att(1171,1060).
att(100,170).
att(1251,746).
att(1044,331).
att(240,1103).
att(82,1506).
att(1244,1190).
att(243,1052).
att(243,1050).
att(1041,327).
att(104,230).
att(98,271).
att(280,1177).
att(96,216).
att(98,222).
att(1043,237).
att(1292,1327).
att(274,1294).
att(274,1292).
att(286,1171).
att(240,593).
att(1048,330).
att(1258,744).
att(293,1179).
att(1258,748).
att(236,590).
att(249,993).
att(236,1056).
att(1241,1144).
att(232,1039).
att(1245,1306).
att(86,1483).
att(81,1499).
att(245,945).
att(1044,396).
att(240,996).
att(1044,403).
att(240,977).
att(1171,1160).
att(1233,1457).
att(75,1483).
att(1056,140).
att(1227,1457).
att(108,436).
att(1294,1470).
att(95,229).
att(1224,1416).
att(92,1488).
att(98,187).
att(276,1185).
att(276,1183).
att(98,124).
att(1177,1062).
att(274,1193).
att(110,128).
att(1171,1062).
att(249,1052).
att(100,128).
att(1046,398).
att(1235,1156).
att(1287,1447).
att(1237,1150).
att(1287,1449).
att(95,168).
att(236,1043).
att(1048,403).
att(1229,1388).
att(302,584).
att(1041,485).
att(1038,519).
att(338,645).
att(193,1432).
att(200,266).
att(301,584).
att(338,639).
att(364,1283).
att(302,602).
att(335,602).
att(1043,471).
att(193,266).
att(193,265).
att(342,1181).
att(1171,1257).
att(190,259).
att(1056,233).
att(1244,1218).
att(996,142).
att(190,1436).
att(1043,396).
att(204,257).
att(1177,1154).
att(74,382).
att(204,254).
att(1231,1457).
att(74,384).
att(192,1437).
att(1043,495).
att(1235,1263).
att(204,272).
att(1171,1270).
att(1044,492).
att(1239,1319).
att(1058,314).
att(1239,1325).
att(1175,1349).
att(190,177).
att(332,1108).
att(1056,331).
att(338,1105).
att(193,227).
att(1235,1401).
att(623,878).
att(1235,1393).
att(1192,1075).
att(1237,1416).
att(190,168).
att(362,1193).
att(192,229).
att(1239,1347).
att(993,235).
att(1177,1253).
att(1050,563).
att(1043,487).
att(343,1179).
att(1235,1347).
att(987,363).
att(364,1244).
att(193,222).
att(198,179).
att(635,876).
att(194,170).
att(635,881).
att(635,894).
att(1173,1361).
att(364,1095).
att(358,1052).
att(1239,1372).
att(1188,1154).
att(999,163).
att(1175,1375).
att(81,182).
att(987,396).
att(192,1506).
att(362,1046).
att(81,124).
att(1181,1148).
att(362,1039).
att(635,1119).
att(1171,1377).
att(1269,748).
att(1056,455).
att(1239,1401).
att(366,1108).
att(370,1105).
att(204,1507).
att(645,969).
att(79,179).
att(1181,1189).
att(81,177).
att(77,170).
att(626,1012).
att(990,458).
att(945,129).
att(342,952).
att(372,999).
att(1185,1306).
att(993,492).
att(74,419).
att(206,1436).
att(1139,1160).
att(190,1458).
att(188,1454).
att(1181,1266).
att(633,1208).
att(930,140).
att(92,384).
att(193,1503).
att(206,1459).
att(1192,1302).
att(1239,1470).
att(1179,1154).
att(74,126).
att(75,134).
att(204,1452).
att(190,1483).
att(368,930).
att(192,1489).
att(936,163).
att(939,142).
att(1171,1470).
att(1181,1297).
att(987,513).
att(1136,1154).
att(190,1490).
att(1003,129).
att(194,1454).
att(366,934).
att(980,396).
att(161,980).
att(54,1509).
att(61,1490).
att(999,1203).
att(10,757).
att(328,390).
att(29,807).
att(928,1062).
att(11,829).
att(928,1075).
att(635,439).
att(335,306).
att(635,331).
att(190,1181).
att(61,1503).
att(35,819).
att(304,344).
att(37,829).
att(161,1043).
att(999,1060).
att(328,430).
att(1188,482).
att(193,1179).
att(328,381).
att(25,973).
att(161,1056).
att(985,1325).
att(39,819).
att(939,1082).
att(192,1183).
att(141,1095).
att(1136,400).
att(977,1313).
att(939,1270).
att(1181,532).
att(138,945).
att(35,845).
att(1003,1304).
att(161,1285).
att(942,1160).
att(411,176).
att(61,1437).
att(138,999).
att(138,1005).
att(945,1160).
att(934,1203).
att(945,1304).
att(293,643).
att(999,1218).
att(48,1427).
att(440,211).
att(936,1302).
att(1181,536).
att(440,215).
att(440,209).
att(633,492).
att(322,349).
att(459,260).
att(440,269).
att(48,1461).
att(54,1490).
att(153,985).
att(1005,1150).
att(338,319).
att(29,867).
att(936,1150).
att(1188,523).
att(328,305).
att(599,152).
att(983,1364).
att(161,1279).
att(1179,548).
att(930,1190).
att(977,1392).
att(50,1460).
att(1136,486).
att(46,1483).
att(1003,1355).
att(595,273).
att(204,1233).
att(328,217).
att(604,239).
att(328,209).
att(364,25).
att(597,285).
att(198,1292).
att(193,948).
att(198,1229).
att(338,184).
att(999,1323).
att(1003,1266).
att(635,465).
att(595,142).
att(190,939).
att(1183,536).
att(372,312).
att(626,492).
att(338,210).
att(1005,1218).
att(27,851).
att(1179,655).
att(999,1355).
att(29,917).
att(338,174).
att(332,174).
att(632,490).
att(928,1302).
att(1136,537).
att(164,1095).
att(942,1313).
att(934,1325).
att(192,1235).
att(192,1239).
att(928,1311).
att(939,1315).
att(595,241).
att(1003,1323).
att(364,31).
att(302,418).
att(1003,1310).
att(302,415).
att(341,121).
att(206,1177).
att(1185,579).
att(193,1294).
att(1005,1393).
att(141,629).
att(150,595).
att(945,1310).
att(159,1095).
att(204,1136).
att(143,623).
att(301,378).
att(948,1082).
att(332,418).
att(936,1311).
att(928,1358).
att(581,235).
att(591,365).
att(301,428).
att(102,1486).
att(604,398).
att(604,513).
att(296,952).
att(948,1308).
att(928,1390).
att(46,128).
att(104,1464).
att(54,126).
att(48,131).
att(289,1039).
att(945,1420).
att(1279,1062).
att(1279,1064).
att(945,1386).
att(597,455).
att(59,386).
att(948,1152).
att(54,419).
att(450,306).
att(47,126).
att(950,1253).
att(581,492).
att(208,602).
att(249,626).
att(280,1231).
att(952,1255).
att(245,599).
att(1091,282).
att(1279,1263).
att(98,265).
att(591,485).
att(1101,237).
att(1093,163).
att(584,396).
att(1334,748).
att(98,1436).
att(450,31).
att(411,31).
att(1285,1160).
att(1091,145).
att(1330,747).
att(947,1260).
att(1101,288).
att(47,382).
att(47,386).
att(934,1453).
att(293,1290).
att(928,1449).
att(1275,1361).
att(1275,1352).
att(46,265).
att(46,268).
att(299,581).
att(440,127).
att(1103,357).
att(1283,1352).
att(54,261).
att(411,422).
att(164,1171).
att(289,639).
att(947,1396).
att(46,261).
att(1273,1355).
att(1101,337).
att(159,1185).
att(590,546).
att(1093,363).
att(413,121).
att(584,487).
att(299,626).
att(296,645).
att(456,178).
att(159,1171).
att(161,1237).
att(595,543).
att(1279,1361).
att(1281,1349).
att(280,633).
att(1099,365).
att(1273,1247).
att(291,593).
att(408,418).
att(1093,241).
att(291,597).
att(291,595).
att(413,346).
att(280,1108).
att(413,344).
att(413,392).
att(1105,439).
att(108,1503).
att(283,1038).
att(286,1046).
att(1097,449).
att(952,1453).
att(1227,1210).
att(104,1487).
att(104,1486).
att(1091,439).
att(50,126).
att(443,430).
att(453,388).
att(283,1046).
att(408,306).
att(1093,445).
att(1292,1060).
att(411,430).
att(1287,1062).
att(950,1393).
att(147,1188).
att(289,593).
att(106,1509).
att(409,346).
att(59,126).
att(106,1503).
att(1229,1060).
att(409,344).
att(1229,1062).
att(141,1171).
att(276,599).
att(1089,363).
att(1279,1401).
att(1099,449).
att(1279,1393).
att(1090,353).
att(1224,332).
att(1239,82).
att(1177,94).
att(1224,301).
att(1235,79).
att(990,797).
att(1227,453).
att(1046,1123).
att(1056,806).
att(1038,1013).
att(1041,966).
att(1050,1026).
att(1050,1023).
att(1231,370).
att(1171,44).
att(1233,370).
att(1171,96).
att(1039,1023).
att(1039,1031).
att(1056,869).
att(1043,964).
att(1235,192).
att(1241,206).
att(301,1403).
att(1235,164).
att(980,790).
att(1237,164).
att(1048,1071).
att(1056,862).
att(1173,208).
att(645,30).
att(1058,887).
att(980,906).
att(1506,1360).
att(1237,343).
att(1056,898).
att(1050,1199).
att(996,838).
att(1510,1259).
att(1058,924).
att(370,1409).
att(1177,150).
att(358,1409).
att(639,14).
att(1241,338).
att(1139,61).
att(1241,332).
att(1245,409).
att(996,1031).
att(633,14).
att(987,964).
att(1181,77).
att(633,73).
att(1056,956).
att(1183,100).
att(980,1020).
att(1185,44).
att(639,30).
att(362,1374).
att(1245,304).
att(985,904).
att(1171,370).
att(1237,341).
att(1056,1026).
att(635,19).
att(990,1036).
att(635,113).
att(790,989).
att(980,1088).
att(790,992).
att(797,933).
att(629,66).
att(996,1116).
att(1510,1446).
att(811,949).
att(793,974).
att(987,1074).
att(803,933).
att(1181,153).
att(450,1402).
att(987,1084).
att(800,935).
att(977,1116).
att(1192,156).
att(635,105).
att(1139,94).
att(1239,453).
att(1185,77).
att(1139,102).
att(629,17).
att(813,989).
att(632,17).
att(408,1409).
att(1181,198).
att(1505,1413).
att(1171,409).
att(604,3).
att(1185,276).
att(936,837).
att(1496,1444).
att(983,1079).
att(985,1196).
att(1496,1430).
att(803,1222).
att(633,189).
att(440,1378).
att(795,951).
att(1056,1199).
att(1506,1430).
att(797,1274).
att(1507,1426).
att(945,860).
att(1501,1444).
att(629,49).
att(999,838).
att(1058,1165).
att(1179,150).
att(983,1036).
att(1181,276).
att(811,1230).
att(453,1374).
att(930,869).
att(1003,1020).
att(604,14).
att(626,148).
att(1487,1322).
att(328,1382).
att(1489,1342).
att(1508,1493).
att(1485,1348).
att(1005,887).
att(604,28).
att(942,918).
att(1499,1500).
att(945,924).
att(1485,1242).
att(1503,1513).
att(1510,1518).
att(632,197).
att(1485,1249).
att(1509,1493).
att(1508,1478).
att(581,9).
att(928,924).
att(1134,208).
att(1481,1419).
att(1183,409).
att(947,787).
att(945,966).
att(1491,1469).
att(945,1088).
att(591,63).
att(1489,1363).
att(1489,1366).
att(584,68).
att(950,797).
att(945,1011).
att(1481,1314).
att(629,157).
att(1496,1474).
att(1185,304).
att(1489,1421).
att(599,56).
att(632,284).
att(936,970).
att(591,70).
att(928,1029).
att(1181,408).
att(1181,409).
att(602,882).
att(274,1339).
att(409,1098).
att(411,606).
att(1183,1334).
att(945,242).
att(1185,1334).
att(599,1034).
att(584,909).
att(299,1341).
att(626,1199).
att(274,1381).
att(595,838).
att(590,859).
att(928,274).
att(599,902).
att(1134,1264).
att(440,1110).
att(459,1109).
att(413,1055).
att(450,988).
att(593,1031).
att(1285,48).
att(1139,1345).
att(604,1020).
att(999,459).
att(453,1042).
att(945,301).
att(590,904).
att(409,1055).
att(930,360).
att(947,299).
att(604,1165).
att(1091,873).
att(1279,164).
att(1279,161).
att(948,299).
att(1093,862).
att(1281,161).
att(322,1107).
att(459,504).
att(1103,811).
att(602,1129).
att(1099,806).
att(341,1049).
att(409,463).
att(440,493).
att(604,1037).
att(1275,86).
att(950,192).
att(1103,916).
att(440,671).
att(459,664).
att(947,358).
att(1101,887).
att(1281,236).
att(274,1405).
att(1093,918).
att(1090,871).
att(593,1165).
att(1095,860).
att(1103,846).
att(296,1409).
att(1097,848).
att(443,696).
att(291,1368).
att(947,243).
att(328,931).
att(413,667).
att(590,1081).
att(948,243).
att(1090,858).
att(1090,898).
att(1103,1008).
att(1231,57).
att(1233,61).
att(952,332).
att(1097,898).
att(952,408).
att(1091,1020).
att(1093,1008).
att(1093,1017).
att(1292,44).
att(1283,208).
att(1090,906).
att(1290,44).
att(1046,793).
att(1089,956).
att(1288,150).
att(1089,960).
att(1292,88).
att(1103,970).
att(1099,1122).
att(1048,787).
att(1099,1116).
att(1290,88).
att(1224,106).
att(1290,293).
att(249,1407).
att(245,1380).
att(1227,280).
att(1227,296).
att(1288,238).
att(1039,846).
att(1046,864).
att(1091,1037).
att(1091,1079).
att(1052,902).
att(1237,96).
att(1244,110).
att(1244,106).
att(1231,280).
att(1043,848).
att(1233,296).
att(1237,48).
att(1038,840).
att(232,937).
att(372,667).
att(362,697).
att(1233,1151).
att(1046,141).
att(190,1402).
att(1233,1268).
att(1227,1307).
att(1041,153).
att(342,667).
att(236,943).
att(1231,1208).
att(362,475).
att(1292,1157).
att(1044,196).
att(1227,1159).
att(358,696).
att(1041,198).
att(1239,959).
att(1108,370).
att(1290,1337).
att(1241,959).
att(1241,969).
att(1050,243).
att(1052,238).
att(1237,1117).
att(343,1096).
att(1173,963).
att(358,592).
att(1048,358).
att(190,1340).
att(1039,208).
att(366,1092).
att(200,1373).
att(1043,141).
att(1294,1334).
att(1177,878).
att(1043,164).
att(1231,1268).
att(1292,1258).
att(1233,1307).
att(366,600).
att(232,600).
att(1056,86).
att(1244,1211).
att(1244,1166).
att(996,94).
att(1175,1117).
att(1108,408).
att(242,594).
att(1235,1070).
att(1171,1114).
att(1235,1208).
att(240,1100).
att(1046,453).
att(247,1047).
att(980,95).
att(1173,1083).
att(242,627).
att(74,1382).
att(81,1365).
att(1241,1111).
att(1108,338).
att(1175,963).
att(1108,332).
att(240,627).
att(1235,1111).
att(1177,969).
att(1044,358).
att(1052,332).
att(240,647).
att(987,106).
att(1044,372).
att(1235,1078).
att(980,46).
att(1173,1113).
att(236,598).
att(980,48).
att(1048,341).
att(372,474).
att(342,689).
att(637,803).
att(343,694).
att(1038,413).
att(623,787).
att(633,871).
att(1181,891).
att(1192,897).
att(980,200).
att(372,503).
att(980,92).
att(232,1092).
att(1175,1083).
att(1235,1187).
att(1044,328).
att(987,198).
att(1044,411).
att(362,502).
att(635,811).
att(1039,450).
att(238,1042).
att(1175,1309).
att(1239,1221).
att(301,592).
att(629,860).
att(328,664).
att(1235,1334).
att(322,636).
att(623,838).
att(626,837).
att(150,1341).
att(980,161).
att(341,664).
att(1193,1033).
att(1245,1258).
att(983,206).
att(302,641).
att(1181,1012).
att(159,1339).
att(633,838).
att(1177,1268).
att(1136,878).
att(635,842).
att(635,838).
att(990,296).
att(1056,276).
att(138,1394).
att(341,1094).
att(1192,1083).
att(341,1092).
att(635,1029).
att(411,501).
att(936,46).
att(999,106).
att(1177,1359).
att(328,606).
att(928,44).
att(985,370).
att(328,1100).
att(987,328).
att(301,988).
att(977,360).
att(1136,1113).
att(1181,1086).
att(987,301).
att(1192,1061).
att(328,624).
att(1134,1010).
att(633,898).
att(1171,1356).
att(328,592).
att(632,924).
att(637,962).
att(934,94).
att(643,1127).
att(372,1109).
att(639,1116).
att(342,1001).
att(623,956).
att(358,1042).
att(626,1023).
att(343,1053).
att(1193,1195).
att(945,102).
att(1134,1086).
att(939,77).
att(302,668).
att(358,1000).
att(322,698).
att(159,1407).
att(945,141).
att(643,1167).
att(945,153).
att(364,997).
att(599,836).
att(936,274).
att(335,670).
att(928,141).
att(164,1405).
att(362,1014).
att(302,691).
att(1005,141).
att(358,994).
att(1188,1298).
att(1139,1214).
att(591,873).
att(939,141).
att(341,470).
att(633,1081).
att(930,188).
att(289,504).
att(147,991).
att(440,1436).
att(299,472).
att(456,1431).
att(1005,1214).
att(945,1166).
att(440,1432).
att(639,408).
att(147,978).
att(280,476).
att(633,453).
att(928,1083).
att(143,1109).
att(584,96).
att(1192,497).
att(138,1092).
att(341,436).
att(629,238).
att(604,106).
att(645,338).
att(639,338).
att(639,332).
att(936,1067).
att(440,1462).
att(299,670).
att(440,222).
att(138,1006).
att(443,216).
att(590,196).
att(291,634).
att(593,150).
att(930,1211).
att(584,88).
att(289,472).
att(161,943).
att(590,94).
att(276,472).
att(947,888).
att(1005,1268).
att(409,229).
att(948,878).
att(591,200).
att(632,459).
att(274,468).
att(1179,543).
att(593,188).
att(143,1054).
att(1181,565).
att(274,463).
att(280,693).
att(939,1157).
att(1192,571).
att(302,187).
att(193,931).
att(328,216).
att(54,1408).
att(302,124).
att(952,969).
att(59,1368).
att(450,1499).
att(453,1509).
att(584,274).
att(47,1408).
att(59,1402).
att(164,666).
att(164,664).
att(595,150).
att(604,289).
att(302,181).
att(302,168).
att(591,289).
att(52,1409).
att(153,670).
att(934,1268).
att(48,1405).
att(584,362).
att(1283,1113).
att(456,1483).
att(1091,94).
att(1099,75).
att(293,503).
att(1089,50).
att(590,372).
att(413,1458).
att(1275,1113).
att(1093,110).
att(291,504).
att(581,370).
att(1093,106).
att(459,1509).
att(411,1485).
att(47,1402).
att(1099,52).
att(159,1100).
att(301,382).
att(47,1368).
att(590,247).
att(591,370).
att(301,436).
att(301,429).
att(92,1408).
att(232,473).
att(947,1151).
att(245,669).
att(947,1296).
att(1099,150).
att(1099,159).
att(1093,194).
att(1103,193).
att(249,477).
att(274,1049).
att(299,994).
att(593,459).
att(1275,1078).
att(1095,96).
att(289,1109).
att(584,301).
att(299,997).
att(595,409).
att(245,695).
att(948,1155).
att(948,1151).
att(591,459).
att(590,335).
att(276,1042).
att(242,664).
att(1095,141).
att(236,646).
att(950,1221).
att(1292,1016).
att(1105,296).
att(1287,1019).
att(88,1382).
att(1097,280).
att(1099,249).
att(1279,1267).
att(86,1340).
att(1089,141).
att(75,1378).
att(75,1376).
att(86,1402).
att(1292,876).
att(242,686).
att(232,698).
att(274,931).
att(1287,897).
att(1099,143).
att(1099,274).
att(1099,299).
att(1227,888).
att(245,638).
att(1101,276).
att(740,740).
att(1288,1033).
att(1273,1159).
att(740,745).
att(289,638).
att(741,741).
att(289,627).
att(1273,1330).
att(456,126).
att(742,743).
att(743,743).
att(1091,370).
att(443,126).
att(459,179).
att(1275,1264).
att(289,664).
att(950,1356).
att(1103,240).
att(1103,249).
att(950,1334).
att(1292,971).
att(102,1404).
att(747,747).
att(748,744).
att(104,1340).
att(748,748).
att(274,661).
att(276,667).
att(249,504).
att(1103,459).
att(443,429).
att(1043,96).
att(456,384).
att(1044,95).
att(289,1106).
att(299,1110).
att(1231,1078).
att(1103,408).
att(1041,88).
att(95,1340).
att(280,1104).
att(440,423).
att(1095,370).
att(1105,408).
att(1041,95).
att(293,1049).
att(909,388).
att(914,351).
att(906,430).
att(789,1061).
att(763,1113).
att(1077,933).
att(1234,86).
att(1120,773).
att(916,352).
att(1225,301).
att(1120,769).
att(1174,50).
att(1234,94).
att(1088,779).
att(1088,767).
att(1129,763).
att(1236,94).
att(1291,304).
att(1122,799).
att(918,347).
att(1225,368).
att(765,1113).
att(1118,789).
att(909,377).
att(1081,949).
att(805,1305).
att(1037,1182).
att(794,1149).
att(1240,138).
att(1037,1132).
att(879,217).
att(920,25).
att(895,228).
att(974,793).
att(799,1216).
att(1236,289).
att(811,635).
att(911,312).
att(1169,198).
att(1071,1174).
att(805,1161).
att(909,352).
att(794,1166).
att(796,1201).
att(1240,198).
att(1223,409).
att(799,1151).
att(986,793).
att(907,350).
att(986,787).
att(799,1159).
att(799,1303).
att(1234,147).
att(920,319).
att(1236,153).
att(895,213).
att(1168,82).
att(771,1019).
att(975,846).
att(794,1261).
att(1112,1169).
att(1112,1168).
att(805,1330).
att(808,1334).
att(920,174).
att(773,1033).
att(1122,1168).
att(911,172).
att(974,844).
att(763,1264).
att(989,902).
att(924,178).
att(982,858).
att(846,31).
att(808,1258).
att(1127,1176).
att(913,258).
att(1176,156).
att(838,311).
att(1118,1168).
att(763,1309).
att(802,1359).
att(916,174).
att(850,39).
att(1036,932).
att(1087,974).
att(1240,328).
att(920,418).
att(1129,824).
att(920,415).
att(1180,95).
att(771,1113).
att(979,1023).
att(989,967).
att(974,902).
att(979,904).
att(1184,59).
att(794,1332).
att(924,130).
att(1178,50).
att(767,965).
att(777,1114).
att(769,1114).
att(782,1061).
att(1236,341).
att(916,424).
att(989,1034).
att(975,907).
att(1184,47).
att(889,309).
att(1008,264).
att(1168,408).
att(1215,1222).
att(775,1151).
att(1026,269).
att(1174,411).
att(889,319).
att(1199,1222).
att(803,934).
att(986,1087).
att(1180,153).
att(813,947).
att(976,1118).
att(904,41).
att(1031,174).
att(1135,198).
att(1191,141).
att(1135,196).
att(1182,200).
att(811,947).
att(779,1205).
att(781,1195).
att(975,1034).
att(813,1056).
att(1202,1278).
att(1132,106).
att(782,1334).
att(1008,174).
att(941,852).
att(882,31).
att(1011,176).
att(873,645).
att(1029,424).
att(811,1173).
att(929,836).
att(926,859).
att(860,629).
att(782,1356).
att(869,599).
att(974,1087).
att(979,1196).
att(979,1199).
att(1026,215).
att(800,952).
att(992,1087).
att(982,1112).
att(933,803).
att(1184,164).
att(1212,1168).
att(933,797).
att(775,1296).
att(813,1275).
att(904,10).
att(982,1088).
att(984,1087).
att(1209,1132).
att(1135,138).
att(976,1084).
att(1132,247).
att(797,595).
att(1071,1141).
att(1167,984).
att(811,597).
att(944,889).
att(904,420).
att(1141,100).
att(935,1008).
att(902,432).
att(895,422).
att(895,414).
att(1081,832).
att(816,57).
att(1146,96).
att(800,591).
att(1147,48).
att(1147,59).
att(879,178).
att(1182,247).
att(1068,1138).
att(1071,1191).
att(811,639).
att(895,172).
att(1077,1238).
att(771,1219).
att(895,171).
att(1077,1170).
att(982,1212).
att(1184,208).
att(811,593).
att(1146,44).
att(1133,208).
att(800,645).
att(1180,372).
att(885,176).
att(817,110).
att(1167,1282).
att(1087,789).
att(1212,926).
att(1079,782).
att(1029,264).
att(1140,194).
att(1084,767).
att(1140,204).
att(1164,1228).
att(1138,408).
att(1280,813).
att(949,806).
att(1206,1284).
att(803,1046).
att(926,1011).
att(1084,775).
att(1206,1276).
att(904,383).
att(817,61).
att(941,1034).
att(1147,92).
att(1068,832).
att(815,52).
att(1212,974).
att(892,377).
att(1164,949).
att(1178,456).
att(1209,929).
att(1141,84).
att(1196,979).
att(885,130).
att(1135,341).
att(895,426).
att(1142,96).
att(860,418).
att(926,289).
att(856,120).
att(1011,1146).
att(1147,1126).
att(951,61).
att(873,424).
att(968,935).
att(1023,785).
att(1141,1113).
att(1280,46).
att(866,418).
att(1034,808).
att(859,184).
att(929,238).
att(856,167).
att(790,10).
att(860,117).
att(1141,958).
att(1141,955).
att(866,184).
att(967,992).
att(869,418).
att(1146,961).
att(1017,769).
att(856,432).
att(1002,408).
att(1143,1078).
att(944,338).
att(968,1226).
att(1277,104).
att(968,1225).
att(927,328).
att(1013,808).
att(1013,805).
att(864,388).
att(862,344).
att(968,1286).
att(816,1086).
att(956,989).
att(1002,332).
att(1284,48).
att(1026,785).
att(966,986).
att(866,417).
att(1278,52).
att(944,332).
att(956,974).
att(816,1113).
att(858,417).
att(859,418).
att(1146,1061).
att(862,377).
att(816,1128).
att(787,344).
att(1282,196).
att(885,782).
att(800,306).
att(873,264).
att(1284,200).
att(1034,1228).
att(879,771).
att(1141,1305).
att(879,763).
att(892,782).
att(790,379).
att(889,751).
att(1276,110).
att(1272,95).
att(1284,92).
att(818,1205).
att(811,306).
att(871,269).
att(1140,1130).
att(1280,190).
att(882,763).
att(892,773).
att(1141,1130).
att(1141,1131).
att(811,350).
att(1142,1204).
att(869,258).
att(885,763).
att(1011,926).
att(1034,1137).
att(790,24).
att(832,961).
att(951,208).
att(820,959).
att(795,25).
att(785,1012).
att(806,31).
att(866,228).
att(822,971).
att(1141,1362).
att(824,1010).
att(1020,1132).
att(825,878).
att(1143,1296).
att(817,1130).
att(856,269).
att(864,225).
att(785,877).
att(1140,1219).
att(824,877).
att(816,1309).
att(830,1033).
att(1013,1228).
att(803,23).
att(1280,302).
att(1280,304).
att(962,792).
att(1286,110).
att(951,335).
att(1286,108).
att(785,1113).
att(830,1061).
att(840,377).
att(1118,944).
att(970,777).
att(832,1113).
att(832,1128).
att(1276,286).
att(1277,236).
att(818,1356).
att(784,961).
att(1125,933).
att(1278,370).
att(1118,989).
att(968,794).
att(920,253).
att(832,1155).
att(907,262).
att(1122,1284).
att(820,1198).
att(924,225).
att(786,1205).
att(822,1149).
att(848,311).
att(916,225).
att(1118,1230).
att(824,1086).
att(1112,944).
att(1230,110).
att(960,771).
att(1230,96).
att(1112,927).
att(1291,77).
att(1127,1282).
att(836,432).
att(918,264).
att(848,306).
att(1280,443).
att(785,1086).
att(830,1195).
att(860,25).
att(832,1264).
att(1286,289).
att(860,311).
att(842,215).
att(1228,276).
att(859,306).
att(967,1137).
att(1289,274).
att(860,305).
att(858,389).
att(960,1228).
att(1289,159).
att(856,387).
att(799,894).
att(1276,453).
att(799,888).
att(860,351).
att(848,217).
att(964,1289).
att(792,878).
att(785,1151).
att(962,1228).
att(962,1223).
att(1088,979).
att(1289,370).
att(972,1143).
att(763,1010).
att(960,1146).
att(1125,995).
att(1127,989).
att(1236,104).
att(824,1248).
att(1230,296).
att(799,971).
att(954,1236).
att(1232,280).
att(802,1119).
att(964,1182).
att(850,127).
att(1236,57).
att(1228,238).
att(848,125).
att(914,1178).
att(1234,886).
att(914,1191).
att(1172,881).
att(916,1182).
att(916,1132).
att(1289,1149).
att(909,1291).
att(1289,1157).
att(1236,886).
att(763,285).
att(765,273).
att(1226,1159).
att(822,563).
att(906,1132).
att(1223,1258).
att(902,974).
att(1234,963).
att(1234,1128).
att(1170,959).
att(895,976).
att(1289,1258).
att(924,1146).
att(906,1234).
att(1234,1012).
att(1240,1033).
att(907,1184).
att(924,818).
att(1236,965).
att(765,371).
att(992,100).
att(852,785).
att(799,515).
att(838,825).
att(799,517).
att(767,163).
att(799,467).
att(976,102).
att(782,277).
att(976,106).
att(1168,1119).
att(907,975).
att(975,47).
att(1169,1113).
att(914,926).
att(916,935).
att(1174,955).
att(846,824).
att(914,989).
att(1230,1359).
att(1232,1345).
att(842,818).
att(1234,1086).
att(850,824).
att(852,827).
att(986,106).
att(850,784).
att(918,986).
att(842,1143).
att(1169,963).
att(794,447).
att(1238,1111).
att(840,769).
att(842,775).
att(836,789).
att(982,92).
att(906,935).
att(913,926).
att(751,273).
att(1236,1268).
att(982,95).
att(914,951).
att(906,982).
att(773,137).
att(1174,1086).
att(838,808).
att(794,490).
att(1174,1078).
att(838,792).
att(995,82).
att(777,239).
att(769,273).
att(852,767).
att(992,276).
att(790,176).
att(982,141).
att(1174,1296).
att(1174,1305).
att(1178,1025).
att(982,161).
att(811,133).
att(885,1191).
att(779,324).
att(771,363).
att(765,543).
att(781,365).
att(898,1170).
att(984,188).
att(995,147).
att(1174,1130).
att(986,289).
att(775,331).
att(1170,1298).
att(976,138).
att(1191,1025).
att(1236,1258).
att(979,153).
att(892,808).
att(882,824).
att(1174,1362).
att(790,415).
att(982,232).
att(904,796).
att(1174,1353).
att(1138,961).
att(1138,969).
att(929,44).
att(751,445).
att(929,48).
att(974,238).
att(1034,992).
att(975,289).
att(1137,1012).
att(790,123).
att(992,238).
att(779,410).
att(1182,969).
att(1238,1338).
att(879,1146).
att(904,785).
att(885,818).
att(902,789).
att(1133,963).
att(986,368).
att(800,424).
att(885,816).
att(929,92).
att(941,79).
att(751,490).
att(1182,1195).
att(916,781).
att(781,485).
att(927,74).
att(918,751).
att(895,1272).
att(976,459).
att(1191,1153).
att(782,462).
att(926,61).
att(907,786).
att(982,372).
att(907,822).
att(984,362).
att(1178,1214).
att(1133,1086).
att(976,328).
att(777,465).
att(976,341).
att(767,490).
att(889,932).
att(1191,1214).
att(790,264).
att(902,1176).
att(813,223).
att(927,141).
att(1133,1309).
att(895,1174).
att(935,296).
att(889,1168).
att(941,192).
att(909,773).
att(982,443).
att(1138,1201).
att(932,82).
att(813,258).
att(887,926).
att(898,1274).
att(1132,401).
att(858,938).
att(932,1119).
att(933,1111).
att(795,763).
att(935,1201).
att(1184,471).
att(866,1280).
att(1133,517).
att(938,1204).
att(1146,273).
att(1002,1204).
att(779,1470).
att(856,984).
att(779,1468).
att(871,926).
att(944,1119).
att(1138,439).
att(811,777).
att(869,949).
att(811,775).
att(1135,405).
att(938,1086).
att(929,1115).
att(1132,485).
att(1135,546).
att(932,1204).
att(1143,235).
att(949,877).
att(1141,367).
att(1280,891).
att(817,163).
att(1132,490).
att(1140,282).
att(1184,465).
att(856,1282).
att(795,771).
att(1140,248).
att(927,1204).
att(816,285).
att(790,1176).
att(1140,324).
att(811,1143).
att(927,1248).
att(800,1132).
att(793,1176).
att(1280,969).
att(817,231).
att(1282,878).
att(941,1296).
att(787,1291).
att(1140,354).
att(797,1238).
att(933,1298).
att(1280,1015).
att(811,1132).
att(1280,1016).
att(938,1264).
att(803,1238).
att(803,1170).
att(949,1086).
att(816,373).
att(790,817).
att(827,137).
att(797,825).
att(1140,519).
att(1143,492).
att(1278,1086).
att(811,792).
att(1147,396).
att(1284,965).
att(941,1334).
att(1277,1010).
att(941,1338).
att(811,824).
att(1140,376).
att(815,439).
att(933,1338).
att(1141,403).
att(1274,959).
att(1280,1124).
att(1141,556).
att(825,277).
att(838,1222).
att(840,1291).
att(951,1153).
att(820,288).
att(850,1176).
att(1280,1163).
att(862,769).
att(1147,479).
att(852,1284).
att(820,155).
att(818,396).
att(820,279).
att(866,769).
att(832,277).
att(848,1223).
att(1291,1016).
att(836,1176).
att(1228,1012).
att(820,331).
att(848,815).
att(1274,1298).
att(820,357).
att(844,1176).
att(1289,876).
att(856,1180).
att(1230,969).
att(873,815).
att(1232,959).
att(832,373).
att(1225,961).
att(784,439).
att(869,824).
att(822,376).
att(858,1234).
att(1289,961).
att(873,1182).
att(1284,1248).
att(873,1132).
att(858,1236).
att(820,455).
att(1277,1267).
att(869,816).
att(822,471).
att(830,462).
att(1225,1114).
att(827,485).
att(799,295).
att(848,1276).
att(850,1284).
att(856,808).
att(866,763).
att(837,974).
att(830,489).
att(785,374).
att(808,152).
att(1230,1119).
att(1232,1078).
att(827,460).
att(850,929).
att(1165,639).
att(773,864).
att(1079,1294).
att(1174,107).
att(258,496).
att(906,431).
att(269,518).
att(906,384).
att(426,1246).
att(892,261).
att(885,1431).
att(1191,22).
att(255,404).
att(765,1074).
att(1079,1229).
att(1169,103).
att(907,386).
att(133,1466).
att(781,873).
att(889,1436).
att(906,131).
att(133,1444).
att(269,393).
att(976,772).
att(1170,53).
att(789,1087).
att(751,787).
att(769,862).
att(1168,62).
att(887,1463).
att(1068,934).
att(975,768).
att(1081,948).
att(1169,58).
att(1238,154).
att(771,914).
att(1240,157).
att(995,863).
att(813,670).
att(986,857).
att(1202,629).
att(1234,154).
att(895,177).
att(1170,154).
att(779,887).
att(130,1516).
att(130,1514).
att(1182,30).
att(1169,191).
att(1191,20).
att(892,170).
att(253,510).
att(773,836).
att(794,1202).
att(253,506).
att(771,846).
att(773,844).
att(1068,1233).
att(420,1500).
att(1174,83).
att(887,1437).
att(1234,191).
att(796,1215).
att(1036,1171).
att(1178,7).
att(1036,1177).
att(426,1252).
att(895,272).
att(1209,593).
att(793,472).
att(1077,1294).
att(751,844).
att(255,518).
att(795,476).
att(779,911).
att(790,463).
att(992,910).
att(924,116).
att(904,1508).
att(984,843).
att(982,847).
att(260,537).
att(907,227).
att(1129,1134).
att(269,655).
att(1071,1089).
att(938,774).
att(255,527).
att(379,1398).
att(1120,1193).
att(221,457).
att(258,536).
att(1138,30).
att(781,1031).
att(995,839).
att(984,872).
att(1081,1105).
att(1176,294).
att(1074,593).
att(428,1413).
att(974,874).
att(256,537).
att(417,1478).
att(1036,934).
att(381,1450).
att(210,438).
att(941,761).
att(95,744).
att(1037,930).
att(773,1120).
att(1137,56).
att(253,573).
att(258,685).
att(982,905).
att(984,880).
att(902,1454).
att(885,1490).
att(913,132).
att(882,1483).
att(1135,109).
att(211,393).
att(911,144).
att(779,1071).
att(1071,987).
att(211,400).
att(262,688).
att(381,1467).
att(255,589).
att(911,419).
att(979,1021).
att(979,905).
att(1037,990).
att(779,1088).
att(932,739).
att(992,880).
att(1184,60).
att(267,610).
att(944,776).
att(110,740).
att(1036,990).
att(215,320).
att(385,1419).
att(898,1506).
att(108,740).
att(895,1491).
att(986,1030).
att(1132,64).
att(1132,68).
att(1071,1048).
att(779,1118).
att(1191,113).
att(1147,42).
att(223,480).
att(1140,4).
att(1023,254).
att(387,1254).
att(871,693).
att(1026,268).
att(935,788).
att(1140,5).
att(933,834).
att(873,697).
att(225,548).
att(869,667).
att(1180,139).
att(929,807).
att(428,1493).
att(869,670).
att(213,480).
att(1164,1181).
att(381,1425).
att(771,1081).
att(797,978).
att(858,503).
att(1199,948).
att(975,973).
att(781,1165).
att(871,469).
att(1167,1294).
att(1167,1288).
att(767,1074).
att(1026,1434).
att(387,1265).
att(803,978).
att(1135,80).
att(1023,268).
att(871,695).
att(217,496).
att(1135,78).
att(379,1424).
att(1011,1437).
att(379,1430).
att(1182,80).
att(803,991).
att(1191,195).
att(1017,128).
att(223,537).
att(815,30).
att(866,668).
att(1215,1136).
att(970,1501).
att(215,562).
att(1034,128).
att(816,14).
att(1141,66).
att(1280,738).
att(871,592).
att(968,1481).
att(211,539).
att(1199,1136).
att(856,694).
att(209,464).
att(210,488).
att(381,1480).
att(1184,148).
att(383,1498).
att(866,696).
att(1178,157).
att(1133,191).
att(862,661).
att(1209,1134).
att(1146,14).
att(927,870).
att(938,851).
att(1017,170).
att(860,661).
att(1146,17).
att(1020,177).
att(817,2).
att(1147,17).
att(813,596).
att(951,753).
att(1284,770).
att(1196,1108).
att(1002,1030).
att(1147,105).
att(879,116).
att(797,596).
att(171,323).
att(795,667).
att(1140,45).
att(180,438).
att(898,116).
att(1023,1496).
att(223,573).
att(180,400).
att(223,685).
att(1209,980).
att(795,644).
att(898,132).
att(1202,1039).
att(1008,1503).
att(1142,62).
att(1199,1050).
att(219,690).
att(951,755).
att(1147,103).
att(941,910).
att(209,523).
att(213,649).
att(932,845).
att(795,696).
att(815,14).
att(1077,1188).
att(1274,732).
att(225,589).
att(816,72).
att(927,923).
att(1071,1134).
att(885,229).
att(209,680).
att(48,742).
att(1282,833).
att(344,1444).
att(1165,952).
att(951,810).
att(818,111).
att(1026,1459).
att(1209,1279).
att(1209,1283).
att(1280,788).
att(174,488).
att(790,1092).
att(1146,197).
att(1209,947).
att(388,1430).
att(926,890).
att(178,391).
att(209,589).
att(926,905).
att(210,610).
att(228,512).
att(811,1096).
att(223,684).
att(887,116).
att(1272,750).
att(171,448).
att(813,1098).
att(215,680).
att(811,1110).
att(1140,93).
att(895,380).
att(1202,987).
att(217,703).
att(1202,993).
att(1280,831).
att(1031,1436).
att(1141,83).
att(1013,1479).
att(217,685).
att(169,399).
att(388,1423).
att(166,1320).
att(171,1318).
att(171,1326).
att(842,1487).
att(873,437).
att(172,1398).
att(866,419).
att(1272,71).
att(816,967).
att(871,427).
att(1276,40).
att(858,177).
att(941,284).
att(166,1360).
att(852,1496).
att(166,1335).
att(866,170).
att(1278,13).
att(941,250).
att(966,1091).
att(972,1052).
att(968,987).
att(171,1312).
att(1280,65).
att(815,1031).
att(862,128).
att(1274,16).
att(1013,1185).
att(858,386).
att(1276,53).
att(1284,101).
att(817,1088).
att(858,437).
att(172,1471).
att(970,1288).
att(968,1224).
att(1277,113).
att(842,1434).
att(1125,637).
att(1272,109).
att(858,131).
att(832,869).
att(838,1459).
att(180,1383).
att(178,1363).
att(1140,1081).
att(866,433).
att(866,431).
att(848,1437).
att(1196,10).
att(817,1212).
att(970,643).
att(171,1441).
att(186,1354).
att(820,907).
att(866,1428).
att(1277,78).
att(1196,41).
att(180,1493).
att(968,604).
att(171,1494).
att(1277,203).
att(864,254).
att(180,1484).
att(967,599).
att(172,1502).
att(1029,1237).
att(960,629).
att(856,1459).
att(1206,39).
att(858,1460).
att(1286,3).
att(871,1434).
att(951,195).
att(178,1442).
att(951,197).
att(820,842).
att(171,1450).
att(171,1425).
att(822,907).
att(785,844).
att(1026,948).
att(1023,948).
att(859,1459).
att(1023,947).
att(825,1017).
att(1232,20).
att(1226,14).
att(119,1354).
att(1034,1183).
att(178,1516).
att(166,1478).
att(178,1514).
att(972,1105).
att(1276,158).
att(820,972).
att(827,1123).
att(1026,1179).
att(785,1023).
att(858,212).
att(1272,300).
att(954,590).
att(862,170).
att(117,1360).
att(1274,158).
att(972,581).
att(1020,1244).
att(1232,34).
att(1284,294).
att(968,1091).
att(115,1354).
att(869,229).
att(180,1522).
att(1274,154).
att(1289,15).
att(123,1450).
att(824,1129).
att(799,859).
att(906,1488).
att(820,1112).
att(119,1400).
att(911,1464).
att(127,1456).
att(914,1431).
att(121,1448).
att(121,1444).
att(1118,942).
att(1088,930).
att(848,436).
att(166,1517).
att(825,962).
att(799,811).
att(1122,1052).
att(1286,49).
att(802,797).
att(924,1463).
att(838,134).
att(1226,68).
att(1125,934).
att(850,437).
att(920,266).
att(1122,1283).
att(920,263).
att(1081,599).
att(784,1196).
att(765,840).
att(1238,2).
att(1123,1171).
att(785,1199).
att(794,842).
att(115,1424).
att(1289,201).
att(123,1512).
att(133,1242).
att(799,852).
att(1122,939).
att(763,806).
att(1088,1294).
att(920,1432).
att(1127,1294).
att(1127,1288).
att(1122,948).
att(1127,1290).
att(1286,202).
att(121,1423).
att(1129,602).
att(115,1480).
att(133,1314).
att(1234,16).
att(117,1480).
att(1232,162).
att(1225,201).
att(1168,40).
att(1232,250).
att(125,1518).
att(970,1136).
att(1236,70).
att(418,1314).
att(792,1034).
att(805,1013).
att(82,745).
att(1123,1093).
att(1240,28).
att(184,1493).
att(92,749).
att(1127,643).
att(119,1443).
att(1170,2).
att(799,889).
att(1168,8).
att(1125,595).
att(120,1498).
att(966,1292).
att(1116,639).
att(133,1384).
att(924,1486).
att(1088,996).
att(982,737).
att(956,1185).
att(914,1491).
att(1088,985).
att(1122,1099).
att(1127,1039).
att(920,1510).
att(1122,1103).
att(1170,69).
att(954,1185).
att(1234,58).
att(909,1505).
att(417,1419).
att(1236,99).
att(1172,53).
att(264,393).
att(256,444).
att(782,860).
att(1236,107).
att(802,1036).
att(840,128).
att(907,1503).
att(979,783).
att(808,956).
att(956,1245).
att(1240,65).
att(960,1185).
att(960,1183).
att(1112,602).
att(995,732).
att(799,970).
att(838,229).
att(262,323).
att(264,438).
att(81,740).
att(1120,1093).
att(256,326).
att(792,962).
att(1236,58).
att(979,739).
att(256,336).
att(840,170).
att(848,122).
att(115,1515).
att(964,1179).
att(1174,12).
att(907,1245).
att(777,46).
att(887,623).
att(924,1139).
att(885,602).
att(262,1360).
att(777,106).
att(913,1177).
att(1168,918).
att(1236,1034).
att(889,1095).
att(765,243).
att(1071,422).
att(258,1346).
att(907,1229).
att(1174,842).
att(898,632).
att(914,1171).
att(1176,844).
att(799,240).
att(907,1288).
att(1036,424).
att(895,604).
att(1084,133).
att(913,1227).
att(1238,962).
att(765,304).
att(805,409).
att(790,1507).
att(794,301).
att(898,1108).
att(898,1046).
att(799,459).
att(799,440).
att(808,409).
att(813,1486).
att(255,1320).
att(1191,795).
att(1234,1125).
att(1209,256).
att(255,1318).
att(255,1326).
att(989,49).
att(1079,306).
att(751,110).
att(797,1479).
att(255,1312).
att(989,56).
att(276,748).
att(1206,256).
att(1081,306).
att(771,57).
att(773,44).
att(258,1328).
att(909,1193).
att(1240,1011).
att(906,1237).
att(260,1348).
att(995,16).
att(777,94).
att(796,366).
att(984,34).
att(811,1503).
att(769,100).
att(1071,377).
att(283,747).
att(1236,956).
att(255,1357).
att(895,1041).
att(885,1089).
att(280,747).
att(1071,430).
att(1236,967).
att(283,744).
att(771,50).
att(781,94).
att(805,325).
att(800,1509).
att(920,983).
att(1088,311).
att(1088,24).
att(1116,306).
att(1068,267).
att(1125,23).
att(777,289).
att(1122,355).
att(1081,217).
att(918,930).
att(1135,860).
att(976,109).
att(262,1444).
att(1037,210).
att(1168,1116).
att(979,99).
att(1132,800).
att(1238,1077).
att(1036,253).
att(906,1095).
att(1238,1125).
att(260,1413).
att(775,188).
att(924,1058).
att(260,1417).
att(984,63).
att(911,1044).
att(1170,1125).
att(913,1052).
att(976,63).
att(1079,269).
att(1079,267).
att(1236,1081).
att(975,68).
att(979,60).
att(1182,800).
att(975,66).
att(1079,262).
att(1182,916).
att(914,1229).
att(1184,907).
att(781,247).
att(889,645).
att(223,1262).
att(258,1500).
att(767,289).
att(1116,41).
att(1071,172).
att(892,623).
att(920,1294).
att(264,1493).
att(1191,887).
att(777,343).
att(1180,904).
att(1191,885).
att(1071,176).
att(255,1429).
att(1037,174).
att(252,1448).
att(1240,1202).
att(773,156).
att(982,105).
att(1112,349).
att(775,296).
att(1176,1087).
att(767,296).
att(221,1242).
att(264,1513).
att(751,156).
att(777,208).
att(779,289).
att(1002,8).
att(909,930).
att(975,97).
att(1191,914).
att(941,16).
att(1215,383).
att(1215,377).
att(1191,967).
att(873,1503).
att(1182,1031).
att(982,157).
att(982,139).
att(982,165).
att(813,128).
att(982,160).
att(1167,387).
att(217,1328).
att(1029,985).
att(887,1139).
att(211,1314).
att(769,304).
att(213,1360).
att(1026,581).
att(1196,420).
att(1206,432).
att(223,1354).
att(1031,1105).
att(1178,887).
att(813,168).
att(217,1346).
att(1209,383).
att(219,1320).
att(1031,1108).
att(929,26).
att(1212,379).
att(885,1245).
att(1196,415).
att(892,1185).
att(255,1497).
att(751,238).
att(1206,383).
att(211,1335).
att(262,1480).
att(1164,392).
att(866,1483).
att(1167,311).
att(213,1391).
att(1140,795).
att(771,456).
att(1206,309).
att(941,56).
att(1212,307).
att(773,453).
att(797,427).
att(1029,1279).
att(1031,952).
att(1133,1129).
att(816,806).
att(938,103).
att(860,1454).
att(1135,1120).
att(1180,1081).
att(209,1314).
att(1132,1031).
att(1215,344).
att(1206,356).
att(797,416).
att(210,1314).
att(1178,956).
att(1026,1050).
att(866,1501).
att(933,16).
att(260,1517).
att(787,128).
att(873,1486).
att(767,459).
att(811,433).
att(161,742).
att(864,1479).
att(929,65).
att(1199,346).
att(1147,790).
att(779,459).
att(1068,309).
att(1143,837).
att(1002,207).
att(1143,842).
att(1212,209).
att(944,202).
att(1141,911).
att(793,1454).
att(887,999).
att(1164,184).
att(1202,221).
att(887,1005).
att(1164,121).
att(1212,228).
att(1081,41).
att(790,1452).
att(1147,906).
att(817,859).
att(1215,256).
att(209,1369).
att(797,1459).
att(889,942).
att(811,1462).
att(933,53).
att(1138,1116).
att(1212,260).
att(927,103).
att(1199,256).
att(1164,228).
att(795,1491).
att(1164,174).
att(895,930).
att(1141,846).
att(889,930).
att(929,101).
att(885,1058).
att(1135,1084).
att(211,1467).
att(817,793).
att(929,105).
att(941,103).
att(926,197).
att(1142,889).
att(1284,32).
att(817,918).
att(1008,639).
att(1277,1).
att(898,1227).
att(1023,626).
att(171,1246).
att(898,1231).
att(1034,599).
att(932,202).
att(1011,632).
att(217,1493).
att(167,1348).
att(169,1348).
att(1020,604).
att(895,1237).
att(209,1513).
att(1146,1017).
att(1165,120).
att(1146,902).
att(800,266).
att(1077,23).
att(944,197).
att(1068,41).
att(1141,885).
att(1209,127).
att(895,1233).
att(167,1242).
att(927,197).
att(1164,422).
att(1274,2).
att(892,1292).
att(938,148).
att(1071,31).
att(1206,127).
att(892,1229).
att(169,1254).
att(219,1480).
att(966,210).
att(954,223).
att(972,176).
att(1272,790).
att(859,934).
att(848,637).
att(1274,859).
att(1278,846).
att(1280,846).
att(1013,309).
att(1008,306).
att(951,860).
att(1132,408).
att(362,747).
att(1137,409).
att(871,952).
att(1031,41).
att(927,1112).
att(360,740).
att(1146,141).
att(1274,803).
att(1282,909).
att(951,885).
att(1276,836).
att(951,879).
att(832,57).
att(951,882).
att(1143,238).
att(1147,343).
att(966,125).
att(852,593).
att(1140,368).
att(822,59).
att(871,1139).
att(842,581).
att(949,882).
att(816,243).
att(832,52).
att(871,1179).
att(860,1229).
att(929,1209).
att(858,1279).
att(1147,236).
att(866,1275).
att(1277,858).
att(1008,41).
att(1140,276).
att(860,1294).
att(972,184).
att(1277,871).
att(933,1077).
att(842,645).
att(962,120).
att(1140,245).
att(871,1177).
att(1280,907).
att(816,276).
att(859,952).
att(929,1196).
att(800,1193).
att(860,1105).
att(302,748).
att(1011,130).
att(1146,409).
att(860,1095).
att(1142,332).
att(866,602).
att(951,960).
att(1284,1026).
att(951,967).
att(866,584).
att(302,743).
att(302,744).
att(1023,432).
att(1212,808).
att(871,1108).
att(1023,383).
att(1140,409).
att(1017,377).
att(1013,135).
att(1020,385).
att(1202,830).
att(1280,967).
att(830,82).
att(1196,818).
att(1143,358).
att(827,96).
att(1212,817).
att(827,108).
att(873,591).
att(856,643).
att(1167,825).
att(1202,1143).
att(1209,784).
att(811,1136).
att(1140,335).
att(1165,792).
att(815,370).
att(866,604).
att(859,645).
att(869,1105).
att(858,629).
att(1282,1120).
att(1291,862).
att(1232,803).
att(827,156).
att(871,983).
att(970,256).
att(866,1056).
att(873,999).
att(1272,1118).
att(822,164).
att(1202,775).
att(1202,767).
att(1291,787).
att(1280,1088).
att(873,1108).
att(871,990).
att(335,748).
att(1031,306).
att(1017,344).
att(1199,763).
att(864,1046).
att(1274,962).
att(924,593).
att(1116,184).
att(242,742).
att(1276,1087).
att(1282,1167).
att(920,645).
att(920,639).
att(1276,1165).
att(784,299).
att(1223,838).
att(1118,123).
att(1223,840).
att(916,593).
att(1112,223).
att(1116,174).
att(832,296).
att(1282,1087).
att(924,632).
att(1232,871).
att(1286,840).
att(827,286).
att(1226,862).
att(784,153).
att(1228,837).
att(924,629).
att(848,1231).
att(906,590).
att(832,335).
att(852,1134).
att(1226,1020).
att(1127,387).
att(1226,1031).
att(1118,432).
att(1118,379).
att(1228,1034).
att(1120,428).
att(907,599).
att(846,1134).
att(824,208).
att(799,52).
att(913,632).
att(1122,120).
att(830,362).
att(1289,1116).
att(1234,813).
att(1225,968).
att(1222,962).
att(1125,253).
att(1123,264).
att(784,408).
att(1223,962).
att(972,378).
att(1289,964).
att(966,424).
att(966,417).
att(1232,967).
att(802,200).
att(1225,1020).
att(968,344).
att(1226,964).
att(960,378).
att(805,84).
att(968,389).
att(794,96).
att(372,744).
att(1112,262).
att(789,156).
att(368,745).
att(1170,838).
att(1226,1202).
att(972,41).
att(1225,1037).
att(962,311).
att(765,150).
att(805,283).
att(1118,225).
att(794,198).
att(1289,1087).
att(972,355).
att(789,188).
att(342,743).
att(1225,964).
att(1170,803).
att(799,291).
att(842,993).
att(1234,846).
att(1118,260).
att(1172,860).
att(792,150).
att(1118,269).
att(1215,670).
att(1165,627).
att(1029,1376).
att(426,1299).
att(379,1301).
att(1206,627).
att(219,285).
att(1199,661).
att(1202,665).
att(264,462).
att(381,1308).
att(417,1453).
att(1199,671).
att(430,1301).
att(1011,1404).
att(258,373).
att(1084,946).
att(1077,991).
att(1031,1409).
att(262,396).
att(1209,670).
att(255,447).
att(27,551).
att(1071,1000).
att(424,1453).
att(779,874).
att(10,464).
att(1206,670).
att(29,583).
att(430,1344).
att(37,682).
att(37,690).
att(381,1358).
att(751,925).
att(29,575).
att(779,890).
att(1026,1381).
att(432,1257).
att(777,896).
att(269,543).
att(379,1266).
att(27,631).
att(29,653).
att(779,910).
att(262,462).
att(29,651).
att(37,587).
att(377,1270).
att(771,841).
att(1165,504).
att(430,1418).
att(1084,1106).
att(383,1327).
att(1036,1051).
att(217,363).
att(426,1390).
att(1206,493).
att(1084,1047).
att(377,1327).
att(1079,1051).
att(10,692).
att(211,331).
att(11,705).
att(392,1194).
att(215,235).
att(385,1323).
att(1084,606).
att(1212,463).
att(390,1154).
att(1212,473).
att(1164,686).
att(1164,691).
att(225,490).
att(377,1388).
att(211,374).
att(378,1393).
att(383,1422).
att(1164,473).
att(1209,493).
att(383,1396).
att(215,331).
att(1071,1040).
att(1074,1109).
att(426,1451).
att(1084,988).
att(211,452).
att(389,1203).
att(221,549).
att(171,145).
att(171,129).
att(344,1270).
att(964,1373).
att(390,1257).
att(348,1308).
att(167,277).
att(169,277).
att(213,479).
att(211,465).
att(348,1145).
att(219,485).
att(167,152).
att(169,152).
att(219,471).
att(209,543).
att(389,1327).
att(389,1323).
att(171,244).
att(348,1347).
att(346,1327).
att(356,1065).
att(166,285).
att(392,1327).
att(389,1355).
att(345,1349).
att(345,1352).
att(1215,1042).
att(228,403).
att(1215,1110).
att(308,1066).
att(1167,1055).
att(305,1062).
att(308,1085).
att(348,1367).
att(167,442).
att(355,1152).
att(345,1375).
att(1164,1001).
att(344,1327).
att(389,1420).
att(228,412).
att(389,1416).
att(409,748).
att(347,1327).
att(1165,1109).
att(180,340).
att(172,321).
att(172,303).
att(970,1405).
att(228,485).
att(972,1409).
att(127,146).
att(121,140).
att(178,490).
att(115,145).
att(169,507).
att(344,1388).
att(169,374).
att(351,1160).
att(228,490).
att(1167,1014).
att(1215,997).
att(171,374).
att(180,490).
att(351,1145).
att(972,994).
att(169,1418).
att(166,1323).
att(820,819).
att(820,828).
att(127,1066).
att(180,1412).
att(820,834).
att(349,478).
att(822,812).
att(121,1194).
att(349,461).
att(1088,696).
att(824,823).
att(117,1060).
att(824,831).
att(117,1062).
att(305,494).
att(355,488).
att(825,752).
att(176,1393).
att(178,1319).
att(228,1420).
att(307,457).
att(307,454).
att(171,1355).
att(820,761).
att(172,1317).
att(815,1027).
att(1118,504).
att(171,1310).
att(822,828).
att(180,1406).
att(1120,502).
att(123,1069).
att(1088,472).
att(125,1144).
att(907,1408).
att(1120,697).
att(171,1386).
att(1123,627).
att(308,545).
att(822,853).
att(1088,638).
att(907,1407).
att(117,1145).
att(117,1150).
att(355,562).
att(924,1404).
att(1088,665).
att(228,1468).
att(827,874).
att(307,496).
att(127,1156).
att(785,804).
att(822,872).
att(180,1447).
att(306,488).
att(174,1453).
att(123,1336).
att(125,1255).
att(832,899).
att(966,664).
att(960,644).
att(832,901).
att(964,667).
att(308,535).
att(356,575).
att(825,922).
att(308,539).
att(822,905).
att(808,780).
att(318,333).
att(825,843).
att(315,316).
att(351,523).
att(356,651).
att(119,1160).
att(120,1154).
att(120,1306).
att(842,1409).
att(349,631).
att(1011,937).
att(350,655).
att(848,1380).
att(824,1032).
att(125,1325).
att(119,1361).
att(970,1098).
att(307,589).
att(966,598).
att(968,1047).
att(186,1375).
att(792,833).
att(967,1049).
att(972,592).
att(970,594).
att(972,647).
att(25,336).
att(309,375).
att(964,594).
att(822,1032).
att(123,1317).
att(837,1381).
att(24,441).
att(350,705).
att(794,774).
att(796,788).
att(794,812).
att(117,1388).
att(133,1160).
att(422,1194).
att(763,831).
att(25,518).
att(125,1364).
att(1120,1004).
att(892,1409).
att(1081,670).
att(1120,946).
att(127,1447).
att(24,481).
att(765,812).
att(1068,695).
att(117,1422).
att(318,486).
att(311,518).
att(135,1194).
att(319,464).
att(802,791).
att(1081,463).
att(1112,1107).
att(1084,468).
att(418,1203).
att(23,506).
att(1127,940).
att(420,1203).
att(1037,686).
att(414,1082).
att(123,1388).
att(898,1380).
att(782,783).
att(258,277).
att(1037,585).
att(23,523).
att(1071,644).
att(269,142).
att(117,1453).
att(789,874).
att(902,1381).
att(895,1397).
att(895,1394).
att(892,1381).
att(882,1402).
att(895,1380).
att(24,579).
att(794,900).
att(318,688).
att(913,1374).
att(37,510).
att(312,678).
att(10,438).
att(779,759).
att(37,514).
att(771,780).
att(909,1339).
att(23,573).
att(258,363).
att(808,880).
att(24,617).
att(1122,664).
att(253,298).
att(37,397).
att(909,1373).
att(802,1027).
att(1118,640).
att(792,880).
att(417,1218).
att(771,733).
att(39,434).
att(11,339).
att(765,922).
att(41,488).
att(383,1082).
att(775,798).
att(41,464).
att(1084,504).
att(1127,1054).
att(255,324).
att(29,478).
att(37,562).
att(10,516).
att(771,823).
att(771,831).
att(1118,1049).
att(1118,1042).
att(1125,991).
att(420,1393).
att(31,400).
att(777,823).
att(1122,592).
att(1079,499).
att(426,1194).
att(751,755).
att(37,478).
att(428,1203).
att(11,391).
att(1127,1049).
att(39,508).
att(771,756).
att(1169,923).
att(1037,382).
att(1174,921).
att(1184,774).
att(1240,890).
att(383,336).
att(898,601).
att(385,329).
att(887,640).
att(1202,1503).
att(1234,880).
att(35,1387).
att(898,592).
att(1176,925).
att(424,610).
att(769,55).
att(1084,436).
att(379,441).
att(769,49).
att(777,113).
att(782,111).
att(1209,1454).
att(1236,1021).
att(1068,416).
att(381,446).
att(377,333).
att(779,62).
att(1081,436).
att(377,336).
att(1191,756).
att(892,1100).
att(24,1516).
att(781,70).
att(1178,735).
att(1068,122).
att(415,523).
att(426,316).
att(777,68).
att(1212,1509).
att(813,1340).
att(1135,734).
att(385,333).
att(885,644).
att(27,1400).
att(264,1355).
att(428,438).
att(1191,780).
att(1084,419).
att(1135,737).
att(381,326).
att(1071,185).
att(1182,732).
att(1196,1508).
att(781,64).
att(1184,764).
att(765,292).
att(781,68).
att(39,1411).
att(1184,826).
att(1184,828).
att(1008,504).
att(219,1065).
att(426,511).
att(33,1450).
att(1209,268).
att(255,1319).
att(1212,1439).
att(1180,809).
att(428,486).
att(29,1443).
att(428,488).
att(1168,1030).
att(1169,1024).
att(11,1473).
att(256,1396).
att(29,1424).
att(1209,266).
att(1169,900).
att(383,444).
att(1178,753).
att(422,579).
att(1178,757).
att(773,63).
att(1202,1485).
att(1240,1028).
att(35,1466).
att(385,457).
att(1068,436).
att(221,1060).
att(751,49).
att(779,99).
att(1206,1435).
att(417,589).
att(1071,384).
att(1199,1464).
att(779,160).
att(771,195).
att(914,937).
att(39,1474).
att(889,698).
att(41,1493).
att(906,1107).
att(920,991).
att(225,1154).
att(924,937).
att(1180,857).
att(911,997).
att(27,1492).
att(262,1451).
att(37,1516).
att(255,1386).
att(29,1492).
att(1071,270).
att(37,1519).
att(221,1304).
att(902,472).
att(1036,263).
att(223,1190).
att(378,518).
att(906,1096).
att(1068,1438).
att(1037,263).
att(913,1104).
att(920,1051).
att(383,494).
att(895,500).
att(426,564).
att(892,472).
att(782,157).
att(1084,266).
att(35,1482).
att(892,463).
att(211,1213).
att(379,482).
att(256,1388).
att(1182,801).
att(221,1333).
att(1182,917).
att(1037,124).
att(1165,1503).
att(31,1517).
att(771,251).
att(879,667).
att(1140,734).
att(1084,179).
att(215,1308).
att(225,1255).
att(811,1376).
att(800,1376).
att(1141,774).
att(1180,880).
att(816,733).
att(892,624).
att(803,1374).
att(797,1374).
att(1142,739).
att(1146,783).
att(346,336).
att(379,631).
att(1079,118).
att(1135,922).
att(1206,1508).
att(252,1451).
att(1137,874).
att(215,1145).
att(909,1004).
att(1184,853).
att(887,476).
att(898,695).
att(1071,216).
att(895,669).
att(895,670).
att(885,689).
att(909,946).
att(27,1522).
att(817,776).
att(1137,880).
att(1143,757).
att(347,451).
att(223,1327).
att(348,435).
att(818,783).
att(432,705).
att(970,504).
att(1141,753).
att(1184,973).
att(1023,1110).
att(967,472).
att(379,705).
att(1135,1021).
att(213,1361).
att(817,736).
att(223,1361).
att(348,317).
att(215,1257).
att(225,1323).
att(387,393).
att(1020,1098).
att(1141,756).
att(1202,419).
att(379,579).
att(426,678).
att(1017,1098).
att(379,589).
att(1143,788).
att(966,468).
att(171,1062).
att(968,686).
att(1140,807).
att(964,468).
att(180,1213).
att(1141,867).
att(956,463).
att(219,1470).
att(387,548).
att(960,696).
att(209,1420).
att(967,667).
att(1147,867).
att(209,1323).
att(954,503).
att(817,760).
att(818,757).
att(1034,1055).
att(347,375).
att(1138,1027).
att(1008,1109).
att(1029,943).
att(388,466).
att(178,1301).
att(817,870).
att(344,542).
att(228,1257).
att(348,560).
att(1165,179).
att(387,655).
att(1029,634).
att(1023,670).
att(1141,921).
att(1164,128).
att(887,937).
att(355,326).
att(832,733).
att(355,320).
att(832,739).
att(178,1145).
att(1215,254).
att(898,991).
att(180,1152).
att(1212,257).
att(879,1055).
att(815,788).
att(1013,474).
att(172,1162).
att(387,536).
att(1013,475).
att(176,1301).
att(892,1004).
att(1008,472).
att(892,946).
att(1011,476).
att(1199,268).
att(1147,845).
att(856,1382).
att(389,610).
att(1206,131).
att(817,915).
att(178,1355).
att(1147,1028).
att(180,1349).
att(1140,883).
att(390,680).
att(1164,431).
att(348,587).
att(172,1336).
att(1011,646).
att(306,438).
att(355,399).
att(1011,640).
att(351,323).
att(1167,118).
att(389,649).
att(860,1381).
att(1212,179).
att(352,336).
att(822,762).
att(1026,670).
att(172,1299).
att(349,323).
att(1165,118).
att(172,1247).
att(180,1352).
att(348,619).
att(1140,901).
att(387,612).
att(350,446).
att(864,1374).
att(355,435).
att(858,1410).
att(1141,905).
att(1011,665).
att(351,1360).
att(1282,874).
att(176,523).
att(355,1322).
att(960,229).
att(389,1493).
att(344,1498).
att(1142,158).
att(171,481).
att(856,940).
att(840,661).
att(842,671).
att(964,229).
att(172,567).
att(1280,847).
att(1274,863).
att(964,227).
att(968,124).
att(827,32).
att(1142,197).
att(169,482).
att(228,567).
att(389,1513).
att(836,472).
att(1142,202).
att(873,1004).
att(1277,821).
att(873,931).
att(866,1001).
att(348,1497).
att(968,170).
att(390,1480).
att(842,696).
att(345,1502).
att(169,655).
att(951,880).
att(356,1391).
att(951,899).
att(356,1385).
att(820,67).
att(180,610).
att(120,336).
att(171,615).
att(1228,780).
att(174,610).
att(350,1384).
att(1289,768).
att(830,53).
att(962,134).
att(1088,1452).
att(830,63).
att(351,1320).
att(1276,865).
att(956,229).
att(970,118).
att(171,564).
att(966,170).
att(180,539).
att(1277,847).
att(349,1400).
att(1125,1486).
att(345,1517).
att(1274,843).
att(962,118).
att(972,1464).
att(966,1481).
att(966,1485).
att(972,1454).
att(1225,768).
att(1232,761).
att(308,1383).
att(1284,1032).
att(869,1045).
att(1222,752).
att(820,91).
att(1272,1021).
att(862,1098).
att(1289,826).
att(1008,118).
att(169,579).
att(949,1032).
att(960,1491).
att(786,66).
att(871,596).
att(127,444).
att(820,53).
att(970,1486).
att(1026,128).
att(1225,739).
att(1222,780).
att(349,1450).
att(1026,144).
att(871,1104).
att(350,1466).
att(785,49).
att(1280,1018).
att(167,612).
att(1020,419).
att(1023,144).
att(117,438).
att(123,400).
att(350,1482).
att(318,1335).
att(852,470).
att(799,26).
att(852,477).
att(1286,874).
att(856,1053).
att(970,254).
att(119,512).
att(119,461).
att(848,693).
att(822,165).
att(846,689).
att(852,493).
att(871,1045).
att(186,480).
att(873,1047).
att(1286,804).
att(127,508).
att(352,1441).
att(308,1471).
att(784,99).
att(850,493).
att(827,158).
att(968,263).
att(310,1262).
att(960,1431).
att(1223,833).
att(133,323).
att(1084,1505).
att(115,521).
att(906,665).
att(1240,737).
att(799,67).
att(1234,733).
att(1234,732).
att(802,64).
att(1232,851).
att(25,1360).
att(1236,780).
att(1226,917).
att(1222,843).
att(1120,128).
att(1223,843).
att(120,523).
att(1240,764).
att(1289,912).
att(1118,118).
att(824,148).
att(1230,870).
att(914,644).
att(1122,222).
att(119,478).
att(319,1314).
att(1036,1510).
att(827,294).
att(1225,812).
att(913,693).
att(1232,875).
att(119,545).
att(1236,738).
att(911,665).
att(820,250).
att(350,1523).
att(305,1480).
att(306,1493).
att(1118,429).
att(1122,134).
att(1084,1464).
att(913,592).
att(924,1109).
att(799,112).
att(417,451).
att(1226,1030).
att(127,692).
att(1122,433).
att(414,438).
att(1118,431).
att(1169,774).
att(1223,880).
att(1084,1485).
att(25,1320).
att(1170,732).
att(315,1387).
att(1036,1460).
att(792,49).
att(1286,1030).
att(120,655).
att(418,438).
att(913,601).
att(792,56).
att(24,1413).
att(1240,772).
att(1289,880).
att(794,85).
att(267,1203).
att(318,1498).
att(924,476).
att(24,1430).
att(1088,259).
att(775,6).
att(1120,1454).
att(262,1062).
att(852,1042).
att(848,978).
att(315,1475).
att(842,1042).
att(418,488).
att(1169,823).
att(909,502).
att(960,429).
att(1238,834).
att(1088,1437).
att(802,76).
att(799,91).
att(960,436).
att(1236,821).
att(850,1109).
att(1125,1438).
att(1170,834).
att(25,1444).
att(1118,1452).
att(765,97).
att(1236,809).
att(417,375).
att(256,1082).
att(1118,1463).
att(1174,753).
att(252,1156).
att(24,1474).
att(1088,181).
att(907,696).
att(41,1314).
att(1176,874).
att(35,1324).
att(269,1306).
att(1170,863).
att(1191,735).
att(916,663).
att(1236,919).
att(25,1480).
att(765,157).
att(914,665).
att(1238,843).
att(420,537).
att(836,1042).
att(920,469).
att(1240,867).
att(1112,1432).
att(844,1042).
att(318,1478).
att(1122,1438).
att(35,1343).
att(27,1249).
att(777,36).
att(751,3).
att(1118,257).
att(262,1150).
att(262,1160).
att(782,17).
att(417,464).
att(765,189).
att(1112,1427).
att(1238,863).
att(1118,259).
att(213,161).
att(383,1155).
att(34,167).
att(22,305).
att(385,1149).
att(40,209).
att(219,289).
att(30,210).
att(112,1142).
att(42,115).
att(105,1132).
att(221,286).
att(209,188).
att(2,306).
att(225,188).
att(97,1289).
att(260,450).
att(426,1153).
att(42,176).
att(426,1305).
att(211,200).
att(219,164).
att(8,25).
att(255,459).
att(428,1309).
att(381,1151).
att(10,460).
att(8,319).
att(213,247).
att(26,115).
att(430,1356).
att(347,1016).
att(113,824).
att(93,989).
att(26,127).
att(109,825).
att(43,426).
att(211,249).
att(344,1012).
att(30,184).
att(392,1114).
att(211,208).
att(213,236).
att(389,965).
att(112,799).
att(381,1219).
att(42,119).
att(1,31).
att(225,289).
att(346,1016).
att(381,1261).
att(56,789).
att(97,992).
att(210,370).
att(53,827).
att(223,335).
att(348,1111).
att(112,929).
att(180,106).
att(7,378).
att(217,335).
att(345,1083).
att(7,430).
att(178,102).
att(178,61).
att(378,1356).
att(51,1143).
att(63,830).
att(1,186).
att(225,332).
att(60,786).
att(169,44).
att(211,358).
att(58,824).
att(209,238).
att(7,130).
att(107,989).
att(211,343).
att(209,450).
att(6,355).
att(5,307).
att(42,262).
att(348,1187).
att(210,408).
att(22,378).
att(1,345).
att(101,1284).
att(172,196).
att(109,1226).
att(8,306).
att(1,356).
att(107,1291).
att(209,459).
att(355,888).
att(356,886).
att(392,1161).
att(210,332).
att(112,1284).
att(45,785).
att(113,949).
att(215,332).
att(225,459).
att(348,1208).
att(4,385).
att(167,88).
att(388,1155).
att(3,377).
att(12,172).
att(178,289).
att(171,138).
att(392,1330).
att(180,274).
att(308,881).
att(308,894).
att(352,1033).
att(87,1143).
att(180,243).
att(18,184).
att(18,127).
att(387,1334).
att(14,174).
att(19,418).
att(166,143).
att(20,130).
att(356,958).
att(178,141).
att(38,35).
att(171,198).
att(18,211).
att(89,1176).
att(350,876).
att(348,1271).
att(87,1132).
att(18,180).
att(26,39).
att(174,296).
att(19,186).
att(19,127).
att(355,1078).
att(207,932).
att(191,989).
att(89,785).
att(348,1345).
att(83,805).
att(308,971).
att(115,48).
att(117,52).
att(80,830).
att(191,992).
att(87,799).
att(90,767).
att(186,48).
att(356,1117).
att(85,830).
att(356,1126).
att(21,414).
att(15,133).
att(205,974).
att(87,785).
att(18,133).
att(21,426).
att(184,52).
att(169,238).
att(28,385).
att(99,796).
att(186,198).
att(36,346).
att(169,409).
att(180,440).
att(105,781).
att(121,77).
att(32,383).
att(90,1222).
att(350,1157).
att(123,196).
att(42,356).
att(85,1278).
att(101,796).
att(167,409).
att(32,432).
att(169,341).
att(28,133).
att(43,385).
att(34,428).
att(113,763).
att(115,46).
att(112,781).
att(87,935).
att(87,929).
att(350,1195).
att(99,784).
att(174,408).
att(101,785).
att(351,1061).
att(38,315).
att(127,156).
att(89,1222).
att(21,217).
att(20,178).
att(115,164).
att(38,318).
att(13,260).
att(117,141).
att(14,267).
att(117,156).
att(42,29).
att(311,878).
att(28,389).
att(36,350).
att(76,1274).
att(28,347).
att(26,388).
att(127,188).
att(120,77).
att(17,267).
att(310,886).
att(17,262).
att(19,209).
att(42,25).
att(115,200).
att(80,1276).
att(318,876).
att(32,388).
att(16,253).
att(355,1296).
att(13,763).
att(355,462).
att(17,782).
att(64,935).
att(186,1208).
att(352,462).
att(308,497).
att(308,490).
att(67,1284).
att(311,142).
att(18,775).
att(19,781).
att(12,824).
att(127,1115).
att(349,495).
att(20,782).
att(350,513).
att(123,1086).
att(125,1159).
att(127,1155).
att(310,353).
att(69,1238).
att(24,231).
att(121,1305).
att(133,884).
att(311,241).
att(318,371).
att(66,1223).
att(25,142).
att(356,568).
att(69,1274).
att(352,489).
att(127,1198).
att(356,546).
att(23,298).
att(71,1240).
att(123,1330).
att(133,971).
att(12,1236).
att(21,1135).
att(417,884).
att(127,1264).
att(24,321).
att(15,1176).
att(16,1238).
att(125,1268).
att(315,449).
att(19,1132).
att(318,515).
att(422,1114).
att(13,815).
att(70,935).
att(12,1141).
att(12,818).
att(15,825).
att(315,517).
att(310,517).
att(14,815).
att(24,405).
att(318,507).
att(15,815).
att(267,52).
att(13,1138).
att(21,816).
att(417,961).
att(9,215).
att(31,285).
att(133,1149).
att(318,563).
att(133,1157).
att(8,267).
att(45,951).
att(64,773).
att(62,1230).
att(255,102).
att(264,156).
att(29,231).
att(55,1291).
att(11,275).
att(58,1234).
att(29,248).
att(252,84).
att(310,563).
att(51,1222).
att(58,1170).
att(62,1276).
att(67,767).
att(318,465).
att(255,96).
att(315,563).
att(256,77).
att(68,767).
att(5,121).
att(383,888).
att(267,296).
att(135,1258).
att(426,1007).
att(426,1019).
att(60,818).
att(45,1191).
att(256,299).
att(381,1033).
att(420,1268).
att(9,176).
att(311,543).
att(262,188).
att(135,1305).
att(269,150).
att(417,1159).
att(424,1268).
att(23,549).
att(65,1138).
att(71,830).
att(56,992).
att(73,815).
att(33,449).
att(219,54).
att(426,1121).
att(422,1334).
att(70,830).
att(260,243).
att(35,513).
att(211,52).
att(29,407).
att(213,59).
att(41,439).
att(70,815).
att(385,1012).
att(422,1258).
att(68,1138).
att(72,815).
att(37,376).
att(252,283).
att(70,767).
att(39,467).
att(65,784).
att(223,86).
att(383,1086).
att(39,460).
att(430,1205).
att(62,1002).
att(62,944).
att(219,74).
att(260,332).
att(29,479).
att(381,1211).
att(39,497).
att(258,332).
att(223,104).
att(426,1063).
att(225,106).
att(66,825).
att(255,362).
att(426,1211).
att(213,95).
att(262,304).
att(255,366).
att(221,88).
att(210,52).
att(53,986).
att(42,982).
att(5,832).
att(225,965).
att(35,1390).
att(36,974).
att(381,447).
att(211,969).
att(379,410).
att(11,1311).
att(217,877).
att(8,1142).
att(262,1258).
att(1,1147).
att(428,439).
att(6,818).
att(213,1022).
att(7,816).
att(252,1305).
att(6,775).
att(11,1449).
att(381,495).
att(11,1447).
att(381,492).
att(378,374).
att(217,1086).
att(8,751).
att(219,1208).
att(346,140).
att(211,1086).
att(381,513).
att(428,460).
att(223,1113).
att(39,1447).
att(430,374).
att(253,1338).
att(426,398).
att(9,775).
att(221,1061).
att(43,951).
att(209,965).
att(210,1201).
att(392,367).
att(5,1226).
att(347,282).
att(215,1205).
att(383,460).
att(22,951).
att(379,552).
att(228,881).
att(381,465).
att(389,282).
att(347,163).
att(22,992).
att(8,932).
att(383,492).
att(426,571).
att(385,485).
att(1206,1376).
att(211,1204).
att(211,1216).
att(1,1234).
att(174,961).
att(217,1258).
att(217,1219).
att(9,1143).
att(7,1191).
att(7,1178).
att(166,877).
att(219,1334).
att(3,1176).
att(347,241).
att(5,1174).
att(3,1286).
att(223,1268).
att(1202,1376).
att(219,1248).
att(219,1264).
att(2,1222).
att(219,1258).
att(392,330).
att(211,1303).
att(344,241).
att(26,785).
att(390,374).
att(387,507).
att(32,827).
att(16,933).
att(355,163).
att(392,519).
att(389,445).
att(178,965).
att(171,1033).
att(180,961).
att(180,969).
att(19,932).
att(217,1334).
att(17,974).
att(16,995).
att(345,449).
att(30,815).
att(40,827).
att(389,447).
att(166,1010).
att(166,1076).
att(389,485).
att(15,1222).
att(178,1214).
att(21,1225).
att(305,273).
att(172,1205).
att(345,479).
att(351,277).
att(166,1124).
att(43,771).
att(26,789).
att(21,1278).
att(352,163).
att(26,763).
att(36,782).
att(349,149).
att(174,1201).
att(16,1274).
att(28,1291).
att(355,331).
att(127,877).
att(32,1276).
att(349,361).
att(172,1296).
att(42,1182).
att(123,1012).
att(180,1216).
att(172,1305).
att(28,1225).
att(389,565).
att(36,1291).
att(228,1268).
att(26,949).
att(40,1276).
att(26,1284).
att(305,241).
att(43,1240).
att(172,1131).
att(3,751).
att(350,365).
att(186,1113).
att(125,959).
att(305,439).
att(184,961).
att(228,1345).
att(166,1268).
att(180,1248).
att(308,371).
att(42,817).
att(115,1022).
att(123,955).
att(36,1132).
att(42,1147).
att(42,1146).
att(167,543).
att(120,277).
att(166,460).
att(119,295).
att(352,1333).
att(115,231).
att(305,1344).
att(350,1315).
att(166,507).
att(186,233).
att(166,513).
att(119,149).
att(1120,1382).
att(1120,1373).
att(228,556).
att(308,1308).
att(305,1255).
att(115,279).
att(305,1257).
att(352,1422).
att(127,452).
att(127,410).
att(309,1210).
att(305,1422).
att(305,1418).
att(308,1406).
att(123,447).
att(351,1327).
att(315,1085).
att(308,1325).
att(308,1315).
att(123,321).
att(123,495).
att(135,137).
att(186,517).
att(125,374).
att(121,519).
att(305,1451).
att(24,1154).
att(1088,1404).
att(311,1154).
att(356,1468).
att(25,1062).
att(308,1412).
att(309,1156).
att(123,403).
att(133,239).
att(117,462).
att(186,563).
att(1127,1382).
att(25,1306).
att(127,563).
att(23,1253).
att(23,1220).
att(422,140).
att(319,1255).
att(25,1160).
att(1123,1374).
att(127,467).
att(309,1257).
att(318,1418).
att(135,330).
att(422,367).
att(256,877).
att(37,1200).
att(264,965).
att(24,1329).
att(39,1066).
att(133,371).
att(318,1323).
att(135,367).
att(258,877).
att(24,1344).
att(115,546).
att(24,1355).
att(258,1128).
att(1165,1409).
att(24,1377).
att(311,1377).
att(424,439).
att(8,1002).
att(7,926).
att(10,1207).
att(1206,1402).
att(8,944).
att(130,490).
att(5,986).
att(39,1210).
att(422,330).
att(133,439).
att(267,961).
att(311,1418).
att(33,1085).
att(309,1392).
att(319,1453).
att(8,986).
att(11,1075).
att(39,1257).
att(133,487).
att(267,1201).
att(426,282).
att(379,282).
att(426,246).
att(135,519).
att(432,163).
att(1037,1403).
att(11,1150).
att(39,1297).
att(24,1468).
att(33,1349).
att(1074,1381).
att(426,354).
att(33,1352).
att(426,363).
att(211,884).
att(377,241).
att(213,884).
att(29,1329).
att(223,886).
att(383,273).
att(1087,1381).
att(133,543).
att(10,1255).
att(35,1311).
att(426,367).
att(10,1266).
att(379,248).
att(255,1166).
att(39,1347).
att(29,1331).
att(93,1093).
att(34,179).
att(691,278).
att(607,1323).
att(1096,1260).
att(85,1095).
att(19,1501).
att(693,235).
att(87,1103).
att(36,170).
att(78,584).
att(290,11).
att(475,485).
att(1096,1270).
att(91,581).
att(93,604).
att(103,1229).
att(42,168).
att(87,591).
att(686,282).
att(83,581).
att(472,462).
att(1094,1247).
att(1094,1420).
att(18,1496).
att(1051,1064).
att(28,124).
att(36,134).
att(83,993).
att(698,439).
att(91,993).
att(89,1050).
att(607,1386).
att(699,442).
att(1047,1064).
att(20,1463).
att(1040,1069).
att(13,1499).
att(85,987).
att(90,999).
att(19,1465).
att(76,1105).
att(20,1509).
att(1107,1062).
att(1110,1082).
att(607,1418).
att(19,1486).
att(691,369).
att(19,1483).
att(20,1486).
att(694,334).
att(686,371).
att(292,319).
att(1051,1144).
att(1051,1160).
att(1096,1388).
att(669,129).
att(40,1479).
att(697,398).
att(1104,1457).
att(1045,1203).
att(112,947).
att(109,945).
att(250,39).
att(250,27).
att(7,429).
att(28,1481).
att(693,376).
att(292,350).
att(698,398).
att(42,1488).
att(112,977).
att(97,1108).
att(699,407).
att(287,390).
att(109,987).
att(112,999).
att(669,152).
att(697,401).
att(32,1506).
att(32,1509).
att(292,306).
att(686,447).
att(694,407).
att(695,549).
att(1051,1250).
att(1109,1355).
att(695,543).
att(43,268).
att(101,1285).
att(42,212).
att(30,1436).
att(666,233).
att(666,237).
att(670,285).
att(40,1460).
att(32,1479).
att(691,396).
att(1053,1306).
att(691,394).
att(691,515).
att(290,315).
att(42,259).
att(1040,1299).
att(1109,1420).
att(199,1097).
att(21,124).
att(89,1136).
att(670,331).
att(207,1108).
att(1110,1418).
att(67,1496).
att(21,131).
att(1040,1317).
att(78,1244).
att(12,216).
att(15,170).
att(689,563).
att(199,597).
att(15,227).
att(205,1095).
att(669,354).
att(1110,1396).
att(17,170).
att(1047,1325).
att(661,241).
att(1040,1336).
att(195,1089).
att(19,118).
att(1049,1451).
att(191,1056).
att(15,437).
att(21,380).
att(73,1463).
att(1051,1364).
att(668,394).
att(1051,1453).
att(671,492).
att(642,146).
att(1045,1377).
att(203,1281).
att(981,1197).
att(1049,1470).
att(13,182).
att(66,1490).
att(1049,1377).
att(12,185).
att(73,1486).
att(1053,1422).
att(71,1461).
att(669,398).
att(71,1452).
att(20,384).
att(205,936).
att(1053,1377).
att(16,416).
att(1107,1455).
att(202,930).
att(991,1210).
att(71,1460).
att(28,382).
att(994,1308).
att(1059,1253).
att(93,948).
att(666,471).
att(93,947).
att(1059,1263).
att(93,1285).
att(1059,1220).
att(1059,1331).
att(80,930).
att(89,948).
att(89,947).
att(624,140).
att(636,277).
att(636,278).
att(642,235).
att(19,265).
att(627,142).
att(669,556).
att(666,495).
att(994,1152).
att(12,1483).
att(17,1460).
att(19,1433).
att(634,137).
att(669,479).
att(671,462).
att(18,1465).
att(1055,1257).
att(201,623).
att(205,597).
att(87,1173).
att(634,357).
att(197,599).
att(21,254).
att(15,261).
att(18,1433).
att(197,629).
att(641,369).
att(978,1253).
att(207,629).
att(14,1436).
att(136,845).
att(64,999).
att(646,1301).
att(994,562).
att(1059,536).
att(165,176).
att(199,33).
att(1000,320).
att(1059,628).
att(641,1266).
att(1001,336).
att(139,209).
att(67,1283).
att(416,863).
att(1059,560).
att(666,1457).
att(154,253).
att(201,305).
att(667,1388).
att(165,219).
att(419,801).
att(73,934).
att(157,262).
att(1059,551).
att(1054,540).
att(502,140).
att(201,319).
att(502,137).
att(205,11).
att(624,1203).
att(139,252).
att(642,1295).
att(1055,536).
att(68,999).
att(203,29).
att(197,25).
att(668,1453).
att(199,310).
att(205,35).
att(636,1361).
att(114,379).
att(981,619).
att(154,120).
att(380,762).
att(162,415).
att(1000,435).
att(136,900).
att(646,1344).
att(157,120).
att(131,1035).
att(151,414).
att(419,899).
att(160,378).
att(382,774).
att(1001,395).
att(790,748).
att(51,602).
att(51,593).
att(1001,402).
att(431,776).
att(136,919).
att(425,845).
att(790,743).
att(73,1233).
att(505,275).
att(1059,619).
att(1000,326).
att(1054,579).
att(640,1218).
att(416,843).
att(800,742).
att(132,901).
att(72,1245).
att(431,737).
att(636,1253).
att(58,602).
att(431,736).
att(16,1188).
att(64,593).
att(384,757).
att(431,833).
att(64,591).
att(642,1367).
att(493,357).
att(627,1323).
att(21,1183).
att(1004,494).
att(201,418).
att(201,424).
att(504,410).
att(638,1399).
att(202,346).
att(498,314).
att(601,1203).
att(202,347).
att(71,1041).
att(503,442).
att(642,1401).
att(978,573).
att(384,783).
att(423,896).
att(70,1105).
att(981,573).
att(425,896).
att(994,577).
att(201,120).
att(640,1319).
att(937,391).
att(71,1095).
att(1014,511).
att(65,626).
att(431,752).
att(202,377).
att(641,1393).
att(931,446).
att(17,1171).
att(1001,532).
att(636,1451).
att(943,478).
att(500,447).
att(500,442).
att(1006,564).
att(600,1145).
att(160,225).
att(151,260).
att(504,490).
att(69,996).
att(473,163).
att(501,403).
att(474,137).
att(197,306).
att(197,305).
att(71,945).
att(624,1388).
att(503,407).
att(491,303).
att(627,1420).
att(642,1455).
att(504,439).
att(427,814).
att(500,327).
att(504,412).
att(1000,562).
att(1001,561).
att(382,812).
att(197,390).
att(197,346).
att(502,401).
att(436,901).
att(139,10).
att(292,133).
att(62,1229).
att(463,163).
att(386,853).
att(504,485).
att(1006,649).
att(22,1431).
att(45,1279).
att(4,1439).
att(500,485).
att(598,1250).
att(943,628).
att(380,915).
att(600,1344).
att(63,1193).
att(473,248).
att(97,623).
att(105,591).
att(601,1220).
att(151,41).
att(596,1154).
att(112,645).
att(8,1432).
att(386,868).
att(45,945).
att(627,1453).
att(473,277).
att(4,1431).
att(472,163).
att(502,489).
att(592,1308).
att(1001,653).
att(601,1250).
att(284,178).
att(502,462).
att(585,1144).
att(647,1422).
att(292,390).
att(290,133).
att(386,880).
att(5,183).
att(943,575).
att(4,177).
att(7,116).
att(107,1038).
att(386,973).
att(9,144).
att(109,1041).
att(473,324).
att(380,1028).
att(474,330).
att(600,1393).
att(463,277).
att(585,1253).
att(594,1358).
att(431,905).
att(585,1250).
att(433,896).
att(51,1173).
att(97,595).
att(477,357).
att(112,1105).
att(1014,688).
att(112,1103).
att(596,1253).
att(300,130).
att(287,133).
att(4,212).
att(1000,680).
att(592,1344).
att(940,612).
att(294,432).
att(501,546).
att(501,556).
att(469,439).
att(594,1388).
att(1104,1197).
att(469,458).
att(5,1488).
att(62,1108).
att(8,1506).
att(603,1372).
att(596,1418).
att(603,1367).
att(9,1487).
att(157,377).
att(160,307).
att(5,1481).
att(58,1056).
att(1092,1207).
att(292,267).
att(53,1046).
att(473,374).
att(114,389).
att(162,378).
att(943,684).
att(476,314).
att(1106,1082).
att(5,1505).
att(468,513).
att(300,209).
att(4,1481).
att(157,305).
att(477,467).
att(250,167).
att(154,23).
att(287,225).
att(686,140).
att(1102,1255).
att(6,1434).
att(58,1283).
att(63,930).
att(474,519).
att(1104,1154).
att(594,1470).
att(475,398).
att(165,305).
att(470,405).
att(1100,1306).
att(1100,1270).
att(5,1452).
att(6,1464).
att(160,311).
att(160,24).
att(105,352).
att(607,481).
att(290,765).
att(175,829).
att(227,812).
att(109,352).
att(168,831).
att(109,351).
att(32,1050).
att(168,834).
att(1092,516).
att(85,258).
att(468,1315).
att(224,1024).
att(837,745).
att(107,392).
att(111,430).
att(216,905).
att(594,688).
att(844,745).
att(43,1041).
att(111,378).
att(227,826).
att(90,264).
att(109,390).
att(42,1056).
att(218,1021).
att(22,1185).
att(107,346).
att(99,319).
att(696,1145).
att(227,845).
att(230,847).
att(87,209).
att(113,31).
att(105,41).
att(607,525).
att(175,839).
att(183,737).
att(470,1453).
att(83,172).
att(19,645).
att(78,217).
att(38,1281).
att(80,221).
att(19,635).
att(1094,484).
att(181,788).
att(99,306).
att(463,1422).
att(477,1447).
att(89,256).
att(168,821).
att(97,351).
att(173,810).
att(175,872).
att(693,1203).
att(85,209).
att(112,31).
att(87,211).
att(76,253).
att(170,804).
att(1092,486).
att(473,1468).
att(1110,444).
att(281,1137).
att(109,171).
att(111,176).
att(290,1176).
att(1,1281).
att(112,120).
att(36,629).
att(173,925).
att(607,692).
att(697,1333).
att(112,418).
att(107,121).
att(4,947).
att(177,900).
att(281,1234).
att(1094,540).
att(251,1137).
att(51,311).
att(1094,521).
att(463,1451).
att(693,1295).
att(2,934).
att(229,910).
att(686,1315).
att(1092,692).
att(1094,684).
att(671,1060).
att(1094,685).
att(103,119).
att(22,1245).
att(109,381).
att(122,834).
att(693,1319).
att(913,743).
att(173,973).
att(1040,406).
att(666,1065).
att(185,831).
att(187,823).
att(287,822).
att(126,783).
att(105,424).
att(34,595).
att(1094,575).
att(300,1146).
att(38,629).
att(112,415).
att(230,1032).
att(1096,655).
att(696,1344).
att(227,1027).
att(1,1227).
att(175,883).
att(183,753).
att(173,893).
att(168,899).
att(28,639).
att(107,135).
att(1100,680).
att(30,645).
att(177,1028).
att(916,742).
att(1109,399).
att(109,130).
att(185,756).
att(1049,542).
att(19,948).
att(695,1457).
att(18,977).
att(671,1152).
att(856,744).
att(669,1293).
att(665,1145).
att(1053,548).
att(691,1370).
att(1045,484).
att(116,810).
att(691,1377).
att(78,307).
att(80,352).
att(187,788).
att(686,1416).
att(207,262).
att(1042,494).
att(695,1364).
att(1051,518).
att(873,742).
att(182,788).
att(1110,486).
att(20,1005).
att(664,1060).
att(869,748).
att(87,308).
att(669,1162).
att(669,1158).
att(13,1039).
att(124,812).
att(666,1200).
att(131,764).
att(15,1294).
att(73,645).
att(667,1306).
att(73,633).
att(667,1270).
att(73,639).
att(199,186).
att(116,841).
att(21,1245).
att(71,590).
att(118,843).
att(185,921).
att(76,23).
att(19,1294).
att(670,1308).
att(89,311).
att(1110,537).
att(671,1308).
att(183,910).
att(664,1154).
att(72,645).
att(1107,621).
att(183,915).
att(116,875).
att(78,25).
att(203,186).
att(28,1292).
att(93,414).
att(76,120).
att(28,1224).
att(663,1355).
att(187,1018).
att(18,635).
att(187,1032).
att(122,883).
att(122,1027).
att(17,595).
att(642,1065).
att(416,778).
att(664,1355).
att(669,1396).
att(134,752).
att(14,645).
att(38,1171).
att(28,952).
att(99,41).
att(118,922).
att(83,123).
att(187,880).
att(419,764).
att(666,1331).
att(126,922).
att(187,903).
att(1109,589).
att(34,1294).
att(131,783).
att(20,629).
att(26,1279).
att(1110,577).
att(26,1283).
att(34,1290).
att(421,770).
att(419,774).
att(1054,393).
att(1110,680).
att(103,27).
att(421,766).
att(40,1229).
att(20,593).
att(416,732).
att(30,952).
att(664,1257).
att(101,39).
att(421,783).
att(665,1344).
att(668,1331).
att(38,1292).
att(38,1229).
att(42,1237).
att(423,732).
att(93,347).
att(644,1186).
att(663,1420).
att(18,1103).
att(667,1422).
att(89,383).
att(132,788).
att(641,1189).
att(83,392).
att(132,791).
att(624,1062).
att(642,1145).
att(978,510).
att(669,1451).
att(978,506).
att(664,1399).
att(78,378).
att(668,1377).
att(80,432).
att(669,1445).
att(665,1393).
att(76,424).
att(1040,688).
att(131,821).
att(666,1393).
att(20,1095).
att(93,428).
att(93,426).
att(131,828).
att(93,379).
att(83,378).
att(664,1323).
att(38,1192).
att(634,1066).
att(634,1082).
att(116,973).
att(669,1377).
att(991,518).
att(85,378).
att(423,752).
att(1433,912).
att(67,420).
att(270,780).
att(1433,908).
att(1437,890).
att(670,688).
att(160,944).
att(641,395).
att(154,995).
att(634,434).
att(671,680).
att(641,402).
att(421,60).
att(1439,759).
att(1427,923).
att(1428,853).
att(636,333).
att(114,992).
att(195,816).
att(1428,855).
att(1433,843).
att(197,1146).
att(265,732).
att(1433,854).
att(1054,1413).
att(73,120).
att(667,536).
att(257,737).
att(72,418).
att(68,120).
att(116,284).
att(67,127).
att(114,975).
att(259,736).
att(259,737).
att(416,16).
att(636,326).
att(664,523).
att(1040,1515).
att(1439,783).
att(191,808).
att(197,782).
att(1034,744).
att(423,97).
att(1428,1028).
att(1433,1027).
att(189,808).
att(640,391).
att(207,751).
att(646,518).
att(58,253).
att(73,355).
att(419,90).
att(498,1062).
att(71,352).
att(71,351).
att(499,1064).
att(114,1280).
att(144,91).
att(65,420).
att(423,49).
att(666,682).
att(1428,903).
att(136,99).
att(136,109).
att(197,792).
att(663,610).
att(131,103).
att(666,690).
att(263,778).
att(663,589).
att(66,430).
att(419,97).
att(257,757).
att(265,833).
att(642,508).
att(207,1230).
att(491,1194).
att(1004,1348).
att(636,562).
att(19,315).
att(78,773).
att(1014,1312).
att(270,867).
att(380,4).
att(493,1210).
att(261,812).
att(380,22).
att(425,199).
att(1006,1357).
att(73,269).
att(73,267).
att(425,205).
att(263,814).
att(265,865).
att(380,7).
att(197,1222).
att(263,870).
att(505,1302).
att(937,1360).
att(436,14).
att(18,308).
att(421,154).
att(931,1242).
att(80,773).
att(17,305).
att(68,264).
att(1439,839).
att(1439,870).
att(499,1203).
att(642,551).
att(981,1443).
att(254,833).
att(202,1286).
att(78,794).
att(1008,745).
att(19,350).
att(423,90).
att(1006,1246).
att(201,935).
att(1059,1511).
att(1059,1512).
att(263,834).
att(13,428).
att(500,1207).
att(501,1186).
att(20,351).
att(380,5).
att(638,464).
att(641,561).
att(71,255).
att(12,392).
att(634,481).
att(17,390).
att(134,189).
att(1004,1242).
att(1004,1413).
att(195,1178).
att(259,925).
att(603,317).
att(624,536).
att(191,1234).
att(1006,1414).
att(437,63).
att(268,922).
att(427,69).
att(12,312).
att(73,174).
att(425,290).
att(263,839).
att(1006,1415).
att(13,319).
att(425,297).
att(265,912).
att(18,39).
att(505,1358).
att(265,896).
att(380,72).
att(214,734).
att(429,60).
att(592,326).
att(382,72).
att(1001,1389).
att(1001,1391).
att(647,435).
att(431,68).
att(259,915).
att(502,1333).
att(642,619).
att(207,1168).
att(1439,915).
att(16,309).
att(189,1223).
att(1439,922).
att(70,174).
att(189,1222).
att(981,1477).
att(994,1493).
att(380,28).
att(427,16).
att(981,1478).
att(1006,1326).
att(69,253).
att(207,1172).
att(505,1299).
att(15,311).
att(500,1148).
att(17,25).
att(203,1133).
att(500,1304).
att(937,1320).
att(18,311).
att(382,17).
att(641,651).
att(634,535).
att(14,306).
att(436,72).
att(1439,921).
att(251,949).
att(624,579).
att(259,1030).
att(603,391).
att(1,1090).
att(2,1105).
att(49,377).
att(1014,1425).
att(216,783).
att(943,1391).
att(9,1052).
att(63,346).
att(250,1282).
att(504,1323).
att(53,383).
att(157,808).
att(501,1317).
att(592,399).
att(8,1046).
att(157,789).
att(500,1310).
att(158,751).
att(6,1052).
att(214,759).
att(51,383).
att(1001,1440).
att(160,767).
att(224,759).
att(431,111).
att(603,435).
att(259,905).
att(585,329).
att(148,824).
att(384,66).
att(62,418).
att(63,432).
att(157,818).
att(165,824).
att(946,1413).
att(500,1266).
att(165,786).
att(946,1369).
att(7,1095).
att(214,772).
att(429,111).
att(60,378).
att(505,1311).
att(601,393).
att(501,1336).
att(224,770).
att(937,1363).
att(594,438).
att(474,1156).
att(931,1441).
att(5,930).
att(433,189).
att(931,1425).
att(940,1504).
att(493,1422).
att(8,977).
att(226,812).
att(112,211).
att(596,506).
att(475,1210).
att(60,311).
att(382,197).
att(937,1497).
att(1001,1493).
att(1001,1502).
att(22,1089).
att(491,1317).
att(624,680).
att(1014,1498).
att(216,757).
att(226,819).
att(292,1291).
att(292,1289).
att(45,428).
att(226,826).
att(477,1207).
att(55,377).
att(139,808).
att(165,767).
att(263,1009).
att(504,1420).
att(22,1095).
att(157,782).
att(4,1048).
att(386,90).
att(946,1425).
att(1000,1512).
att(1006,1504).
att(107,252).
att(109,269).
att(222,804).
att(4,1044).
att(382,78).
att(468,1060).
att(1001,1511).
att(382,85).
att(271,804).
att(474,1194).
att(45,258).
att(1004,1523).
att(943,1492).
att(1006,1516).
att(66,311).
att(493,1447).
att(212,845).
att(596,523).
att(946,1523).
att(60,176).
att(154,1170).
att(895,746).
att(69,23).
att(53,209).
att(937,1516).
att(473,1257).
att(214,875).
att(940,1474).
att(191,769).
att(1014,1523).
att(476,1295).
att(58,217).
att(58,215).
att(222,843).
att(157,1291).
att(71,311).
att(71,24).
att(592,562).
att(58,223).
att(158,827).
att(594,610).
att(224,905).
att(271,973).
att(601,685).
att(173,735).
att(607,404).
att(603,609).
att(1106,438).
att(1096,336).
att(218,919).
att(603,573).
att(160,786).
att(53,117).
att(596,573).
att(218,901).
att(212,896).
att(177,760).
att(212,905).
att(7,599).
att(592,577).
att(1104,316).
att(606,457).
att(469,1250).
att(181,732).
att(477,1347).
att(5,633).
att(463,1306).
att(647,577).
att(470,1301).
att(165,1184).
att(139,1236).
att(218,839).
att(607,448).
att(603,587).
att(598,653).
att(1098,336).
att(1098,333).
att(212,917).
att(222,896).
att(212,915).
att(229,780).
att(601,610).
att(93,1104).
att(695,370).
att(1094,1337).
att(1053,958).
att(691,276).
att(689,208).
att(1104,1332).
att(1104,1338).
att(1107,1119).
att(669,108).
att(76,585).
att(85,606).
att(1088,749).
att(1053,1033).
att(1047,965).
att(669,57).
att(1109,965).
att(85,594).
att(686,304).
att(698,408).
att(664,106).
att(666,79).
att(1042,1061).
att(78,606).
att(668,47).
att(205,505).
att(93,1049).
att(697,362).
att(202,472).
att(1040,1114).
att(691,342).
att(1118,740).
att(93,695).
att(1110,1296).
att(1110,1309).
att(668,190).
att(668,198).
att(1045,1201).
att(19,1407).
att(665,150).
att(1040,1153).
att(105,931).
att(1057,886).
att(666,141).
att(97,1042).
att(667,77).
att(1110,1155).
att(696,443).
att(1053,1195).
att(85,468).
att(691,408).
att(1040,1166).
att(93,644).
att(1049,1334).
att(667,276).
att(12,1403).
att(21,1365).
att(997,1010).
att(1036,742).
att(89,670).
att(642,47).
att(1045,1248).
att(1055,1114).
att(13,1402).
att(14,1409).
att(1045,1264).
att(664,289).
att(85,624).
att(1045,1219).
att(91,600).
att(668,208).
att(988,969).
att(15,1376).
att(78,665).
att(89,689).
att(663,150).
att(1051,1298).
att(994,888).
att(20,1404).
att(93,669).
att(97,1004).
att(1045,1155).
att(101,943).
att(19,1378).
att(1040,1296).
att(15,1407).
att(114,474).
att(1059,1073).
att(640,61).
att(641,100).
att(203,997).
att(641,84).
att(668,332).
att(988,1086).
att(978,1111).
att(634,106).
att(668,302).
att(636,100).
att(627,44).
att(197,1049).
att(666,328).
att(203,1057).
att(158,475).
att(644,50).
att(1059,1111).
att(667,238).
att(668,232).
att(197,1098).
att(1055,1061).
att(668,366).
att(641,104).
att(978,959).
att(1045,1332).
att(157,472).
att(114,665).
att(114,668).
att(994,1205).
att(641,190).
att(1000,888).
att(981,1187).
att(158,670).
att(642,164).
att(499,800).
att(503,869).
att(991,1159).
att(189,1049).
att(972,745).
att(191,1049).
att(994,1078).
att(997,1086).
att(667,409).
att(199,1057).
att(203,943).
att(642,192).
att(664,332).
att(967,744).
att(114,686).
att(636,86).
att(981,1073).
att(967,748).
att(967,745).
att(72,1402).
att(943,884).
att(1004,1033).
att(1057,1248).
att(1057,1264).
att(1054,1337).
att(978,1298).
att(641,208).
att(931,884).
att(491,862).
att(493,858).
att(981,1298).
att(499,873).
att(201,468).
att(991,1268).
att(1059,1298).
att(1001,1015).
att(191,463).
att(634,156).
att(1054,1258).
att(71,1397).
att(956,744).
att(956,748).
att(85,946).
att(931,969).
att(978,1338).
att(994,1356).
att(505,879).
att(501,911).
att(638,243).
att(199,605).
att(641,304).
att(1001,1086).
att(634,366).
att(943,958).
att(981,1345).
att(624,247).
att(73,1374).
att(491,846).
att(499,916).
att(493,850).
att(493,852).
att(946,1012).
att(997,1264).
att(946,1033).
att(71,1339).
att(203,605).
att(505,892).
att(624,276).
att(634,238).
att(191,671).
att(65,1409).
att(498,924).
att(197,646).
att(493,200).
att(139,218).
att(943,248).
att(64,946).
att(60,646).
att(498,141).
att(51,670).
att(634,1271).
att(503,289).
att(139,270).
att(981,483).
att(642,1268).
att(53,472).
att(69,978).
att(62,698).
att(505,188).
att(634,1155).
att(501,196).
att(641,1305).
att(60,665).
att(642,1296).
att(624,1201).
att(594,971).
att(1004,445).
att(63,1098).
att(114,384).
att(636,1334).
att(943,324).
att(603,959).
att(1006,447).
att(943,334).
att(157,118).
att(1006,410).
att(473,44).
att(1001,394).
att(294,1454).
att(502,362).
att(51,594).
att(160,429).
att(292,1459).
att(58,1104).
att(1014,412).
att(250,1479).
att(1006,327).
att(162,116).
att(500,138).
att(505,274).
att(8,1374).
att(250,1490).
att(51,624).
att(646,1356).
att(937,314).
att(1000,439).
att(60,600).
att(1001,447).
att(601,961).
att(51,634).
att(601,969).
att(641,1330).
att(63,502).
att(603,1070).
att(603,1073).
att(503,409).
att(476,94).
att(475,108).
att(73,1104).
att(472,44).
att(68,1106).
att(72,1110).
att(500,301).
att(1000,462).
att(154,1459).
att(114,1428).
att(600,1205).
att(940,507).
att(594,1076).
att(601,1214).
att(1014,489).
att(940,374).
att(624,1334).
att(64,627).
att(189,118).
att(647,1078).
att(1004,401).
att(205,425).
att(73,601).
att(205,423).
att(596,959).
att(1006,407).
att(160,1461).
att(162,1463).
att(71,1094).
att(585,1204).
att(63,697).
att(491,456).
att(607,878).
att(157,1438).
att(1006,565).
att(472,188).
att(1102,877).
att(53,475).
att(69,991).
att(114,216).
att(468,200).
att(71,1006).
att(71,1004).
att(601,1298).
att(601,1307).
att(151,268).
att(1004,489).
att(67,1110).
att(114,259).
att(1014,549).
att(67,1109).
att(931,490).
att(603,1208).
att(162,1437).
att(504,459).
att(73,1045).
att(1006,546).
att(67,1042).
att(68,1109).
att(300,126).
att(300,116).
att(594,1258).
att(601,1332).
att(607,958).
att(647,1356).
att(292,134).
att(112,605).
att(109,627).
att(250,421).
att(603,1221).
att(112,592).
att(40,1381).
att(1077,747).
att(290,173).
att(1068,747).
att(1106,877).
att(97,667).
att(250,122).
att(297,173).
att(42,1376).
att(112,624).
att(250,116).
att(36,1376).
att(38,1379).
att(472,156).
att(1081,748).
att(468,156).
att(97,661).
att(281,168).
att(592,1296).
att(36,1381).
att(468,159).
att(474,283).
att(1094,1126).
att(97,1100).
att(474,304).
att(284,429).
att(475,360).
att(697,44).
att(1096,971).
att(290,425).
att(1100,1114).
att(83,491).
att(1100,1061).
att(103,606).
att(693,57).
att(99,1092).
att(468,370).
att(474,325).
att(606,1128).
att(463,276).
att(1096,1012).
att(297,425).
att(111,600).
att(251,436).
att(603,1334).
att(470,299).
att(472,238).
att(90,504).
att(1102,1113).
att(695,52).
att(468,247).
att(56,1055).
att(606,1149).
att(606,1157).
att(691,98).
att(1106,1201).
att(55,1098).
att(45,1102).
att(157,384).
att(63,988).
att(686,77).
att(1100,1157).
att(58,991).
att(284,1437).
att(292,261).
att(63,1042).
att(474,413).
att(469,332).
att(606,1166).
att(699,79).
att(697,100).
att(300,1463).
att(697,82).
att(694,79).
att(694,88).
att(284,1463).
att(51,1096).
att(154,427).
att(468,338).
att(695,296).
att(1215,745).
att(606,1261).
att(292,227).
att(1096,1155).
att(45,1055).
att(297,226).
att(696,150).
att(606,1219).
att(1104,1307).
att(290,265).
att(693,147).
att(693,150).
att(1092,1300).
att(51,931).
att(281,266).
att(63,1014).
att(691,77).
att(101,493).
att(1107,881).
att(63,1004).
att(63,946).
att(1092,1155).
att(42,1408).
att(297,220).
att(97,468).
att(105,697).
att(93,268).
att(1042,163).
att(695,1208).
att(1110,273).
att(12,501).
att(89,1438).
att(34,1055).
att(1104,492).
att(21,474).
att(607,485).
att(1053,163).
att(1107,285).
att(697,1195).
att(1049,277).
att(42,943).
att(693,1078).
att(12,491).
att(15,468).
att(1100,465).
att(19,698).
att(1094,405).
att(1094,407).
att(15,502).
att(76,1459).
att(606,495).
att(97,437).
att(91,1434).
att(89,1459).
att(1107,149).
att(103,382).
att(1092,396).
att(689,1113).
att(695,1307).
att(28,931).
att(21,669).
att(671,888).
att(18,689).
att(1104,549).
att(1045,285).
att(19,634).
att(669,1025).
att(669,1019).
att(17,665).
att(83,170).
att(670,877).
att(695,1298).
att(34,940).
att(89,254).
att(93,272).
att(691,1086).
att(696,1205).
att(87,271).
att(78,261).
att(686,1211).
att(695,1151).
att(666,971).
att(668,998).
att(668,1015).
att(290,1175).
att(40,663).
att(40,664).
att(1045,363).
att(691,1264).
att(669,1117).
att(290,1192).
att(109,118).
att(661,1012).
att(99,181).
att(1040,303).
att(661,1016).
att(695,1345).
att(686,1268).
att(292,1179).
att(670,1016).
att(109,218).
att(250,1183).
att(43,670).
att(90,1509).
att(691,1269).
att(1040,367).
att(28,686).
att(1059,137).
att(93,1452).
att(1059,155).
att(91,1464).
att(1051,374).
att(105,437).
att(669,1063).
att(1110,460).
att(87,1465).
att(661,1114).
att(36,1100).
att(26,634).
att(663,965).
att(1051,458).
att(111,126).
att(696,1356).
att(109,136).
att(671,1078).
att(43,607).
att(663,1201).
att(13,988).
att(1059,235).
att(997,285).
att(1110,563).
att(73,695).
att(671,1151).
att(668,1159).
att(978,298).
att(203,230).
att(981,288).
att(13,1110).
att(64,499).
att(1109,485).
att(1059,288).
att(1109,462).
att(21,988).
att(664,1061).
att(67,470).
att(20,937).
att(1107,568).
att(668,1205).
att(18,997).
att(668,1166).
att(70,697).
att(981,152).
att(991,298).
att(67,475).
att(66,646).
att(666,1258).
att(64,663).
att(191,230).
att(195,126).
att(670,1248).
att(68,664).
att(160,1505).
att(1059,337).
att(641,998).
att(641,1012).
att(158,1479).
att(668,1264).
att(151,1499).
att(160,1486).
att(624,876).
att(151,1496).
att(165,1503).
att(668,1217).
att(669,1332).
att(1040,556).
att(994,235).
att(671,1296).
att(67,664).
att(669,1267).
att(1045,563).
att(201,227).
att(114,1501).
att(197,229).
att(158,1506).
att(1057,353).
att(981,452).
att(1057,376).
att(638,961).
att(505,46).
att(641,1113).
att(1001,145).
att(502,100).
att(503,95).
att(498,61).
att(642,1073).
att(13,638).
att(636,1113).
att(642,1070).
att(19,1100).
att(85,419).
att(981,337).
att(78,227).
att(667,1258).
att(667,1334).
att(988,439).
att(87,118).
att(203,1488).
att(636,963).
att(207,1432).
att(13,1106).
att(189,1459).
att(12,606).
att(71,473).
att(18,1109).
att(502,188).
att(1001,241).
att(1001,237).
att(195,1431).
att(19,997).
att(1006,129).
att(15,1100).
att(493,48).
att(85,437).
att(89,134).
att(205,1460).
att(93,380).
att(1059,497).
att(646,1205).
att(78,419).
att(19,1110).
att(641,1205).
att(85,382).
att(70,499).
att(197,1460).
att(67,131).
att(499,969).
att(504,965).
att(946,1060).
att(53,1503).
att(69,118).
att(70,437).
att(1059,1372).
att(505,1115).
att(501,955).
att(641,396).
att(641,394).
att(640,410).
att(1001,1148).
att(71,431).
att(634,452).
att(1055,1470).
att(158,930).
att(491,1025).
att(1055,1451).
att(58,1464).
att(165,1043).
att(65,181).
att(1006,1062).
att(73,122).
att(189,1179).
att(1059,1401).
att(160,996).
att(51,1503).
att(154,1046).
att(160,977).
att(162,1058).
att(73,132).
att(940,1069).
att(991,1418).
att(624,374).
att(250,632).
att(603,149).
att(943,1150).
att(642,471).
att(493,1115).
att(1000,1301).
att(65,429).
att(292,623).
att(151,947).
att(158,1229).
att(151,952).
att(1001,1266).
att(491,1114).
att(5,463).
att(1014,1304).
att(981,1392).
att(981,1372).
att(1006,1148).
att(66,429).
att(45,1491).
att(638,412).
att(1000,1152).
att(505,1067).
att(69,427).
att(1001,1306).
att(51,1465).
att(634,405).
att(1001,1270).
att(940,1333).
att(624,465).
att(191,947).
att(644,571).
att(493,1198).
att(627,485).
att(1004,1333).
att(596,298).
att(627,462).
att(207,1229).
att(162,623).
att(160,599).
att(199,1227).
att(160,595).
att(201,1292).
att(592,235).
att(1001,1329).
att(501,1130).
att(191,1275).
att(594,239).
att(624,489).
att(594,241).
att(67,254).
att(943,1301).
att(114,645).
att(647,235).
att(70,266).
att(69,1459).
att(627,490).
att(73,1434).
att(598,282).
att(641,565).
att(69,1438).
att(601,233).
att(501,1205).
att(634,479).
att(71,1439).
att(634,485).
att(940,1247).
att(71,270).
att(191,1245).
att(63,1506).
att(1004,1422).
att(195,1183).
att(157,599).
att(201,1171).
att(162,1095).
att(946,1399).
att(201,1193).
att(58,1496).
att(158,1046).
att(601,455).
att(592,331).
att(491,1130).
att(154,637).
att(189,1294).
att(205,1192).
att(199,1173).
att(468,876).
att(501,1305).
att(158,1093).
att(1001,1401).
att(491,1153).
att(491,1362).
att(607,129).
att(607,145).
att(43,491).
att(112,1438).
att(647,492).
att(250,950).
att(42,499).
att(112,1433).
att(473,1061).
att(592,396).
att(97,1454).
att(284,1005).
att(469,1111).
att(940,1470).
att(601,374).
att(469,961).
att(45,183).
att(112,1465).
att(493,1264).
att(22,644).
att(605,447).
att(943,1416).
att(111,1490).
att(45,122).
att(946,1422).
att(107,1458).
att(297,936).
att(501,1362).
att(592,439).
att(51,423).
att(60,429).
att(292,1245).
att(5,943).
att(34,694).
att(1096,142).
att(97,261).
att(290,1281).
att(1,1057).
att(40,475).
att(1098,140).
att(1100,277).
att(605,563).
att(470,1205).
att(109,214).
att(473,1131).
att(468,1195).
att(1104,137).
att(99,1436).
att(290,936).
att(931,1453).
att(40,504).
att(605,517).
att(36,468).
att(472,1061).
att(112,271).
att(297,1229).
att(109,257).
att(26,493).
att(468,1076).
att(281,1273).
att(468,1061).
att(6,994).
att(592,492).
att(63,179).
att(56,229).
att(251,1105).
att(469,1298).
att(607,327).
att(477,1248).
att(8,698).
att(60,216).
att(157,1229).
att(250,1101).
att(9,671).
att(287,629).
att(22,476).
att(165,1171).
att(45,268).
att(1098,241).
att(470,1268).
att(7,667).
att(58,230).
att(58,229).
att(473,1261).
att(160,1183).
att(281,590).
att(284,593).
att(698,881).
att(297,629).
att(5,695).
att(469,1159).
att(7,463).
att(477,1271).
att(8,475).
att(165,1290).
att(475,1161).
att(598,565).
att(7,689).
att(1100,365).
att(292,595).
att(698,1119).
att(58,132).
att(691,998).
att(55,170).
att(9,592).
att(691,1016).
att(4,644).
att(297,1058).
att(113,1483).
att(695,1111).
att(99,1508).
att(1094,442).
att(695,969).
att(45,212).
att(112,1503).
att(112,1496).
att(1094,334).
att(251,1050).
att(474,1334).
att(148,1134).
att(607,447).
att(162,1139).
att(157,1171).
att(9,646).
att(297,1095).
att(470,1300).
att(476,1345).
att(7,644).
att(1106,412).
att(1100,439).
att(157,1179).
att(151,1134).
att(695,959).
att(105,1503).
att(154,1179).
att(756,832).
att(668,66).
att(755,816).
att(829,979).
att(1107,1084).
att(665,60).
att(758,825).
att(754,817).
att(666,56).
att(760,789).
att(1051,1031).
att(1110,962).
att(691,165).
att(1045,1031).
att(755,1138).
att(834,995).
att(665,66).
att(759,818).
att(1110,1199).
att(1051,1079).
att(1110,1215).
att(1051,1036).
att(978,864).
att(1045,1081).
att(834,1223).
att(1040,1071).
att(758,781).
att(642,9).
att(669,202).
att(666,78).
att(758,767).
att(833,1223).
att(819,979).
att(753,824).
att(758,799).
att(834,933).
att(1051,1125).
att(752,825).
att(1053,1127).
att(1055,844).
att(1055,840).
att(669,93).
att(991,864).
att(834,1274).
att(755,832).
att(768,773).
att(981,924).
att(761,1232).
att(634,40).
att(668,165).
att(668,114).
att(772,782).
att(758,1289).
att(644,7).
att(1059,907).
att(997,846).
att(759,926).
att(768,808).
att(758,1284).
att(772,794).
att(642,32).
att(750,789).
att(766,775).
att(760,1223).
att(753,926).
att(666,201).
att(1001,806).
att(624,14).
att(1014,787).
att(642,60).
att(664,294).
att(1403,320).
att(752,1223).
att(644,17).
att(997,882).
att(754,1225).
att(1055,956).
att(760,1138).
att(754,1291).
att(981,1123).
att(504,760).
att(641,99).
att(1405,438).
att(937,860).
att(634,101).
att(1001,840).
att(1407,399).
att(498,759).
att(1001,846).
att(503,821).
att(1014,836).
att(991,1077).
att(642,91).
att(624,56).
att(1404,391).
att(821,816).
att(500,734).
att(646,60).
att(814,995).
att(1409,438).
att(641,55).
att(502,750).
att(501,738).
att(1054,1120).
att(1001,866).
att(641,113).
att(988,1129).
att(503,755).
att(828,786).
att(627,68).
att(636,58).
att(991,1125).
att(493,829).
att(809,1236).
att(1006,909).
att(644,195).
att(733,258).
att(739,267).
att(1397,518).
att(1409,488).
att(814,1223).
att(640,197).
att(592,6).
att(734,255).
att(735,258).
att(1407,488).
att(641,114).
att(1407,482).
att(647,30).
att(498,810).
att(636,191).
att(1004,909).
att(499,801).
att(493,760).
att(819,796).
att(1000,842).
att(814,1274).
att(640,111).
att(812,1289).
att(1409,464).
att(502,801).
att(940,836).
att(819,781).
att(738,252).
att(1408,481).
att(801,1278).
att(829,781).
att(1014,909).
att(823,763).
att(647,6).
att(493,865).
att(1408,628).
att(644,284).
att(603,20).
att(1006,1011).
att(644,300).
att(598,28).
att(937,887).
att(473,732).
att(640,300).
att(1379,339).
att(594,15).
att(1001,968).
att(503,919).
att(499,839).
att(642,250).
att(493,807).
att(644,162).
att(1397,482).
att(819,949).
att(826,1289).
att(1001,1013).
att(834,1238).
att(834,1170).
att(1410,540).
att(1405,548).
att(1405,542).
att(1001,1031).
att(823,949).
att(1001,1034).
att(940,902).
att(1407,542).
att(943,906).
att(596,69).
att(1408,690).
att(598,64).
att(1006,1118).
att(819,1182).
att(468,764).
att(1397,615).
att(473,759).
att(600,111).
att(946,1123).
att(1405,610).
att(473,757).
att(468,780).
att(505,973).
att(833,825).
att(491,921).
att(1408,589).
att(624,292).
att(821,1238).
att(499,917).
att(596,16).
att(826,1132).
att(1394,527).
att(828,1184).
att(598,14).
att(1394,525).
att(592,14).
att(1382,457).
att(1001,1116).
att(1410,575).
att(477,770).
att(585,920).
att(1365,1246).
att(475,40).
att(1368,1242).
att(1380,1322).
att(764,1223).
att(1394,1513).
att(943,236).
att(943,247).
att(500,189).
att(605,898).
att(1394,1502).
att(1404,1478).
att(738,1137).
att(468,36).
att(940,362).
att(1373,1348).
att(1001,302).
att(475,32).
att(1407,1482).
att(1001,301).
att(491,83).
att(733,1228).
att(1394,1440).
att(603,924).
att(1394,1424).
att(1403,1502).
att(500,85).
att(1397,1425).
att(290,1379).
att(1000,358).
att(505,162).
att(1410,1476).
att(1001,342).
att(594,916).
att(931,338).
att(940,409).
att(1394,1516).
att(1394,1514).
att(598,1008).
att(778,995).
att(598,968).
att(1379,1384).
att(473,56).
att(1379,1387).
att(594,964).
att(735,1146).
att(1365,1321).
att(647,972).
att(1373,1312).
att(500,157).
att(1404,1514).
att(1397,1476).
att(476,20).
att(736,1142).
att(598,1017).
att(946,304).
att(468,17).
att(498,284).
att(734,1135).
att(592,1031).
att(1407,1520).
att(603,1077).
att(1365,1389).
att(1368,1384).
att(1382,1441).
att(251,1402).
att(734,976).
att(1379,1456).
att(477,101).
att(1104,797).
att(1365,1419).
att(1373,1369).
att(470,65).
att(1365,1415).
att(1100,787).
att(1379,1467).
att(474,107).
att(601,1081).
att(1365,1414).
att(736,1230).
att(1340,1354).
att(1368,1425).
att(736,1286).
att(476,162).
att(686,2).
att(1381,1474).
att(694,34).
att(1378,1513).
att(1100,902).
att(738,1291).
att(734,1272).
att(1104,848).
att(1373,1423).
att(585,1079).
att(596,1077).
att(470,99).
att(585,1036).
att(470,111).
att(1100,844).
att(1368,1444).
att(764,989).
att(292,1368).
att(294,1381).
att(468,80).
att(281,1410).
att(698,8).
att(468,292).
att(1373,1523).
att(776,1142).
att(1368,1493).
att(1098,1017).
att(693,16).
att(686,14).
att(1094,1013).
att(472,294).
att(469,154).
att(469,157).
att(477,294).
att(607,1020).
att(1365,1502).
att(476,284).
att(476,300).
att(1368,1480).
att(473,300).
att(1092,904).
att(772,1240).
att(1378,1484).
att(691,65).
att(1340,1444).
att(1104,1125).
att(697,53).
att(697,55).
att(697,49).
att(1341,1444).
att(750,827).
att(780,789).
att(750,830).
att(1042,793).
att(756,926).
att(698,62).
att(696,66).
att(761,989).
att(766,1143).
att(774,830).
att(783,786).
att(1049,793).
att(693,73).
att(1094,954).
att(1094,956).
att(669,4).
att(1053,838).
att(671,6).
att(697,80).
att(736,767).
att(669,7).
att(669,43).
att(1107,889).
att(778,1274).
att(1042,836).
att(1042,837).
att(1042,844).
att(1092,1196).
att(686,90).
att(1110,844).
att(1053,856).
att(607,1202).
att(696,111).
att(699,80).
att(780,992).
att(606,1165).
att(733,832).
att(1045,869).
att(778,933).
att(772,979).
att(762,825).
att(772,976).
att(776,944).
att(1109,844).
att(1102,1199).
att(1339,1425).
att(768,1289).
att(691,114).
att(750,1286).
att(772,1223).
att(694,281).
att(778,1238).
att(671,30).
att(1096,1199).
att(669,28).
att(1096,1215).
att(1107,882).
att(699,151).
att(669,21).
att(778,1222).
att(780,1228).
att(764,782).
att(772,1272).
att(201,1407).
att(668,859).
att(670,846).
att(1110,299).
att(197,1381).
att(203,1340).
att(1049,276).
att(694,1167).
att(1109,289).
att(667,787).
att(689,1129).
att(691,966).
att(668,806).
att(699,1087).
att(691,1088).
att(661,787).
att(694,1087).
att(695,1068).
att(189,1341).
att(1059,61).
att(1054,44).
att(671,902).
att(669,1026).
att(1107,322).
att(1045,208).
att(191,1340).
att(1042,238).
att(669,895).
att(663,836).
att(1049,238).
att(1057,92).
att(1054,79).
att(671,972).
att(1053,450).
att(1045,335).
att(665,962).
att(76,1341).
att(1109,332).
att(1051,370).
att(1053,362).
att(1053,372).
att(669,966).
att(669,967).
att(1040,358).
att(78,1339).
att(1057,161).
att(670,1087).
att(671,1087).
att(624,787).
att(991,147).
att(636,871).
att(667,967).
att(668,1129).
att(642,864).
att(669,1068).
att(668,1088).
att(642,871).
att(636,813).
att(157,1381).
att(638,846).
att(502,3).
att(1054,372).
att(501,6).
att(1001,54).
att(624,844).
att(664,1165).
att(627,838).
att(663,1074).
att(165,1380).
att(670,1199).
att(139,1410).
att(670,1215).
att(667,1087).
att(1054,276).
att(641,840).
att(668,1196).
att(634,852).
att(642,913).
att(634,850).
att(943,48).
att(1394,1357).
att(994,358).
att(1397,1360).
att(1409,1314).
att(937,96).
att(1410,1415).
att(988,338).
att(1014,77).
att(641,967).
att(1014,88).
att(1403,1320).
att(1004,100).
att(493,26).
att(1394,1265).
att(504,30).
att(1394,1246).
att(644,879).
att(1397,1246).
att(1006,61).
att(1059,364).
att(940,44).
att(1001,98).
att(641,1034).
att(1001,104).
att(636,898).
att(1394,1415).
att(644,1129).
att(500,71).
att(1001,143).
att(624,956).
att(642,1077).
att(978,453).
att(498,60).
att(624,964).
att(493,65).
att(1006,74).
att(943,96).
att(627,1031).
att(644,960).
att(1397,1318).
att(1397,1326).
att(946,110).
att(937,102).
att(501,66).
att(502,49).
att(491,12).
att(499,64).
att(636,956).
att(1408,1389).
att(624,1034).
att(642,1127).
att(1408,1385).
att(627,1008).
att(1004,88).
att(642,1125).
att(943,141).
att(1380,1262).
att(603,842).
att(943,143).
att(165,1408).
att(1380,1256).
att(1404,1442).
att(598,859).
att(500,109).
att(162,1404).
att(158,1374).
att(505,197).
att(148,1402).
att(634,1196).
att(503,191).
att(1014,238).
att(634,1206).
att(1408,1511).
att(636,1199).
att(940,293).
att(499,105).
att(596,803).
att(596,797).
att(505,97).
att(946,194).
att(592,793).
att(601,842).
att(1407,1466).
att(641,1212).
att(1407,1473).
att(647,844).
att(940,150).
att(114,1402).
att(1014,1161).
att(1004,1195).
att(114,1001).
att(501,1013).
att(605,92).
att(284,476).
att(638,408).
att(154,978).
att(162,937).
att(251,689).
att(491,1013).
att(151,988).
att(139,1094).
att(300,498).
att(493,902).
att(297,505).
att(605,104).
att(165,1049).
att(284,504).
att(292,463).
att(498,1011).
att(940,1061).
att(503,954).
att(1001,1205).
att(491,885).
att(281,499).
att(1004,1061).
att(1014,1195).
att(250,640).
att(477,852).
att(594,159).
att(477,850).
att(585,206).
att(109,1394).
att(504,1165).
att(287,666).
att(468,862).
att(287,665).
att(97,1407).
att(105,1382).
att(937,1268).
att(97,1405).
att(105,1376).
att(477,836).
att(603,192).
att(477,873).
att(500,966).
att(946,1195).
att(1000,1151).
att(638,450).
att(600,150).
att(1001,1300).
att(251,667).
att(113,1402).
att(469,797).
att(463,844).
att(63,1339).
att(463,840).
att(647,358).
att(493,1196).
att(493,1206).
att(162,640).
att(598,274).
att(937,1345).
att(58,1340).
att(165,666).
att(114,646).
att(475,836).
att(477,916).
att(1004,1261).
att(165,663).
att(603,286).
att(63,1373).
att(603,280).
att(596,147).
att(51,1402).
att(468,840).
att(151,670).
att(491,1071).
att(1001,1330).
att(165,1104).
att(158,1110).
att(475,1026).
att(154,596).
att(1100,100).
att(1094,95).
att(292,502).
att(160,1049).
att(474,1034).
att(606,108).
att(603,364).
att(585,247).
att(477,1023).
att(647,332).
att(598,242).
att(473,1011).
att(598,370).
att(472,902).
att(592,358).
att(468,892).
att(594,362).
att(463,956).
att(469,1125).
att(463,967).
att(85,1403).
att(473,1074).
att(1094,196).
att(606,198).
att(477,1129).
att(585,332).
att(1096,96).
att(603,453).
att(463,1034).
att(1098,100).
att(250,937).
att(603,409).
att(473,1118).
att(468,964).
att(1102,208).
att(1096,143).
att(691,866).
att(475,1199).
att(87,1378).
att(1096,159).
att(1100,276).
att(693,838).
att(80,1382).
att(695,913).
att(1102,243).
att(87,1402).
att(469,1036).
att(290,937).
att(477,1165).
att(78,1405).
att(686,859).
att(472,1087).
att(1092,153).
att(76,1405).
att(695,1031).
att(1104,358).
att(606,301).
att(693,913).
att(1106,332).
att(1045,57).
att(1040,50).
att(1047,106).
att(694,1034).
att(1092,366).
att(689,882).
att(250,596).
att(300,640).
att(606,368).
att(1096,289).
att(698,889).
att(250,601).
att(297,634).
att(250,603).
att(697,909).
att(470,1215).
att(109,1365).
att(470,1196).
att(691,846).
att(284,640).
att(1107,104).
att(287,646).
att(686,916).
att(694,902).
att(97,1368).
att(281,627).
att(292,594).
att(1092,243).
att(691,1020).
att(287,1049).
att(1040,77).
att(284,1109).
att(694,1127).
att(670,793).
att(1094,341).
att(606,459).
att(251,1045).
att(691,882).
att(1096,343).
att(1106,450).
att(287,606).
att(693,1011).
att(294,1042).
att(250,1055).
att(1098,304).
att(997,831).
att(921,346).
att(1045,1027).
att(912,344).
att(901,217).
att(1055,874).
att(1057,807).
att(922,311).
att(994,757).
att(1051,1009).
att(1059,834).
att(921,378).
att(923,349).
att(991,834).
att(1040,1032).
att(900,258).
att(910,377).
att(900,262).
att(1059,841).
att(890,178).
att(819,999).
att(912,25).
att(1001,739).
att(978,863).
att(1407,152).
att(919,10).
att(810,632).
att(829,1279).
att(821,1056).
att(915,24).
att(821,996).
att(1059,872).
att(919,312).
att(978,814).
att(991,863).
att(1408,152).
att(912,350).
att(883,258).
att(912,352).
att(908,174).
att(994,925).
att(1000,766).
att(1405,277).
att(921,172).
att(1001,757).
att(759,1229).
att(1410,367).
att(761,1235).
att(1402,285).
att(752,1294).
att(931,739).
att(755,952).
att(1006,772).
att(1006,737).
att(915,178).
att(1059,923).
att(851,31).
att(1055,880).
att(922,120).
att(845,25).
att(1408,239).
att(754,939).
att(758,948).
att(758,947).
att(1006,734).
att(851,27).
att(819,593).
att(915,379).
att(756,1185).
att(1001,821).
att(1014,801).
att(912,133).
att(915,130).
att(1006,759).
att(915,420).
att(994,905).
att(761,1239).
att(921,123).
att(1397,244).
att(1410,363).
att(1001,831).
att(988,1032).
att(1407,371).
att(821,626).
att(828,584).
att(736,1438).
att(1009,267).
att(738,1458).
att(1030,209).
att(1397,410).
att(937,875).
att(739,1436).
att(1024,223).
att(931,788).
att(903,10).
att(940,872).
att(801,930).
att(896,318).
att(943,807).
att(1403,410).
att(1397,327).
att(1006,810).
att(1397,334).
att(1409,439).
att(1001,788).
att(734,1481).
att(735,1491).
att(1021,267).
att(737,1454).
att(1004,925).
att(861,639).
att(1028,133).
att(1394,495).
att(762,1438).
att(807,1273).
att(1397,495).
att(762,1434).
att(1365,129).
att(931,839).
att(812,1245).
att(940,925).
att(1380,235).
att(734,257).
att(940,922).
att(973,184).
att(1408,471).
att(1027,210).
att(1006,843).
att(1006,845).
att(1403,495).
att(736,257).
att(883,311).
att(893,39).
att(875,632).
att(1028,184).
att(1394,374).
att(1397,405).
att(1397,407).
att(1381,163).
att(812,1292).
att(870,639).
att(1382,282).
att(735,1431).
att(1373,140).
att(807,1285).
att(893,31).
att(737,259).
att(734,1438).
att(812,1294).
att(1374,137).
att(868,629).
att(890,130).
att(828,1244).
att(1365,244).
att(1004,1030).
att(1368,239).
att(883,184).
att(943,905).
att(899,184).
att(1006,1028).
att(835,1181).
att(903,430).
att(828,1171).
att(937,973).
att(798,581).
att(834,1188).
att(1402,563).
att(814,637).
att(1014,1030).
att(821,1275).
att(943,915).
att(831,1283).
att(946,925).
att(903,135).
att(1001,1027).
att(903,420).
att(1001,1018).
att(890,117).
att(912,41).
att(828,1233).
att(809,590).
att(900,355).
att(903,344).
att(819,1134).
att(734,1509).
att(1378,449).
att(791,1095).
att(823,1134).
att(801,1039).
att(896,387).
att(901,306).
att(736,1507).
att(1368,371).
att(826,1193).
att(807,590).
att(826,1183).
att(1378,340).
att(1382,412).
att(890,378).
att(893,432).
att(737,1507).
att(861,420).
att(1009,815).
att(1104,778).
att(1018,824).
att(1096,732).
att(585,922).
att(764,1294).
att(1027,815).
att(1368,1257).
att(857,184).
att(861,135).
att(1009,1142).
att(1378,1349).
att(762,1241).
att(1032,763).
att(601,1027).
att(1094,780).
att(1379,1311).
att(596,843).
att(1374,1257).
att(1018,817).
att(875,130).
att(764,952).
att(791,41).
att(1009,1182).
att(1381,1257).
att(735,1229).
att(1024,1142).
att(780,599).
att(867,121).
att(1379,1347).
att(601,883).
att(1094,733).
att(1379,1349).
att(774,584).
att(606,766).
att(1365,1297).
att(606,774).
att(855,267).
att(606,812).
att(774,987).
att(868,305).
att(1009,802).
att(1381,1422).
att(875,351).
att(1035,751).
att(1368,1315).
att(778,996).
att(870,306).
att(776,977).
att(1373,1422).
att(861,381).
att(1018,765).
att(1028,769).
att(1374,1323).
att(1368,1333).
att(605,1032).
att(762,1188).
att(865,383).
att(598,1035).
att(1382,1422).
att(1382,1399).
att(735,1185).
att(1030,751).
att(1104,752).
att(1035,1225).
att(1018,1228).
att(1365,1386).
att(872,260).
att(1096,812).
att(1035,1291).
att(736,999).
att(732,996).
att(1030,1176).
att(872,221).
att(865,256).
att(762,1058).
att(807,305).
att(1376,1453).
att(1094,867).
att(1018,1225).
att(1339,1304).
att(734,987).
att(737,934).
att(1378,1447).
att(807,356).
att(863,253).
att(1096,823).
att(1341,1154).
att(1018,1280).
att(1365,1416).
att(1374,1392).
att(764,1095).
att(1028,1289).
att(735,1095).
att(1096,833).
att(1368,1422).
att(735,1089).
att(880,808).
att(1100,804).
att(870,262).
att(804,344).
att(812,305).
att(1102,865).
att(762,1108).
att(896,777).
att(1340,1152).
att(1373,1392).
att(896,769).
att(1094,809).
att(1104,788).
att(1379,1449).
att(861,174).
att(1035,1132).
att(857,217).
att(973,815).
att(606,901).
att(791,23).
att(607,890).
att(732,952).
att(798,41).
att(736,1294).
att(1047,739).
att(1049,780).
att(776,639).
att(1030,816).
att(1104,843).
att(861,223).
att(791,305).
att(801,309).
att(734,999).
att(1028,1182).
att(814,23).
att(762,993).
att(788,306).
att(1368,1451).
att(739,952).
att(1092,839).
att(872,169).
att(1100,922).
att(1024,1168).
att(734,1005).
att(868,169).
att(1109,739).
att(812,41).
att(1104,1009).
att(1341,1418).
att(761,1052).
att(768,1193).
att(750,1193).
att(772,1139).
att(854,306).
att(849,345).
att(1104,883).
att(1109,760).
att(752,595).
att(841,130).
att(1104,890).
att(1045,733).
att(1047,750).
att(1341,1327).
att(1100,1027).
att(758,1103).
att(754,584).
att(1047,760).
att(780,1183).
att(758,1090).
att(854,345).
att(1102,1027).
att(855,318).
att(759,999).
att(845,306).
att(854,31).
att(754,1056).
att(1051,791).
att(849,356).
att(1045,755).
att(854,308).
att(1341,1377).
att(919,264).
att(760,999).
att(861,24).
att(1109,925).
att(845,267).
att(854,180).
att(1045,857).
att(1045,865).
att(1055,780).
att(1047,917).
att(1049,910).
att(839,210).
att(863,23).
att(870,319).
att(847,223).
att(851,262).
att(1009,781).
att(854,209).
att(875,25).
att(843,269).
att(1040,867).
att(1047,839).
att(1107,923).
att(776,942).
att(776,930).
att(1042,874).
att(849,223).
att(1059,759).
att(1110,1032).
att(774,1244).
att(759,632).
att(839,184).
att(978,778).
att(1040,905).
att(841,117).
att(861,41).
att(853,169).
att(854,133).
att(851,117).
att(849,186).
att(756,632).
att(1059,16).
att(821,223).
att(752,311).
att(988,30).
att(1045,148).
att(833,120).
att(917,1182).
att(758,33).
att(666,853).
att(994,6).
att(670,865).
att(1059,40).
att(667,804).
att(821,258).
att(910,1228).
att(668,788).
att(923,1169).
att(1107,157).
att(925,1176).
att(668,868).
att(828,209).
att(829,225).
att(759,25).
att(828,225).
att(821,253).
att(666,872).
att(912,1289).
att(981,9).
att(666,868).
att(1057,58).
att(826,424).
att(828,133).
att(915,786).
att(667,925).
att(646,783).
att(819,127).
att(671,905).
att(668,903).
att(642,761).
att(922,792).
att(753,31).
att(1042,294).
att(826,120).
att(641,739).
att(642,770).
att(755,31).
att(829,127).
att(636,762).
att(669,901).
att(1045,251).
att(759,415).
att(640,759).
att(847,808).
att(664,1027).
att(4,746).
att(4,744).
att(1403,1062).
att(910,992).
att(843,825).
att(1057,78).
att(644,831).
att(912,989).
att(1057,113).
att(644,756).
att(666,973).
att(925,974).
att(667,880).
att(753,117).
att(845,1137).
att(855,784).
att(624,768).
att(668,1032).
att(759,130).
att(668,1028).
att(855,808).
att(5,749).
att(644,753).
att(854,799).
att(1394,1207).
att(638,788).
att(1404,1150).
att(915,1228).
att(834,253).
att(835,267).
att(641,855).
att(1004,32).
att(921,1291).
att(828,264).
att(624,812).
att(845,782).
att(754,344).
att(758,306).
att(1057,203).
att(1409,1203).
att(853,794).
att(1405,1062).
att(994,91).
att(1000,6).
att(1410,1190).
att(761,348).
att(853,782).
att(640,810).
att(922,1223).
att(642,863).
att(851,782).
att(642,868).
att(843,792).
att(636,814).
att(833,269).
att(900,830).
att(1403,1218).
att(981,250).
att(1409,1255).
att(819,29).
att(739,639).
att(819,31).
att(788,174).
att(905,818).
att(931,14).
att(624,843).
att(641,903).
att(737,599).
att(810,130).
att(603,762).
att(647,766).
att(981,287).
att(1408,1352).
att(737,595).
att(901,785).
att(1404,1295).
att(788,210).
att(809,121).
att(1059,287).
att(1059,284).
att(997,148).
att(1001,14).
att(1405,1150).
att(807,176).
att(1407,1306).
att(978,154).
att(736,632).
att(901,816).
att(603,761).
att(900,781).
att(1404,1319).
att(791,418).
att(596,778).
att(1006,99).
att(1006,109).
att(598,774).
att(1000,111).
att(788,418).
att(812,346).
att(739,1108).
att(738,1038).
att(1024,927).
att(1379,1066).
att(1408,1420).
att(737,1039).
att(1402,1352).
att(734,1091).
att(893,827).
att(791,125).
att(1397,1247).
att(1006,63).
att(762,639).
att(1000,60).
att(592,766).
att(735,602).
att(641,1018).
att(931,64).
att(1407,1358).
att(594,768).
att(739,1105).
att(585,732).
att(764,629).
att(940,56).
att(893,784).
att(908,763).
att(1368,1060).
att(1014,158).
att(596,834).
att(1376,1064).
att(835,344).
att(915,779).
att(810,262).
att(896,949).
att(921,775).
att(592,798).
att(812,267).
att(912,808).
att(829,388).
att(1380,1144).
att(1408,1470).
att(919,781).
att(601,875).
att(809,252).
att(919,767).
att(915,792).
att(603,829).
att(880,992).
att(1394,1310).
att(925,789).
att(835,378).
att(819,424).
att(1397,1310).
att(1378,1066).
att(903,1280).
att(1407,1422).
att(601,814).
att(900,1278).
att(594,826).
att(890,926).
att(919,808).
att(919,805).
att(931,105).
att(1374,1060).
att(594,833).
att(833,344).
att(1380,1197).
att(1368,1154).
att(1394,1468).
att(943,165).
att(605,849).
att(788,267).
att(937,284).
att(829,309).
att(883,1223).
att(607,734).
att(810,178).
att(940,294).
att(814,253).
att(826,305).
att(1394,1386).
att(828,351).
att(1006,162).
att(1397,1386).
att(834,311).
att(896,1289).
att(834,23).
att(835,312).
att(937,162).
att(1405,1453).
att(833,311).
att(912,769).
att(940,151).
att(1380,482).
att(1365,404).
att(1374,516).
att(801,773).
att(1006,1202).
att(493,1021).
att(470,757).
att(605,78).
att(798,775).
att(791,802).
att(21,746).
att(1006,1165).
att(605,203).
att(739,306).
att(1378,508).
att(937,1165).
att(606,9).
att(870,1230).
att(491,905).
att(477,829).
att(1374,399).
att(603,111).
att(801,789).
att(647,91).
att(1381,399).
att(1394,575).
att(1374,375).
att(946,1120).
att(476,759).
att(798,789).
att(809,781).
att(1381,494).
att(1378,393).
att(735,378).
att(872,1282).
att(601,76).
att(1373,399).
att(737,347).
att(734,379).
att(477,823).
att(477,819).
att(1001,1164).
att(774,176).
att(1096,2).
att(868,1184).
att(766,215).
att(475,865).
att(603,158).
att(772,255).
att(764,351).
att(1100,36).
att(1102,14).
att(867,1236).
att(1100,15).
att(472,874).
att(473,843).
att(770,209).
att(1102,13).
att(776,174).
att(863,1170).
att(1104,32).
att(1378,545).
att(736,24).
att(469,814).
att(768,267).
att(737,24).
att(605,191).
att(1374,466).
att(605,199).
att(857,949).
att(766,267).
att(476,875).
att(762,355).
att(734,352).
att(734,351).
att(774,209).
att(734,305).
att(870,1172).
att(776,210).
att(469,917).
att(1380,610).
att(1365,527).
att(1104,72).
att(807,1169).
att(732,174).
att(762,215).
att(734,171).
att(1339,457).
att(1104,69).
att(738,121).
att(764,267).
att(1106,14).
att(736,178).
att(809,1182).
att(603,284).
att(764,262).
att(737,228).
att(607,71).
att(603,250).
att(736,228).
att(695,762).
att(473,921).
att(739,174).
att(1378,539).
att(695,733).
att(733,217).
att(737,178).
att(733,210).
att(469,845).
att(606,85).
att(732,415).
att(469,1027).
att(463,880).
att(607,80).
att(801,830).
att(1373,680).
att(764,117).
att(607,78).
att(70,742).
att(872,984).
att(469,973).
att(1365,583).
att(872,974).
att(1368,610).
att(475,1030).
att(736,428).
att(1092,99).
att(1339,511).
att(469,1009).
att(798,815).
att(1340,400).
att(737,130).
att(607,109).
att(693,762).
att(463,925).
att(762,178).
att(1374,589).
att(788,1138).
att(798,1143).
att(1100,97).
att(686,768).
att(872,989).
att(1379,705).
att(738,135).
att(868,975).
att(1339,375).
att(1102,113).
att(1379,680).
att(761,215).
att(847,1234).
att(691,823).
att(753,258).
att(760,210).
att(760,209).
att(1341,548).
att(768,350).
att(843,1222).
att(750,352).
att(758,210).
att(851,1169).
att(1094,90).
att(770,388).
att(607,197).
att(760,260).
att(774,355).
att(470,1021).
att(760,225).
att(854,1172).
att(776,305).
att(1339,466).
att(758,264).
att(867,781).
att(1340,480).
att(855,817).
att(847,1143).
att(1104,284).
att(770,29).
att(671,739).
att(699,910).
att(755,210).
att(669,733).
att(699,919).
att(691,861).
att(1096,148).
att(1040,12).
att(772,10).
att(760,418).
att(694,919).
att(694,925).
att(1094,281).
att(855,1137).
att(1340,536).
att(757,176).
att(855,1184).
att(1104,158).
att(761,169).
att(754,210).
att(766,41).
att(755,217).
att(1094,139).
att(754,219).
att(849,1133).
att(758,174).
att(868,822).
att(667,780).
att(1340,684).
att(768,117).
att(847,992).
att(772,171).
att(764,41).
att(855,989).
att(1045,72).
att(691,903).
att(693,883).
att(691,900).
att(1339,705).
att(872,830).
att(1340,579).
att(870,1146).
att(668,732).
att(766,176).
att(1047,64).
att(1107,58).
att(1096,292).
att(772,228).
att(870,815).
att(663,739).
att(861,763).
att(776,388).
att(668,823).
att(671,798).
att(780,377).
att(868,782).
att(691,1021).
att(854,1277).
att(691,1035).
att(691,1018).
att(772,381).
att(760,264).
att(780,346).
att(1040,85).
att(1057,1).
att(867,808).
att(663,760).
att(774,381).
att(768,133).
att(863,825).
att(783,430).
att(691,880).
att(857,816).
att(783,378).
att(664,760).
att(851,938).
att(1040,111).
att(874,789).
att(851,927).
att(872,808).
att(872,792).
att(828,1054).
att(1241,76).
att(261,399).
att(423,1466).
att(268,516).
att(812,468).
att(812,472).
att(826,1055).
att(1428,692).
att(136,1494).
att(810,696).
att(987,812).
att(1237,191).
att(427,1256).
att(835,1001).
att(903,271).
att(831,997).
att(131,1504).
att(1244,201).
att(132,1512).
att(980,828).
att(1506,1210).
att(883,1434).
att(900,216).
att(254,444).
att(819,1092).
att(1510,1064).
att(826,1042).
att(1439,512).
att(1171,111).
att(810,476).
att(131,1440).
att(419,1450).
att(1056,821).
att(990,833).
att(801,502).
att(893,1435).
att(1244,85).
att(1431,703).
att(829,1047).
att(983,791).
att(1507,1306).
att(983,788).
att(1056,847).
att(1501,1160).
att(1508,1145).
att(983,814).
att(1439,536).
att(144,1519).
att(423,1498).
att(1503,1203).
att(807,686).
att(268,542).
att(1177,207).
att(1235,154).
att(270,536).
att(380,1350).
att(263,570).
att(270,521).
att(734,1405).
att(1030,1509).
att(896,170).
att(1192,17).
att(900,126).
att(1028,1510).
att(382,1360).
att(257,545).
att(436,1328).
att(980,868).
att(993,798).
att(905,216).
att(1177,76).
att(1439,548).
att(136,1513).
att(1058,875).
att(899,268).
att(1508,1207).
att(987,801).
att(1509,1203).
att(896,271).
att(380,1252).
att(1235,162).
att(425,1495).
att(736,1404).
att(980,807).
att(1192,38).
att(1237,165).
att(990,870).
att(436,1346).
att(801,697).
att(737,1404).
att(1173,203).
att(431,1413).
att(910,229).
att(254,537).
att(1188,53).
att(1508,1266).
att(903,1508).
att(908,227).
att(220,434).
att(893,1509).
att(893,1508).
att(900,1485).
att(829,634).
att(829,627).
att(1506,1355).
att(910,170).
att(1439,655).
att(753,937).
att(983,863).
att(1188,69).
att(1510,1250).
att(271,336).
att(754,1001).
att(826,667).
att(915,179).
att(268,537).
att(919,218).
att(996,839).
att(1177,157).
att(136,1523).
att(921,218).
att(919,230).
att(922,128).
att(922,118).
att(829,663).
att(263,523).
att(257,523).
att(214,404).
att(821,647).
att(905,1459).
att(915,431).
att(1507,1418).
att(224,397).
att(1507,1393).
att(272,511).
att(915,384).
att(259,692).
att(437,1441).
att(433,1467).
att(896,1483).
att(386,1467).
att(928,759).
att(1508,1396).
att(829,1092).
att(380,1469).
att(939,826).
att(809,503).
att(821,592).
att(977,1030).
att(809,504).
att(939,833).
att(214,393).
att(1193,80).
att(905,1490).
att(819,634).
att(1507,1329).
att(1183,56).
att(1185,55).
att(826,594).
att(1439,705).
att(821,636).
att(433,1384).
att(834,596).
att(1496,1260).
att(928,735).
att(983,922).
att(835,598).
att(268,688).
att(386,1385).
att(1503,1355).
att(1181,99).
att(1509,1323).
att(1181,111).
att(270,692).
att(896,1486).
att(1192,101).
att(883,1510).
att(1507,1317).
att(1009,266).
att(1490,1145).
att(1507,1470).
att(382,1502).
att(1507,1451).
att(801,1004).
att(1009,263).
att(875,664).
att(872,697).
att(1193,158).
att(271,548).
att(271,542).
att(1005,875).
att(386,1511).
att(936,874).
att(1030,170).
att(939,865).
att(433,1480).
att(1028,177).
att(774,1403).
att(801,946).
att(861,691).
att(868,664).
att(214,518).
att(271,481).
att(1192,205).
att(1018,1439).
att(1501,1420).
att(1491,1186).
att(814,991).
att(867,503).
att(999,788).
att(1027,1436).
att(1024,1427).
att(1510,1364).
att(1503,1420).
att(1489,1210).
att(1021,254).
att(872,699).
att(433,1500).
att(861,470).
att(1481,1064).
att(863,475).
att(1479,1082).
att(861,641).
att(1183,294).
att(214,527).
att(431,1520).
att(772,1394).
att(928,845).
att(945,922).
att(1279,736).
att(175,326).
att(218,540).
att(218,536).
att(177,329).
att(768,1382).
att(1028,419).
att(1485,1304).
att(768,1376).
att(768,1368).
att(1479,1156).
att(1481,1148).
att(875,640).
att(1192,292).
att(807,943).
att(1491,1299).
att(272,615).
att(272,617).
att(939,843).
att(1134,148).
att(778,1374).
att(1024,168).
att(774,1373).
att(768,1409).
att(1192,290).
att(776,1374).
att(1032,1483).
att(272,703).
att(798,647).
att(1489,1319).
att(175,397).
att(812,1100).
att(945,973).
att(903,382).
att(1275,766).
att(168,444).
att(936,973).
att(218,575).
att(218,589).
att(939,1032).
att(930,899).
att(905,126).
att(736,1341).
att(1035,1509).
att(764,1409).
att(1490,1344).
att(903,128).
att(812,624).
att(934,839).
att(224,619).
att(1139,284).
att(1281,762).
att(936,912).
att(1139,300).
att(1021,1508).
att(928,912).
att(936,896).
att(734,1365).
att(928,925).
att(939,896).
att(177,446).
att(900,419).
att(1018,1508).
att(1479,1260).
att(1285,821).
att(230,480).
att(934,1027).
att(230,542).
att(181,464).
att(175,478).
att(1489,1367).
att(56,745).
att(1485,1399).
att(1479,1422).
att(1485,1393).
att(905,384).
att(950,834).
att(973,1436).
att(875,504).
att(56,744).
att(942,1030).
att(1465,1066).
att(896,433).
att(1281,821).
att(804,1098).
att(218,684).
att(1485,1323).
att(810,1109).
att(1464,435).
att(766,592).
att(855,1452).
att(1481,649).
att(768,594).
att(1285,66).
att(1465,444).
att(1099,770).
att(595,922).
att(1285,70).
att(1465,438).
att(1488,651).
att(227,1384).
att(1089,735).
att(227,1466).
att(1489,579).
att(173,1395).
att(863,416).
att(584,912).
att(1275,73).
att(229,1421).
att(861,128).
att(930,294).
att(595,843).
att(1464,326).
att(1464,320).
att(230,1421).
att(857,229).
att(1099,739).
att(599,910).
att(224,1514).
att(774,647).
att(1279,17).
att(173,1316).
att(928,290).
att(173,1324).
att(591,917).
att(855,1483).
att(768,624).
att(1454,399).
att(1460,518).
att(1095,757).
att(1103,833).
att(756,476).
att(780,1042).
att(758,493).
att(1099,823).
att(947,89).
att(1099,831).
att(854,261).
att(1464,494).
att(1461,375).
att(761,476).
att(173,1466).
att(780,1055).
att(1273,99).
att(778,978).
att(173,1467).
att(845,1436).
att(181,1429).
att(854,222).
att(1089,757).
att(183,1262).
att(202,745).
att(1487,705).
att(768,1100).
att(1095,783).
att(1461,441).
att(760,504).
att(1097,774).
att(855,1436).
att(604,1035).
att(861,431).
att(1099,758).
att(1279,111).
att(597,1032).
att(780,1049).
att(841,1463).
att(1459,393).
att(772,607).
att(1275,58).
att(1035,1224).
att(168,1500).
att(950,165).
att(973,1171).
att(1028,1244).
att(1103,870).
att(774,696).
att(1287,26).
att(772,500).
att(750,502).
att(1009,952).
att(780,472).
att(1099,839).
att(770,472).
att(1224,3).
att(230,1519).
att(865,254).
att(1462,548).
att(175,1477).
att(1089,810).
att(183,1324).
att(948,294).
att(768,468).
att(1292,30).
att(1290,34).
att(185,1249).
att(189,744).
att(973,1229).
att(185,1265).
att(201,748).
att(1103,812).
att(1028,1292).
att(1461,518).
att(770,504).
att(173,1442).
att(1288,34).
att(183,1350).
att(772,503).
att(778,475).
att(770,493).
att(1027,952).
att(861,1428).
att(733,1045).
att(863,1438).
att(738,1055).
att(868,261).
att(1090,831).
att(1459,482).
att(124,1259).
att(1452,536).
att(875,116).
att(1103,908).
att(1103,917).
att(867,218).
att(780,667).
att(766,671).
att(854,1501).
att(1434,320).
att(770,663).
att(1041,764).
att(1091,917).
att(867,181).
att(1459,655).
att(1273,281).
att(1224,15).
att(1273,251).
att(1231,14).
att(872,182).
att(973,1183).
att(1009,1229).
att(750,472).
att(1292,17).
att(857,254).
att(1035,1241).
att(1227,40).
att(1461,567).
att(1465,539).
att(183,1414).
att(1101,910).
att(774,664).
att(1224,36).
att(1275,154).
att(1024,1244).
att(1231,30).
att(1459,523).
att(175,1520).
att(1103,1027).
att(1292,97).
att(1433,435).
att(1432,375).
att(1043,783).
att(185,1444).
att(1105,1027).
att(1438,393).
att(1287,97).
att(1434,435).
att(923,1427).
att(912,1460).
att(919,1435).
att(759,1109).
att(761,1059).
att(1091,1035).
att(917,1436).
att(1431,400).
att(183,1424).
att(1432,457).
att(1093,901).
att(1452,631).
att(925,1454).
att(1460,579).
att(185,1371).
att(1428,333).
att(1233,73).
att(921,1490).
att(1227,69).
att(1464,577).
att(754,598).
att(760,1109).
att(922,1438).
att(1041,772).
att(1462,610).
att(1224,68).
att(183,1469).
att(915,1461).
att(915,1454).
att(908,266).
att(1241,2).
att(1231,76).
att(835,691).
att(1292,189).
att(754,1055).
att(826,697).
att(819,470).
att(1233,76).
att(1287,197).
att(1288,139).
att(128,1498).
att(833,661).
att(1237,42).
att(912,261).
att(1048,867).
att(759,937).
att(132,1346).
att(1288,151).
att(908,254).
att(828,699).
att(132,1351).
att(1224,76).
att(116,1442).
att(421,1262).
att(1089,973).
att(1428,395).
att(118,1444).
att(1428,402).
att(845,384).
att(834,475).
att(829,493).
att(761,981).
att(1438,518).
att(1438,482).
att(1287,203).
att(919,270).
att(1048,798).
att(819,493).
att(754,1049).
att(1431,496).
att(1458,678).
att(758,1057).
att(1224,105).
att(1427,551).
att(1241,17).
att(116,1478).
att(136,1321).
att(855,230).
att(1043,868).
att(1044,867).
att(1287,290).
att(851,230).
att(131,1415).
att(754,691).
att(750,1004).
att(851,168).
att(1048,919).
att(419,1322).
att(847,168).
att(1048,921).
att(1244,68).
att(1244,72).
att(772,1006).
att(1041,875).
att(1428,480).
att(124,1482).
att(118,1498).
att(91,745).
att(1235,26).
att(421,1342).
att(1239,32).
att(1229,157).
att(757,696).
att(754,473).
att(1427,621).
att(144,1471).
att(254,320).
att(259,448).
att(1439,406).
att(254,336).
att(753,644).
att(1241,62).
att(759,640).
att(853,126).
att(263,329).
att(917,1486).
att(922,1459).
att(1044,900).
att(257,441).
att(754,641).
att(1173,58).
att(1439,441).
att(421,1400).
att(756,644).
att(1041,922).
att(1231,284).
att(268,326).
att(136,1414).
att(1043,853).
att(1428,536).
att(1235,69).
att(761,642).
att(759,665).
att(854,118).
att(761,646).
att(855,187).
att(425,1316).
att(80,745).
att(754,668).
att(987,774).
att(419,1413).
att(980,764).
att(990,778).
att(990,776).
att(915,1507).
att(266,446).
att(757,646).
att(1239,69).
att(915,1508).
att(980,737).
att(116,1516).
att(915,1503).
att(1239,66).
att(983,2).
att(1041,162).
att(910,1245).
att(1245,1017).
att(1058,20).
att(835,177).
att(1428,1498).
att(1433,1513).
att(883,581).
att(263,1351).
att(297,741).
att(980,28).
att(980,42).
att(1056,16).
att(900,1039).
att(993,30).
att(993,6).
att(1435,1478).
att(905,595).
att(1241,920).
att(896,626).
att(896,623).
att(1043,90).
att(270,1265).
att(1046,158).
att(883,633).
att(922,1179).
att(883,637).
att(1041,197).
att(1436,1493).
att(1507,457).
att(890,1058).
att(259,1417).
att(798,1487).
att(1188,797).
att(903,985).
att(1428,1520).
att(633,762).
att(977,14).
att(1235,1125).
att(1237,1112).
att(987,63).
att(1192,793).
att(1056,55).
att(810,1463).
att(1244,1120).
att(821,230).
att(1431,1520).
att(910,1183).
att(645,739).
att(1043,165).
att(287,748).
att(290,741).
att(1432,1522).
att(290,745).
att(1437,1514).
att(270,1415).
att(261,1312).
att(1433,1519).
att(1237,966).
att(635,732).
att(834,416).
att(1433,1522).
att(912,1185).
att(1499,400).
att(835,1452).
att(1507,512).
att(1239,1068).
att(826,1460).
att(629,780).
att(1439,1426).
att(1501,400).
att(268,1471).
att(1179,862).
att(1134,806).
att(1241,1079).
att(1241,1036).
att(632,757).
att(623,752).
att(990,76).
att(1181,846).
att(1237,1212).
att(757,384).
att(915,934).
att(754,419).
att(1183,862).
att(1193,837).
att(266,1441).
att(1501,444).
att(1507,406).
att(637,778).
att(921,1048).
att(759,116).
att(829,1496).
att(923,977).
att(623,764).
att(908,1108).
att(921,1044).
att(1181,866).
att(632,783).
att(977,53).
att(919,996).
att(834,1459).
att(754,124).
att(828,1490).
att(826,266).
att(1501,481).
att(643,872).
att(266,1478).
att(1510,570).
att(272,1350).
att(826,261).
att(268,1512).
att(639,788).
att(1496,516).
att(272,1346).
att(1058,162).
att(908,947).
att(1510,548).
att(900,584).
att(218,1265).
att(220,1343).
att(632,810).
att(1505,486).
att(977,207).
att(990,154).
att(1505,464).
att(626,804).
att(900,593).
att(829,266).
att(835,1428).
att(645,788).
att(259,1426).
att(1185,840).
att(1496,399).
att(1501,518).
att(259,1424).
att(759,384).
att(835,1436).
att(993,91).
att(261,1473).
att(272,1262).
att(261,1466).
att(983,105).
att(1510,482).
att(987,78).
att(261,1467).
att(632,759).
att(987,80).
att(987,201).
att(987,197).
att(1181,907).
att(939,2).
att(1509,482).
att(990,189).
att(917,952).
att(987,202).
att(635,798).
att(1136,846).
att(990,197).
att(1183,836).
att(755,436).
att(1056,191).
att(1506,466).
att(257,1424).
att(214,1326).
att(1183,1034).
att(635,922).
att(637,843).
att(643,922).
att(226,1320).
att(268,1517).
att(272,1419).
att(999,68).
att(1027,1105).
att(259,1522).
att(1134,882).
att(880,1183).
att(936,17).
att(632,841).
att(735,646).
att(623,845).
att(226,1395).
att(1136,1023).
att(635,908).
att(1018,1043).
att(1487,326).
att(214,1321).
att(942,14).
att(1499,537).
att(214,1357).
att(973,1108).
att(626,874).
att(643,843).
att(1035,1093).
att(735,696).
att(1496,486).
att(807,212).
att(1503,488).
att(1139,924).
att(268,1519).
att(810,116).
att(226,1324).
att(734,663).
att(928,36).
att(220,1320).
att(928,38).
att(939,17).
att(220,1316).
att(899,1185).
att(737,646).
att(987,292).
att(212,1354).
att(626,865).
att(893,1134).
att(263,1480).
att(868,1503).
att(635,1032).
att(736,1049).
att(222,1444).
att(942,62).
att(1009,983).
att(1491,391).
att(1496,655).
att(224,1385).
att(271,1444).
att(645,1027).
att(224,1363).
att(762,596).
att(1508,692).
att(220,1473).
att(593,752).
att(220,1467).
att(584,766).
att(870,1432).
att(1193,1120).
att(1481,336).
att(945,65).
att(1185,956).
att(629,845).
att(737,1102).
att(1183,967).
att(1027,1108).
att(865,1496).
att(599,780).
att(867,1508).
att(1185,967).
att(814,416).
att(875,1463).
att(1179,962).
att(160,744).
att(581,739).
att(633,899).
att(160,749).
att(1485,323).
att(814,427).
att(1181,1116).
att(1181,1129).
att(861,1485).
att(1018,985).
att(1487,435).
att(214,1414).
att(812,437).
att(1030,999).
att(821,427).
att(222,1498).
att(1487,488).
att(214,1425).
att(1487,464).
att(604,791).
att(809,270).
att(595,833).
att(224,1442).
att(821,436).
att(591,788).
att(734,500).
att(1136,1199).
att(1485,496).
att(950,6).
att(973,629).
att(893,1285).
att(623,973).
att(1003,85).
att(890,999).
att(890,1005).
att(595,752).
att(1487,494).
att(214,1450).
att(807,1490).
att(819,131).
att(812,1454).
att(945,109).
att(272,1440).
att(1489,397).
att(639,1027).
att(901,1283).
att(928,101).
att(812,1438).
att(1489,514).
att(226,1430).
att(584,755).
att(828,386).
att(828,384).
att(220,1430).
att(212,1480).
att(809,229).
att(1005,284).
att(1032,602).
att(1279,28).
att(1285,42).
att(230,1328).
att(762,476).
att(173,1343).
att(597,849).
att(181,1314).
att(1024,602).
att(903,1134).
att(936,297).
att(791,263).
att(883,1231).
att(928,162).
att(1009,629).
att(212,1492).
att(901,1183).
att(952,14).
att(812,227).
att(762,498).
att(930,202).
att(900,1244).
att(222,1482).
att(1005,162).
att(230,1354).
att(271,1482).
att(734,476).
att(903,1245).
att(175,1342).
att(896,1229).
att(1485,481).
att(1279,42).
att(590,809).
att(581,788).
att(936,162).
att(581,798).
att(218,1504).
att(950,26).
att(177,1351).
att(1479,486).
att(939,1167).
att(950,850).
att(1003,1202).
att(766,1434).
att(593,90).
att(930,1081).
att(861,1275).
att(1003,1212).
att(1021,41).
att(1481,1467).
att(1003,1165).
att(1487,1430).
att(861,952).
att(872,1290).
att(772,1435).
att(1485,1466).
att(590,107).
att(1281,846).
att(1485,1450).
att(1021,10).
att(1481,1389).
att(602,113).
att(733,436).
att(766,1464).
att(999,1074).
att(778,1438).
att(772,1463).
att(1027,319).
att(1273,813).
att(948,846).
att(950,859).
att(776,1432).
att(1489,1456).
att(584,201).
att(1460,1360).
att(584,197).
att(1285,906).
att(1097,1).
att(849,1097).
att(947,1017).
att(1091,36).
att(849,1090).
att(780,229).
att(772,214).
att(843,595).
att(854,1108).
att(948,1026).
att(1273,916).
att(1089,7).
att(950,887).
att(1090,1).
att(1485,1502).
att(593,151).
att(783,216).
att(1103,6).
att(584,91).
att(853,629).
att(868,1171).
att(1481,1440).
att(584,90).
att(1283,846).
att(867,1273).
att(853,633).
att(875,1171).
att(841,632).
att(772,270).
att(1093,3).
att(1101,34).
att(1489,1497).
att(845,645).
att(948,902).
att(1485,1425).
att(928,1206).
att(581,91).
att(584,78).
att(791,1241).
att(973,346).
att(1095,14).
att(1460,1421).
att(737,182).
att(1018,379).
att(1027,418).
att(1465,1411).
att(973,390).
att(1091,14).
att(1465,1387).
att(1030,347).
att(1294,787).
att(1275,1026).
att(1105,14).
att(1009,125).
att(857,626).
att(950,1029).
att(1009,117).
att(1018,420).
att(1103,19).
att(737,229).
att(1018,422).
att(1024,119).
att(1099,14).
att(947,1026).
att(947,1023).
att(947,972).
att(814,1188).
att(1091,15).
att(1462,1314).
att(1018,415).
att(1021,420).
att(810,1139).
att(734,214).
att(1103,18).
att(1452,1371).
att(774,1464).
att(737,431).
att(1103,113).
att(1233,803).
att(1283,1129).
att(1288,856).
att(947,1215).
att(1099,87).
att(1227,871).
att(762,132).
att(1224,787).
att(1229,860).
att(948,1199).
att(1463,1442).
att(734,136).
att(948,1215).
att(1294,838).
att(870,942).
att(1024,349).
att(1292,787).
att(1275,972).
att(973,305).
att(1461,1413).
att(875,1058).
att(791,1188).
att(764,229).
att(875,996).
att(870,977).
att(1465,1467).
att(770,1508).
att(865,1050).
att(1099,97).
att(1030,307).
att(735,116).
att(1093,55).
att(734,118).
att(950,1112).
att(908,645).
att(1452,1424).
att(1231,848).
att(1452,1430).
att(1103,199).
att(855,1244).
att(1052,9).
att(853,1231).
att(1233,848).
att(1461,1426).
att(917,591).
att(854,1179).
att(849,1173).
att(1432,1243).
att(1101,165).
att(757,216).
att(1101,158).
att(1093,90).
att(1231,871).
att(847,1233).
att(759,1437).
att(1233,871).
att(1227,859).
att(752,1438).
att(917,639).
att(1465,1512).
att(1099,207).
att(1229,838).
att(753,1431).
att(754,1436).
att(1273,1081).
att(1290,836).
att(1463,1497).
att(849,1233).
att(758,265).
att(908,1099).
att(1231,898).
att(1093,294).
att(756,116).
att(908,1097).
att(1095,157).
att(1452,1478).
att(1454,1474).
att(835,1507).
att(912,1105).
att(1434,1322).
att(923,987).
att(1288,962).
att(1294,962).
att(1229,1034).
att(1090,199).
att(1101,250).
att(847,1183).
att(1433,1243).
att(908,591).
att(1103,148).
att(761,229).
att(1046,32).
att(761,175).
att(1046,40).
att(1227,913).
att(923,1095).
att(1287,879).
att(1097,199).
att(1227,898).
att(754,216).
att(841,1171).
att(910,599).
att(1224,918).
att(1089,195).
att(1231,913).
att(756,1491).
att(761,1479).
att(847,1056).
att(847,996).
att(845,1095).
att(855,987).
att(839,1108).
att(1046,53).
att(1233,972).
att(1437,1363).
att(772,124).
att(783,429).
att(1237,873).
att(1224,966).
att(1050,55).
att(863,1188).
att(847,1052).
att(1043,15).
att(1452,1520).
att(1231,1031).
att(1095,294).
att(1227,1011).
att(1227,972).
att(1288,1120).
att(1237,813).
att(780,128).
att(1048,60).
att(1244,800).
att(1288,1127).
att(1431,1421).
att(1245,787).
att(841,1095).
att(865,1134).
att(1041,71).
att(1224,1020).
att(847,948).
att(752,1459).
att(1177,859).
att(756,1431).
att(1290,1167).
att(1432,1423).
att(1231,1068).
att(854,1292).
att(758,1433).
att(1237,916).
att(847,1275).
att(1173,846).
att(849,1281).
att(758,1436).
att(849,1283).
att(849,1275).
att(774,382).
att(774,384).
att(753,1491).
att(1235,859).
att(760,1454).
att(774,437).
att(1052,111).
att(1433,1383).
att(774,429).
att(755,1496).
att(1433,1456).
att(1434,1471).
att(854,947).
att(1287,1206).
att(1048,83).
att(778,427).
att(757,1459).
att(1041,109).
att(1239,864).
att(772,136).
att(1427,1389).
att(384,1145).
att(1027,1409).
att(1507,1211).
att(224,149).
att(431,1306).
att(226,146).
att(212,145).
att(380,1293).
att(1505,1086).
att(222,285).
att(259,405).
att(416,1392).
att(1035,1403).
att(1501,1124).
att(386,1200).
att(270,405).
att(270,407).
att(270,490).
att(429,1301).
att(265,515).
att(380,1158).
att(271,140).
att(272,354).
att(1507,1268).
att(386,1352).
att(261,543).
att(386,1331).
att(382,1218).
att(431,1266).
att(1509,1201).
att(268,460).
att(261,465).
att(222,234).
att(270,546).
att(265,543).
att(271,234).
att(271,241).
att(1507,1359).
att(1483,877).
att(226,314).
att(1488,1022).
att(218,363).
att(272,373).
att(218,334).
att(214,327).
att(1501,1309).
att(224,357).
att(272,330).
att(220,314).
att(1481,884).
att(212,365).
att(214,405).
att(229,152).
att(431,1468).
att(224,376).
att(272,519).
att(1488,1124).
att(1491,1086).
att(175,155).
att(1028,1403).
att(1489,1070).
att(386,1451).
att(1489,1080).
att(220,517).
att(380,1451).
att(973,1405).
att(222,515).
att(1483,1010).
att(1508,1356).
att(384,1393).
att(1479,965).
att(1481,1211).
att(230,241).
att(224,467).
att(224,483).
att(226,487).
att(1483,1086).
att(1489,1151).
att(175,237).
att(1485,1195).
att(212,479).
att(1485,1166).
att(222,465).
att(230,277).
att(230,278).
att(230,285).
att(216,396).
att(1483,1113).
att(230,298).
att(1490,1205).
att(218,519).
att(212,509).
att(218,490).
att(170,140).
att(1462,894).
att(1491,1356).
att(1491,1334).
att(173,371).
att(168,363).
att(168,359).
att(1460,1016).
att(214,543).
att(230,363).
att(1462,888).
att(1485,1149).
att(1479,1155).
att(218,546).
att(212,568).
att(170,241).
att(1487,1296).
att(1479,1161).
att(1465,1115).
att(1483,1248).
att(1460,1114).
att(1488,1267).
att(227,401).
att(1485,1219).
att(1489,1338).
att(1464,1201).
att(128,140).
att(1458,1114).
att(1462,1198).
att(118,142).
att(175,467).
att(183,246).
att(183,244).
att(1454,1061).
att(185,273).
att(230,509).
att(1464,1078).
att(1462,1113).
att(1465,1086).
att(227,489).
att(122,137).
att(1463,1214).
att(124,145).
att(183,282).
att(175,497).
att(187,1189).
att(1461,324).
att(179,1399).
att(122,1197).
att(227,1470).
att(185,1069).
att(1464,331).
att(1462,353).
att(1465,340).
att(181,1393).
att(168,1327).
att(177,1420).
att(177,1416).
att(925,1381).
att(1438,142).
att(908,1409).
att(116,1145).
att(182,1260).
att(118,1154).
att(170,1388).
att(923,1402).
att(183,1293).
att(1465,490).
att(845,1405).
att(1452,462).
att(185,1336).
att(1438,241).
att(1461,556).
att(183,1317).
att(851,1340).
att(847,1340).
att(1432,295).
att(1452,490).
att(1465,487).
att(122,1250).
att(1431,285).
att(1458,519).
att(116,1295).
att(1428,145).
att(1437,314).
att(1428,367).
att(131,1062).
att(132,1190).
att(116,1319).
att(132,1197).
att(421,1072).
att(183,1386).
att(124,1416).
att(1452,552).
att(1433,234).
att(1452,556).
att(843,1341).
att(183,1416).
att(1458,549).
att(1428,439).
att(187,1468).
att(1439,142).
att(118,1418).
att(185,1388).
att(187,1388).
att(187,1370).
att(126,1393).
att(1433,410).
att(1438,374).
att(1435,405).
att(1432,445).
att(144,1152).
att(183,1445).
att(880,1381).
att(1428,515).
att(261,163).
att(896,1368).
att(131,1344).
att(1427,509).
att(254,142).
att(1439,231).
att(1439,282).
att(118,1470).
att(1428,396).
att(1439,295).
att(136,1295).
att(425,1150).
att(265,140).
att(132,1255).
att(419,1304).
att(1428,565).
att(912,1368).
att(136,1329).
att(1509,878).
att(1433,563).
att(263,359).
att(270,334).
att(263,365).
att(1501,877).
att(1427,568).
att(912,1405).
att(136,1310).
att(912,1381).
att(259,231).
att(908,1378).
att(1507,881).
att(416,1253).
att(1501,965).
att(421,1367).
att(259,410).
att(1501,971).
att(254,331).
att(423,1418).
att(1508,969).
att(263,458).
att(1505,969).
att(257,445).
att(257,412).
att(257,410).
att(1439,445).
att(1496,878).
att(261,371).
att(1499,1010).
att(436,1190).
att(419,1399).
att(132,1364).
att(259,324).
att(1185,780).
att(254,1260).
att(1439,1323).
att(268,1352).
att(903,1092).
att(1510,365).
att(1235,893).
att(896,1100).
att(382,435).
att(1237,1035).
att(1239,883).
att(421,609).
att(883,596).
att(1244,901).
att(437,446).
att(1175,849).
att(144,577).
att(254,1308).
att(1188,778).
att(136,653).
att(261,1304).
att(1193,750).
att(1237,905).
att(1499,285).
att(431,313).
att(436,484).
att(880,1049).
att(259,1422).
att(437,481).
att(259,1399).
att(1510,439).
att(1177,1009).
att(1188,814).
att(226,1075).
att(268,1396).
att(261,1327).
att(261,1315).
att(1179,833).
att(899,1045).
att(1181,804).
att(218,1069).
att(386,514).
att(1028,686).
att(896,997).
att(900,946).
att(214,1062).
att(883,1045).
att(224,1065).
att(436,496).
att(1241,1009).
att(1035,499).
att(1179,752).
att(1175,900).
att(1188,834).
att(1181,754).
att(1171,1027).
att(427,506).
att(1181,828).
att(380,406).
att(899,1110).
att(257,1329).
att(883,1104).
att(893,1109).
att(900,994).
att(266,1420).
att(1173,1032).
att(903,691).
att(1487,163).
att(1490,142).
att(272,1293).
att(905,696).
att(1185,874).
att(226,1150).
att(903,696).
att(1139,810).
att(893,689).
att(1486,142).
att(220,1295).
att(257,1470).
att(809,1410).
att(917,1004).
att(880,463).
att(1192,849).
att(214,1148).
att(1183,874).
att(254,1422).
att(1439,1451).
att(910,1049).
att(433,486).
att(903,474).
att(893,475).
att(1181,861).
att(1503,412).
att(380,486).
att(382,484).
att(214,1266).
att(788,1409).
att(880,667).
att(900,647).
att(1501,485).
att(1139,841).
att(1179,910).
att(812,1368).
att(1503,485).
att(218,1218).
att(386,628).
att(380,649).
att(427,573).
att(883,671).
att(890,640).
att(212,1263).
att(890,627).
att(900,594).
att(1136,925).
att(1192,896).
att(905,665).
att(798,1409).
att(226,1299).
att(1179,843).
att(812,1407).
att(1489,152).
att(1509,485).
att(903,641).
att(1503,490).
att(1479,137).
att(1506,485).
att(1481,145).
att(222,1260).
att(380,685).
att(1487,331).
att(224,1319).
att(214,1310).
att(1496,563).
att(1139,890).
att(1488,365).
att(1489,337).
att(1134,1032).
att(222,1420).
att(382,703).
att(1024,1107).
att(222,1315).
att(1185,880).
att(384,655).
att(1501,543).
att(436,685).
att(1491,363).
att(224,1331).
att(1179,880).
att(433,688).
att(1030,1045).
att(212,1344).
att(1018,1092).
att(1018,1096).
att(214,1386).
att(854,1402).
att(855,1409).
att(1490,396).
att(1009,978).
att(272,1472).
att(173,1060).
att(224,1367).
att(272,1451).
att(226,1449).
att(847,1402).
att(1485,445).
att(1489,376).
att(177,1148).
att(220,1449).
att(1479,445).
att(1488,324).
att(181,1207).
att(1028,931).
att(1035,661).
att(1030,664).
att(227,1358).
att(177,1255).
att(1018,668).
att(229,1306).
att(875,1404).
att(1035,686).
att(1459,140).
att(868,1408).
att(1460,140).
att(212,1468).
att(1035,598).
att(1479,549).
att(1461,231).
att(1481,565).
att(1465,357).
att(1030,1098).
att(175,1325).
att(177,1327).
att(973,600).
att(1464,235).
att(230,1361).
att(181,1266).
att(1452,277).
att(168,1220).
att(1460,1270).
att(170,542).
att(1464,1308).
att(229,536).
att(1285,867).
att(230,536).
att(845,696).
att(230,537).
att(759,1404).
att(1465,1308).
att(760,1341).
att(950,839).
att(950,875).
att(1464,1152).
att(847,671).
att(855,661).
att(1285,807).
att(854,671).
att(1465,1152).
att(853,699).
att(1465,1154).
att(1279,807).
att(1459,1154).
att(1279,868).
att(1233,762).
att(1292,768).
att(950,890).
att(229,579).
att(1287,768).
att(1227,762).
att(1461,1266).
att(128,336).
att(752,1341).
att(227,705).
att(1463,1319).
att(230,685).
att(182,400).
att(116,323).
att(1273,917).
att(1290,750).
att(227,688).
att(849,1104).
att(175,587).
att(950,880).
att(187,313).
att(1461,1301).
att(758,1376).
att(854,594).
att(1465,1255).
att(755,1402).
att(758,1341).
att(1273,839).
att(1458,1306).
att(1462,1218).
att(183,451).
att(1458,1270).
att(177,653).
att(849,605).
att(1460,1255).
att(1275,847).
att(1452,1323).
att(1246,1320).
att(868,1053).
att(1464,1422).
att(1252,1316).
att(1461,1329).
att(1465,1412).
att(1287,826).
att(1242,1312).
att(1462,1412).
att(1227,833).
att(872,1053).
att(116,391).
att(872,1042).
att(1435,1207).
att(1458,1327).
att(1462,1396).
att(1246,1415).
att(1462,1406).
att(168,684).
att(1452,1317).
att(118,393).
att(1452,1336).
att(1242,1242).
att(772,1365).
att(1285,905).
att(872,1094).
att(168,577).
att(1259,1351).
att(857,1045).
att(855,696).
att(868,940).
att(863,991).
att(1227,791).
att(1433,1213).
att(867,1045).
att(1259,1360).
att(854,689).
att(875,937).
att(865,997).
att(872,1004).
att(1435,1297).
att(128,542).
att(1458,1392).
att(122,562).
att(1294,843).
att(183,536).
att(1290,867).
att(1265,1346).
att(124,570).
att(1462,1453).
att(1254,1254).
att(1428,1189).
att(853,504).
att(1454,1422).
att(1292,812).
att(867,1094).
att(1233,834).
att(1461,1422).
att(1433,1066).
att(874,1042).
att(1259,1259).
att(841,498).
att(1288,867).
att(867,1109).
att(1288,872).
att(867,1049).
att(865,1110).
att(1452,1422).
att(124,488).
att(1265,1265).
att(1241,739).
att(819,1374).
att(1290,922).
att(1292,910).
att(1233,843).
att(126,523).
att(1227,843).
att(122,655).
att(421,317).
att(1227,922).
att(1239,762).
att(144,435).
att(421,326).
att(1241,764).
att(1245,780).
att(1294,922).
att(1452,1468).
att(831,1402).
att(826,1381).
att(1437,1295).
att(1233,863).
att(1438,1306).
att(1461,1468).
att(1435,1266).
att(1229,845).
att(1435,1260).
att(1288,925).
att(826,1376).
att(833,1341).
att(910,667).
att(1231,883).
att(925,1042).
att(1224,900).
att(136,391).
att(1231,901).
att(1171,780).
att(1235,761).
att(1227,1027).
att(900,468).
att(1227,1009).
att(132,518).
att(1435,1396).
att(890,498).
att(1239,761).
att(912,1100).
att(1439,1060).
att(118,655).
att(1171,764).
att(821,1340).
att(1177,739).
att(908,647).
att(1434,1344).
att(1227,890).
att(919,1094).
att(915,1092).
att(1239,780).
att(922,1049).
att(921,501).
att(925,472).
att(1428,1393).
att(915,463).
att(908,493).
att(416,506).
att(1239,798).
att(1224,1035).
att(144,464).
att(1437,1420).
att(1437,1393).
att(1173,823).
att(915,491).
att(1434,1422).
att(419,496).
att(254,1154).
att(1239,851).
att(1245,910).
att(1428,1470).
att(1510,295).
att(263,1144).
att(136,525).
att(136,527).
att(423,542).
att(1235,851).
att(136,615).
att(1181,736).
att(131,621).
att(1237,917).
att(828,1408).
att(1239,841).
att(1244,917).
att(259,1301).
att(915,664).
att(1501,140).
att(1510,142).
att(268,1152).
att(423,481).
att(1428,1388).
att(1428,1370).
att(855,1001).
att(1241,870).
att(136,564).
att(919,463).
att(136,521).
att(1509,163).
att(1237,853).
att(912,468).
att(1318,1246).
att(436,1219).
att(1489,859).
att(1488,860).
att(226,141).
att(1318,1249).
att(1486,859).
att(1321,1249).
att(212,143).
att(1321,1246).
att(1326,1357).
att(1479,864).
att(222,289).
att(1343,1477).
att(436,1248).
att(271,150).
att(271,159).
att(1501,1127).
att(1501,1129).
att(431,1130).
att(1489,803).
att(1510,1079).
att(433,1157).
att(1510,1036).
att(1354,1512).
att(1342,1423).
att(222,143).
att(1326,1246).
att(1326,1249).
att(222,141).
att(1481,918).
att(222,343).
att(271,343).
att(1491,885).
att(1496,1199).
att(1491,879).
att(1496,1215).
att(1357,1425).
att(1357,1426).
att(380,1362).
att(1357,1442).
att(380,1353).
att(1312,1242).
att(431,1261).
att(436,1332).
att(272,236).
att(1491,914).
att(272,245).
att(1503,1074).
att(1348,1369).
att(1354,1471).
att(380,1251).
att(1505,1199).
att(427,1338).
att(429,1356).
att(214,341).
att(230,77).
att(230,86).
att(1483,882).
att(1488,1020).
att(227,77).
att(1491,960).
att(1324,1469).
att(168,94).
att(175,82).
att(218,335).
att(1312,1441).
att(1312,1425).
att(222,459).
att(1322,1430).
att(1324,1363).
att(230,104).
att(384,1356).
att(1326,1363).
att(218,372).
att(1326,1389).
att(1461,790).
att(1318,1326).
att(1316,1316).
att(1318,1318).
att(1462,811).
att(1321,1318).
att(1342,1516).
att(1489,1068).
att(1459,862).
att(1320,1320).
att(1322,1322).
att(1324,1324).
att(1326,1321).
att(1321,1357).
att(1326,1326).
att(168,86).
att(170,77).
att(177,206).
att(1464,793).
att(1328,1328).
att(1481,1202).
att(1262,1512).
att(227,238).
att(1351,1243).
att(1462,916).
att(1357,1246).
att(1452,844).
att(1265,1504).
att(1249,1502).
att(1454,844).
att(1335,1335).
att(230,299).
att(1246,1429).
att(1459,840).
att(175,293).
att(1485,1084).
att(1246,1442).
att(177,289).
att(1485,1081).
att(1246,1441).
att(177,296).
att(229,276).
att(1460,1031).
att(1454,902).
att(187,98).
att(1465,1023).
att(124,106).
att(1246,1450).
att(1460,1017).
att(1249,1417).
att(1461,911).
att(1254,1421).
att(124,52).
att(185,50).
att(187,47).
att(1242,1417).
att(185,196).
att(1461,956).
att(128,77).
att(179,450).
att(1461,967).
att(1342,1400).
att(173,456).
att(1463,1074).
att(1350,1419).
att(1452,956).
att(1452,962).
att(1460,967).
att(1343,1320).
att(128,100).
att(229,409).
att(187,84).
att(1354,1421).
att(116,102).
att(1357,1414).
att(116,96).
att(1350,1326).
att(1357,1419).
att(1459,962).
att(168,335).
att(168,304).
att(1360,1421).
att(1262,1518).
att(1454,1087).
att(1262,1516).
att(1462,1199).
att(122,286).
att(1357,1321).
att(122,280).
att(1357,1318).
att(183,236).
att(1246,1523).
att(183,245).
att(124,296).
att(1452,1087).
att(1360,1320).
att(1428,866).
att(1350,1350).
att(1428,862).
att(1428,813).
att(1460,1087).
att(1249,1512).
att(1265,1478).
att(1354,1354).
att(183,276).
att(1427,806).
att(1265,1476).
att(1357,1357).
att(183,283).
att(1452,1118).
att(1360,1360).
att(1249,320).
att(1414,1515).
att(187,1201).
att(1366,1385).
att(1366,1366).
att(182,1201).
att(1385,1366).
att(1419,1518).
att(1428,59).
att(1460,338).
att(1452,366).
att(1259,329).
att(1389,1322).
att(1461,360).
att(1389,1312).
att(1461,366).
att(1431,102).
att(1371,1398).
att(1369,1417).
att(1431,96).
att(1428,47).
att(1428,46).
att(1371,1415).
att(1414,1494).
att(1438,150).
att(1435,299).
att(1400,1522).
att(421,888).
att(1427,198).
att(1411,1477).
att(1391,1360).
att(1452,450).
att(1395,1480).
att(1387,1249).
att(126,1205).
att(1414,1441).
att(1400,1480).
att(1389,1249).
att(124,1149).
att(1391,1254).
att(1458,413).
att(1452,459).
att(1369,1348).
att(1415,1478).
att(1432,194).
att(185,1362).
att(1387,1495).
att(1262,562).
att(185,1330).
att(1446,1351).
att(1433,291).
att(1371,1476).
att(1434,238).
att(1391,1511).
att(1383,1513).
att(1450,1360).
att(1246,548).
att(1436,370).
att(1384,1473).
att(1384,1467).
att(1383,1466).
att(1262,464).
att(1446,1259).
att(425,897).
att(1366,1511).
att(1369,1500).
att(131,1022).
att(419,1033).
att(132,959).
att(1450,1249).
att(1387,1450).
att(268,100).
att(423,1114).
att(1256,506).
att(1243,457).
att(1428,343).
att(1389,1450).
att(1433,343).
att(419,1076).
att(1242,375).
att(1391,1450).
att(1435,443).
att(1438,409).
att(1242,399).
att(416,1111).
att(1435,408).
att(421,1080).
att(144,1078).
att(1366,1473).
att(265,46).
att(1433,249).
att(131,1117).
att(1387,1387).
att(1387,1389).
att(1433,243).
att(1434,358).
att(257,44).
att(1438,304).
att(419,1128).
att(1389,1389).
att(1246,404).
att(116,1345).
att(1391,1384).
att(1242,457).
att(1436,332).
att(268,44).
att(1320,1474).
att(1414,1357).
att(1419,1314).
att(1433,440).
att(1395,1395).
att(1413,1348).
att(263,206).
att(1398,1398).
att(1501,787).
att(437,884).
att(1400,1400).
att(261,100).
att(261,96).
att(263,94).
att(1428,302).
att(1395,1316).
att(1414,1249).
att(425,1067).
att(1433,338).
att(1433,408).
att(1414,1242).
att(419,1195).
att(419,1166).
att(1431,456).
att(421,1221).
att(433,1012).
att(1501,846).
att(1510,920).
att(1318,1442).
att(1496,862).
att(261,141).
att(1318,1440).
att(268,299).
att(270,289).
att(261,159).
att(1326,1502).
att(427,959).
att(1321,1440).
att(1506,918).
att(1318,1494).
att(1400,1360).
att(266,247).
att(416,1298).
att(1439,232).
att(1508,859).
att(136,1300).
att(1326,1425).
att(265,141).
att(265,143).
att(266,289).
att(382,888).
att(421,1296).
att(259,150).
att(254,238).
att(416,1338).
att(1508,904).
att(386,965).
att(427,1111).
att(433,1124).
att(222,96).
att(222,106).
att(1415,1504).
att(1496,844).
att(272,48).
att(261,274).
att(1413,1369).
att(268,243).
att(433,971).
att(261,296).
att(222,46).
att(257,232).
att(265,343).
att(436,1113).
att(382,965).
att(1400,1443).
att(259,459).
att(382,1166).
att(1417,1369).
att(1496,1023).
att(1501,970).
att(1496,1026).
att(1411,1411).
att(224,82).
att(218,95).
att(380,1208).
att(257,459).
att(1506,1123).
att(257,409).
att(1501,1026).
att(1496,882).
att(1413,1314).
att(1415,1415).
att(226,102).
att(386,1113).
att(1414,1318).
att(1414,1326).
att(1417,1413).
att(1509,1008).
att(1417,1417).
att(270,341).
att(270,413).
att(1505,1026).
att(1414,1321).
att(1499,1026).
att(212,104).
att(214,106).
att(1499,1031).
att(382,412).
att(254,1248).
att(259,1353).
att(271,1124).
att(1440,1473).
att(1441,1444).
att(1423,1423).
att(1440,1467).
att(1510,370).
att(272,1128).
att(433,410).
att(261,1334).
att(1314,464).
att(263,1359).
att(1328,496).
att(1321,404).
att(427,374).
att(1320,399).
att(271,1114).
att(1426,1442).
att(1426,1426).
att(431,324).
att(214,1033).
att(1439,1362).
att(1441,1369).
att(1318,448).
att(1320,438).
att(1425,1444).
att(226,1025).
att(1442,1363).
att(380,354).
att(1357,692).
att(1509,289).
att(1321,441).
att(1326,391).
att(1443,1389).
att(270,1337).
att(1342,587).
att(270,1332).
att(1316,400).
att(1507,232).
att(1346,685).
att(1499,296).
att(1507,411).
att(224,1073).
att(1496,358).
att(436,460).
att(1489,102).
att(226,1067).
att(272,1208).
att(226,1083).
att(1342,619).
att(1360,610).
att(1503,338).
att(1360,579).
att(1443,1400).
att(1426,1363).
att(1485,106).
att(1505,332).
att(1509,408).
att(1479,106).
att(1322,326).
att(1322,320).
att(1346,536).
att(1488,59).
att(1501,343).
att(1324,323).
att(1496,243).
att(386,455).
att(1508,366).
att(1486,94).
att(1503,370).
att(1312,454).
att(1350,527).
att(1314,438).
att(1441,1523).
att(1481,200).
att(230,886).
att(1321,525).
att(1415,313).
att(216,1205).
att(1421,333).
att(380,571).
att(380,565).
att(1326,655).
att(1494,1326).
att(1499,450).
att(1318,564).
att(271,1159).
att(1424,1522).
att(436,558).
att(1326,525).
att(1488,92).
att(224,1205).
att(433,465).
att(1424,1516).
att(1494,1318).
att(1328,537).
att(1426,1516).
att(1502,1417).
att(1426,1514).
att(1321,564).
att(1425,1523).
att(427,549).
att(220,1157).
att(429,543).
att(1504,1346).
att(1318,482).
att(1424,1478).
att(230,963).
att(1326,564).
att(1442,1497).
att(173,897).
att(1318,481).
att(1497,1360).
att(218,1219).
att(1426,1478).
att(1502,1328).
att(1441,1425).
att(1440,1440).
att(1504,1265).
att(1488,161).
att(272,1219).
att(384,543).
att(227,971).
att(1442,1442).
att(179,877).
att(1430,1474).
att(179,1113).
att(1487,338).
att(1342,317).
att(1469,1363).
att(1348,438).
att(230,1086).
att(1446,1446).
att(1488,343).
att(168,1113).
att(175,1070).
att(175,1080).
att(1357,404).
att(1454,44).
att(1460,96).
att(1473,1384).
att(1486,332).
att(1481,242).
att(224,1356).
att(1265,583).
att(230,1126).
att(1469,1421).
att(168,963).
att(1342,326).
att(1450,1389).
att(1256,655).
att(1462,75).
att(173,1214).
att(1473,1312).
att(1343,339).
att(1360,323).
att(1461,102).
att(1363,1516).
att(1461,106).
att(230,1208).
att(175,1187).
att(227,1149).
att(1383,1484).
att(1485,335).
att(1243,545).
att(1246,525).
att(1335,336).
att(1487,443).
att(185,1019).
att(1454,156).
att(187,1015).
att(229,1258).
att(1461,153).
att(181,1300).
att(1357,525).
att(1471,1474).
att(1465,299).
att(1459,276).
att(1425,1312).
att(168,1296).
att(1342,562).
att(1346,488).
att(1346,484).
att(187,886).
att(1346,464).
att(187,891).
att(1357,564).
att(230,1307).
att(181,1155).
att(227,1258).
att(1459,150).
att(1424,1348).
att(175,1271).
att(175,1268).
att(1460,141).
att(1467,1482).
att(1460,156).
att(1466,1498).
att(1454,188).
att(1437,61).
att(1454,238).
att(187,1113).
att(1342,391).
att(1354,480).
att(1465,358).
att(1462,240).
att(173,1345).
att(182,1086).
att(183,1063).
att(1452,232).
att(1351,545).
att(185,1114).
att(1342,514).
att(1351,510).
att(1346,400).
att(187,961).
att(128,1016).
att(1469,1469).
att(1462,249).
att(1473,1467).
att(1436,52).
att(183,1121).
att(1458,283).
att(1471,1471).
att(1462,208).
att(1351,464).
att(1452,289).
att(168,1264).
att(124,969).
att(1466,1444).
att(1473,1473).
att(168,1219).
att(1242,705).
att(1452,1131).
att(185,367).
att(1389,562).
att(1519,1322).
att(187,369).
att(1252,1158).
att(122,233).
att(1523,1242).
att(1265,1306).
att(1484,1522).
att(1371,521).
att(1262,1295).
att(1262,1308).
att(1243,1156).
att(1477,1477).
att(1452,1205).
att(1492,1443).
att(1515,1265).
att(1476,1504).
att(1480,1480).
att(1518,1351).
att(1478,1493).
att(1461,1130).
att(173,462).
att(1492,1502).
att(1371,567).
att(124,410).
att(1384,393).
att(187,439).
att(1259,1203).
att(1464,1356).
att(1522,1243).
att(116,314).
att(1427,1010).
att(122,455).
att(1521,1256).
att(1428,1015).
att(1433,877).
att(185,321).
att(1383,435).
att(1433,876).
att(1383,444).
att(1484,1473).
att(1433,888).
att(1480,1430).
att(1462,1248).
att(1411,692).
att(1431,1010).
att(1431,1025).
att(1482,1430).
att(1436,961).
att(1452,1300).
att(1436,969).
att(1384,579).
att(1391,690).
att(1351,1062).
att(1391,682).
att(182,460).
att(421,155).
att(1246,1418).
att(1427,1119).
att(134,142).
att(1427,1126).
att(1428,961).
att(185,403).
att(1433,957).
att(1514,1363).
att(187,394).
att(1254,1333).
att(1262,1325).
att(1461,1356).
att(1471,435).
att(1471,438).
att(1456,516).
att(1473,446).
att(1522,1423).
att(1383,577).
att(1385,690).
att(1432,1119).
att(1452,1362).
att(1456,434).
att(1433,1204).
att(185,546).
att(185,556).
att(1515,1415).
att(1435,1300).
att(1431,1153).
att(1427,1204).
att(421,235).
att(1242,1257).
att(124,565).
att(124,465).
att(1444,333).
att(1259,1255).
att(1493,1493).
att(1433,1078).
att(738,744).
att(1262,1255).
att(1434,1205).
att(1383,539).
att(1431,1214).
att(1523,1312).
att(421,288).
att(1427,1086).
att(421,298).
att(1431,1205).
att(1432,1204).
att(1265,1266).
att(144,235).
att(1242,1304).
att(1494,1513).
att(1432,1261).
att(1411,508).
att(1475,1262).
att(1433,1216).
att(1476,1265).
att(1398,562).
att(1480,1360).
att(1497,1497).
att(132,458).
att(1504,1476).
att(254,878).
att(421,331).
att(1400,551).
att(1498,1498).
att(416,359).
att(1494,1426).
att(118,543).
att(1494,1424).
att(1500,1500).
att(131,361).
att(132,314).
att(1497,1442).
att(265,1016).
att(1411,516).
att(1482,1242).
att(1494,1504).
att(421,359).
att(1400,478).
att(1504,1504).
att(1324,703).
att(1411,434).
att(1411,444).
att(1411,446).
att(1494,1450).
att(1511,1385).
att(134,374).
att(136,405).
att(1509,52).
att(1328,685).
att(261,969).
att(429,142).
att(1509,106).
att(1328,703).
att(1498,1444).
att(1395,508).
att(419,373).
att(421,396).
att(1501,46).
att(1326,583).
att(254,1016).
att(1428,1258).
att(270,958).
att(1320,655).
att(1321,615).
att(1428,1217).
att(131,442).
att(425,452).
att(263,969).
att(1398,406).
att(1419,446).
att(257,965).
att(1395,399).
att(1502,1466).
att(132,376).
att(421,467).
att(1439,1159).
att(261,1076).
att(261,1061).
att(1475,1387).
att(423,513).
att(136,485).
att(1482,1467).
att(1421,579).
att(419,489).
att(131,546).
att(1371,406).
att(1415,678).
att(1507,188).
att(1482,1466).
att(1501,79).
att(132,543).
att(1482,1473).
att(1411,535).
att(1512,1519).
att(423,374).
att(1385,316).
att(1414,527).
att(131,479).
att(1415,579).
att(419,495).
att(1391,323).
att(1501,150).
att(1492,1360).
att(268,1296).
att(261,1149).
att(423,563).
att(1513,1474).
att(1414,564).
att(380,233).
att(427,359).
att(1512,1493).
att(261,1157).
att(425,571).
att(1400,631).
att(382,363).
att(1400,651).
att(1371,336).
att(382,365).
att(421,549).
att(431,248).
att(1511,1511).
att(1480,1314).
att(261,1195).
att(386,279).
att(1398,540).
att(1480,1320).
att(222,878).
att(1414,481).
att(1513,1513).
att(1419,570).
att(436,363).
att(1415,521).
att(1504,1515).
att(1507,153).
att(431,231).
att(592,1474).
att(1488,867).
att(1440,649).
att(607,1321).
att(1491,845).
att(594,1482).
att(1512,326).
att(647,1519).
att(1512,320).
att(1511,316).
att(226,294).
att(227,70).
att(220,284).
att(1443,621).
att(1486,839).
att(220,297).
att(596,1478).
att(1320,1255).
att(1429,692).
att(1100,1314).
att(1483,823).
att(607,1357).
att(607,1360).
att(603,1497).
att(475,466).
att(220,157).
att(598,1513).
att(1100,1360).
att(605,1475).
att(592,1512).
att(1328,1255).
att(473,567).
att(1498,336).
att(473,545).
att(1461,737).
att(1322,1308).
att(1461,736).
att(1096,1320).
att(1324,1299).
att(1489,910).
att(1459,780).
att(693,316).
att(1328,1306).
att(1489,893).
att(1100,1384).
att(1106,1369).
att(1443,551).
att(1491,973).
att(1326,1295).
att(1342,1457).
att(1452,737).
att(1500,333).
att(1500,336).
att(695,435).
att(1479,925).
att(1094,1328).
att(1316,1186).
att(1465,732).
att(224,287).
att(230,73).
att(1104,1322).
att(224,250).
att(470,537).
att(1342,1372).
att(1429,537).
att(596,1521).
att(1326,1154).
att(1100,1421).
att(697,333).
att(1350,1390).
att(1324,1145).
att(1326,1160).
att(179,13).
att(1092,1314).
att(695,329).
att(1102,1417).
att(1443,478).
att(1481,1027).
att(1494,564).
att(1461,757).
att(689,400).
att(1481,1028).
att(1096,1384).
att(181,99).
att(1461,760).
att(230,91).
att(227,80).
att(698,512).
att(1512,488).
att(607,1441).
att(699,482).
att(1513,481).
att(463,688).
att(754,748).
att(1096,1444).
att(1498,542).
att(470,692).
att(1500,537).
att(1513,488).
att(168,113).
att(472,705).
att(177,85).
att(1504,536).
att(472,680).
att(1504,521).
att(1413,1082).
att(1461,776).
att(606,1471).
att(474,678).
att(1411,1066).
att(1417,1203).
att(698,375).
att(477,680).
att(1463,759).
att(1489,880).
att(1494,481).
att(227,97).
att(752,744).
att(1502,562).
att(1459,752).
att(1314,1453).
att(168,49).
att(168,58).
att(177,97).
att(1452,783).
att(170,55).
att(695,570).
att(1415,1069).
att(1318,1323).
att(1511,400).
att(1053,1242).
att(1321,1310).
att(168,191).
att(124,28).
att(1104,1478).
att(1500,486).
att(1504,484).
att(1100,1482).
att(695,484).
att(1464,798).
att(1465,788).
att(230,191).
att(1320,1344).
att(1326,1323).
att(1324,1319).
att(1424,705).
att(1096,1466).
att(227,201).
att(606,1502).
att(1494,393).
att(1107,1354).
att(1500,518).
att(1460,788).
att(1326,1329).
att(1318,1310).
att(1322,1393).
att(694,482).
att(177,202).
att(1351,1250).
att(1514,1516).
att(1051,1320).
att(1343,1295).
att(670,320).
att(670,333).
att(1516,1514).
att(1357,1218).
att(669,316).
att(698,631).
att(1515,1515).
att(699,655).
att(122,73).
att(669,457).
att(691,532).
att(1516,1516).
att(1045,1314).
att(1459,922).
att(666,316).
att(1342,1308).
att(1456,589).
att(1517,1517).
att(1350,1293).
att(1454,874).
att(1094,1476).
att(182,14).
att(1357,1304).
att(122,30).
att(1516,1478).
att(1463,841).
att(1465,854).
att(1515,1476).
att(173,162).
att(175,284).
att(1104,1518).
att(183,72).
att(1254,1451).
att(1520,1520).
att(1460,845).
att(1343,1302).
att(1360,1301).
att(175,250).
att(1515,1504).
att(185,113).
att(666,400).
att(1351,1160).
att(1438,752).
att(1514,1497).
att(126,60).
att(1467,482).
att(1434,766).
att(1446,570).
att(1252,1390).
att(1346,1190).
att(691,610).
att(1350,1197).
att(1458,880).
att(1516,1513).
att(664,438).
att(1473,464).
att(183,83).
att(1427,776).
att(1516,1497).
att(1456,537).
att(183,93).
att(1427,774).
att(1518,1522).
att(1342,1197).
att(1040,1371).
att(185,111).
att(1433,732).
att(670,444).
att(1259,1364).
att(1454,925).
att(1466,399).
att(1467,518).
att(1514,1426).
att(671,435).
att(1110,1444).
att(1458,910).
att(1516,1442).
att(183,109).
att(1450,481).
att(1246,1386).
att(1432,776).
att(1242,1422).
att(1428,739).
att(1452,915).
att(1473,518).
att(661,336).
att(686,653).
att(1040,1398).
att(1428,835).
att(1354,1377).
att(1109,1513).
att(1423,466).
att(768,742).
att(1357,1386).
att(670,486).
att(1042,1430).
att(780,745).
att(1054,1254).
att(1431,823).
att(122,189).
att(1342,1393).
att(1427,821).
att(1427,823).
att(144,30).
att(778,747).
att(1428,823).
att(1328,1190).
att(666,481).
att(991,1256).
att(1423,516).
att(663,393).
att(776,740).
att(187,78).
att(1433,758).
att(670,518).
att(1343,1319).
att(1426,391).
att(1051,1446).
att(1431,755).
att(1438,833).
att(1471,680).
att(1431,753).
att(1442,391).
att(1328,1082).
att(132,6).
att(664,399).
att(1466,688).
att(132,9).
att(183,195).
att(691,692).
att(124,78).
att(144,6).
att(144,9).
att(1040,1469).
att(1437,841).
att(136,17).
att(666,536).
att(1343,1349).
att(661,542).
att(1346,1352).
att(1467,610).
att(670,537).
att(1448,678).
att(1424,393).
att(1471,610).
att(670,523).
att(1357,1310).
att(1448,688).
att(1354,1325).
att(1438,922).
att(1051,1522).
att(642,317).
att(668,536).
att(1424,399).
att(1053,1515).
att(1054,1415).
att(1425,375).
att(421,20).
att(1055,1421).
att(981,1342).
att(1427,870).
att(116,162).
att(1312,1060).
att(1439,737).
att(1466,579).
att(124,292).
att(1428,861).
att(1423,451).
att(1437,875).
att(1424,451).
att(182,151).
att(187,114).
att(668,561).
att(421,26).
att(1110,1519).
att(1424,441).
att(669,527).
att(122,158).
att(770,742).
att(1467,579).
att(1040,1512).
att(1444,688).
att(1040,1498).
att(1456,680).
att(978,1256).
att(1473,655).
att(1428,107).
att(1384,1315).
att(1450,1062).
att(661,1444).
att(1521,510).
att(1246,324).
att(1448,1194).
att(132,913).
att(1427,103).
att(1446,1203).
att(1262,455).
att(1391,1393).
att(1522,545).
att(1439,8).
att(1428,60).
att(1384,1358).
att(136,860).
att(1433,51).
att(666,1450).
att(131,858).
att(1456,1066).
att(1474,680).
att(1521,393).
att(1514,391).
att(1366,1420).
att(1476,692).
att(1493,610).
att(419,869).
att(1446,1062).
att(1446,1064).
att(1369,1399).
att(132,848).
att(1252,363).
att(416,803).
att(144,842).
att(664,1369).
att(1439,20).
att(1432,158).
att(644,1360).
att(1385,1352).
att(1243,295).
att(1389,1355).
att(263,8).
att(666,1480).
att(1387,1349).
att(1476,583).
att(419,909).
att(1363,1319).
att(266,14).
att(670,1519).
att(1265,367).
att(419,892).
att(1431,157).
att(671,1519).
att(1431,162).
att(1371,1327).
att(254,6).
att(1432,207).
att(1428,85).
att(1438,189).
att(131,906).
att(1433,87).
att(131,907).
att(671,1493).
att(1262,233).
att(132,898).
att(641,1354).
att(642,1342).
att(801,745).
att(1427,85).
att(1246,244).
att(1385,1331).
att(1383,1218).
att(437,800).
att(636,1421).
att(1467,1255).
att(624,1312).
att(1335,234).
att(1342,137).
att(1249,465).
att(627,1314).
att(1357,244).
att(265,68).
att(1520,579).
att(131,1088).
att(421,956).
att(502,457).
att(634,1411).
att(1342,288).
att(624,1320).
att(1242,489).
att(1350,277).
att(1507,783).
att(1521,573).
att(1515,521).
att(1428,148).
att(1437,284).
att(136,1011).
att(1249,513).
att(644,1316).
att(1249,495).
att(1469,1299).
att(1254,507).
att(132,962).
att(259,13).
att(1256,549).
att(1342,155).
att(266,70).
att(1246,485).
att(1427,148).
att(144,972).
att(1510,739).
att(493,434).
att(1384,1388).
att(416,1125).
att(1243,445).
att(1510,834).
att(261,63).
att(1249,396).
att(505,508).
att(501,406).
att(1456,1260).
att(382,873).
att(491,435).
att(1456,1257).
att(1357,129).
att(1360,152).
att(1507,833).
att(499,446).
att(1384,1418).
att(268,49).
att(437,873).
att(642,1456).
att(1246,447).
att(1383,1412).
att(1519,562).
att(427,803).
att(1262,376).
att(270,56).
att(1249,447).
att(1518,570).
att(131,1118).
att(257,65).
att(425,970).
att(1252,412).
att(431,790).
att(1385,1457).
att(1501,812).
att(259,202).
att(603,1254).
att(268,189).
att(226,1).
att(1439,160).
att(1411,1347).
att(1477,434).
att(1484,393).
att(1496,833).
att(504,481).
att(636,1500).
att(263,76).
att(493,494).
att(1474,399).
att(1493,438).
att(1369,1082).
att(1498,688).
att(257,189).
att(640,1497).
att(1366,1072).
att(1511,690).
att(431,911).
att(624,1441).
att(642,1492).
att(1507,870).
att(1501,833).
att(272,5).
att(136,1202).
att(1419,1355).
att(1503,760).
att(1414,1218).
att(1398,1317).
att(425,1209).
att(640,1442).
att(419,1202).
att(640,1426).
att(431,837).
att(416,1077).
att(1494,653).
att(1496,865).
att(1494,649).
att(1510,917).
att(491,562).
att(272,73).
att(821,743).
att(1395,1358).
att(644,1514).
att(829,745).
att(1475,316).
att(380,1034).
att(500,525).
att(1480,438).
att(1511,628).
att(592,1322).
att(1439,284).
att(436,1031).
att(503,540).
att(642,1514).
att(259,160).
att(603,1342).
att(1494,525).
att(226,38).
att(268,148).
att(272,21).
att(585,1259).
att(270,139).
att(493,486).
att(1505,788).
att(596,1256).
att(504,523).
att(1398,1247).
att(380,879).
att(222,15).
att(501,567).
att(212,42).
att(1321,1468).
att(634,1477).
att(833,744).
att(1400,1263).
att(431,1118).
att(1501,896).
att(1246,145).
att(1491,755).
att(1510,1009).
att(503,684).
att(647,1471).
att(431,1088).
att(491,617).
att(1476,521).
att(1485,764).
att(1518,329).
att(433,1127).
att(475,451).
att(1479,764).
att(504,680).
att(1485,774).
att(220,97).
att(380,1118).
att(1519,326).
att(1252,152).
att(1419,1453).
att(1490,783).
att(1385,1160).
att(493,535).
att(603,1421).
att(433,962).
att(503,583).
att(1256,142).
att(1414,1386).
att(1256,137).
att(1363,1295).
att(386,1034).
att(380,966).
att(605,1387).
att(504,589).
att(1389,1150).
att(500,615).
att(214,68).
att(1391,1145).
att(431,956).
att(473,448).
att(501,617).
att(469,510).
att(1385,1200).
att(230,2).
att(431,1196).
att(594,1425).
att(1488,828).
att(1484,481).
att(1413,1399).
att(607,1246).
att(1387,1197).
att(226,203).
att(605,1495).
att(220,203).
att(220,205).
att(382,1202).
att(1371,1162).
att(1492,461).
att(1484,548).
att(1481,826).
att(433,1074).
att(491,575).
att(216,60).
att(477,516).
att(603,1471).
att(1385,1065).
att(1478,488).
att(1509,1027).
att(475,494).
att(472,399).
att(1480,488).
att(500,692).
att(1476,496).
att(382,1074).
att(468,399).
att(1391,1062).
att(1477,508).
att(1371,1194).
att(214,109).
att(601,1442).
att(222,90).
att(1318,407).
att(1415,152).
att(1490,60).
att(1320,396).
att(1489,69).
att(493,1517).
att(272,1088).
att(1489,73).
att(1497,1295).
att(1395,275).
att(380,456).
att(476,1363).
att(1400,285).
att(1411,163).
att(382,443).
att(222,1129).
att(1421,152).
att(1498,1270).
att(1494,1160).
att(382,301).
att(498,1516).
att(271,970).
att(1496,148).
att(477,1411).
att(1326,401).
att(1424,1470).
att(272,967).
att(272,968).
att(493,1477).
att(1494,1154).
att(433,304).
att(843,744).
att(1328,373).
att(382,328).
att(1502,1301).
att(222,970).
att(1398,140).
att(1316,373).
att(1502,1308).
att(1487,91).
att(1511,1072).
att(1441,1399).
att(230,840).
att(1440,1416).
att(271,1165).
att(1326,410).
att(469,1446).
att(1318,327).
att(476,1442).
att(1321,334).
att(1485,105).
att(1326,442).
att(1425,1388).
att(220,1209).
att(177,840).
att(476,1426).
att(1440,1364).
att(384,443).
att(1322,331).
att(1423,1396).
att(1495,1085).
att(230,869).
att(463,1421).
att(1489,53).
att(1424,1420).
att(218,956).
att(386,443).
att(1485,68).
att(168,787).
att(168,813).
att(220,1087).
att(170,787).
att(468,1384).
att(473,1474).
att(1461,3).
att(1484,1064).
att(1513,1323).
att(477,1477).
att(697,1242).
att(1476,1069).
att(475,1474).
att(1489,165).
att(694,1348).
att(693,1256).
att(1511,1401).
att(1479,197).
att(1477,1066).
att(695,1262).
att(1320,543).
att(1464,6).
att(1464,9).
att(699,1242).
att(1513,1355).
att(224,1206).
att(1414,248).
att(1491,195).
att(1414,244).
att(1491,197).
att(463,1444).
att(1497,1319).
att(694,1254).
att(1414,231).
att(218,1165).
att(1398,303).
att(1479,89).
att(470,1429).
att(214,1196).
att(1480,1062).
att(472,1430).
att(1481,78).
att(1494,1355).
att(1462,14).
att(468,1520).
att(1395,357).
att(1513,1218).
att(1458,32).
att(469,1518).
att(227,964).
att(1463,68).
att(463,1520).
att(691,1314).
att(1419,239).
att(1321,485).
att(1328,558).
att(168,1023).
att(177,964).
att(910,745).
att(1452,20).
att(686,1351).
att(468,1480).
att(1411,146).
att(468,1482).
att(1465,18).
att(1491,300).
att(1462,19).
att(1414,145).
att(476,1514).
att(1460,17).
att(915,745).
att(917,742).
att(1354,373).
att(1423,1156).
att(128,787).
att(695,1446).
att(1461,56).
att(181,1116).
att(857,744).
att(1462,51).
att(122,803).
att(1469,1390).
att(1458,49).
att(699,1441).
att(1462,112).
att(175,1068).
att(183,848).
att(1335,515).
att(1426,1160).
att(1342,452).
att(1351,439).
att(187,806).
att(1444,1388).
att(1464,60).
att(1456,1392).
att(1523,705).
att(1465,51).
att(1465,62).
att(183,790).
att(173,960).
att(1452,65).
att(1452,68).
att(1443,1062).
att(1452,66).
att(1456,1447).
att(1342,331).
att(1473,1422).
att(694,1504).
att(1515,692).
att(1430,1060).
att(179,1215).
att(1423,1062).
att(1461,90).
att(1462,87).
att(122,920).
att(1463,157).
att(1429,1207).
att(1473,1315).
att(1450,1393).
att(183,898).
att(1459,189).
att(168,1199).
att(1463,162).
att(1350,354).
att(185,911).
att(1450,1420).
att(1466,1315).
att(1460,197).
att(1351,359).
att(1342,277).
att(1467,1358).
att(1461,111).
att(1465,87).
att(1252,571).
att(698,1423).
att(1473,1358).
att(691,1450).
att(1458,107).
att(697,1423).
att(1243,552).
att(1466,1358).
att(168,1068).
att(118,862).
att(686,1466).
att(1429,1082).
att(694,1425).
att(1350,231).
att(1318,244).
att(694,1520).
att(1424,1329).
att(1461,151).
att(1464,294).
att(695,1518).
att(1435,14).
att(182,1026).
att(116,887).
att(183,956).
att(1443,1352).
att(1321,244).
att(183,966).
att(1502,1062).
att(124,1020).
att(183,968).
att(666,1320).
att(1426,1323).
att(1433,9).
att(698,1493).
att(182,882).
att(1434,6).
att(1434,9).
att(1436,14).
att(1429,1325).
att(698,1522).
att(1463,284).
att(183,1023).
att(1463,300).
att(668,1354).
att(1425,1333).
att(697,1474).
att(1343,571).
att(1426,1344).
att(1452,207).
att(1460,157).
att(1342,483).
att(686,1513).
att(666,1389).
att(666,1391).
att(118,967).
att(663,1413).
att(1316,152).
att(1354,460).
att(1437,60).
att(663,1417).
att(1438,55).
att(1318,129).
att(131,813).
att(1335,543).
att(1342,492).
att(122,1125).
att(669,1469).
att(1324,277).
att(1440,1218).
att(1346,460).
att(1431,56).
att(1321,129).
att(118,962).
att(666,1384).
att(118,1034).
att(1440,1148).
att(1346,373).
att(1454,294).
att(1350,373).
att(1433,19).
att(689,1517).
att(128,1017).
att(1312,282).
att(1466,1453).
att(144,793).
att(854,742).
att(1425,1304).
att(1424,1297).
att(1342,396).
att(1426,1295).
att(1343,497).
att(118,1017).
att(185,954).
att(1326,145).
att(1243,1204).
att(1256,1298).
att(1385,563).
att(131,47).
att(187,370).
att(1259,1298).
att(1514,1344).
att(421,47).
att(1431,887).
att(1354,886).
att(1471,235).
att(122,358).
att(1431,879).
att(122,370).
att(421,59).
att(1242,1161).
att(1520,1327).
att(1384,513).
att(1521,1253).
att(1389,485).
att(1515,1247).
att(1444,241).
att(187,208).
att(1262,1151).
att(1469,277).
att(1431,914).
att(1522,1313).
att(1242,1195).
att(1473,273).
att(1432,918).
att(1383,460).
att(136,74).
att(185,443).
att(1366,471).
att(1243,1119).
att(1242,1114).
att(1249,1078).
att(1456,285).
att(1385,513).
att(1493,1453).
att(425,102).
att(1438,956).
att(1366,487).
att(1514,1295).
att(1252,1063).
att(1471,163).
att(1450,282).
att(421,82).
att(1383,515).
att(1030,740).
att(1431,967).
att(1383,490).
att(1254,1061).
att(185,325).
att(1366,490).
att(185,341).
att(1514,1145).
att(187,302).
att(131,92).
att(1438,967).
att(419,96).
att(1431,1034).
att(122,332).
att(1385,490).
att(423,46).
att(134,100).
att(1516,1145).
att(134,150).
att(268,862).
att(1346,1128).
att(1354,1078).
att(270,859).
att(1428,1118).
att(136,138).
att(1343,1115).
att(1428,1088).
att(1423,137).
att(1354,1086).
att(257,790).
att(1450,495).
att(132,286).
att(1424,152).
att(1456,467).
att(1009,742).
att(126,443).
att(1523,1422).
att(1433,962).
att(1348,969).
att(1252,1334).
att(1520,1470).
att(131,161).
att(419,198).
att(1467,374).
att(266,873).
att(1439,859).
att(1450,398).
att(268,787).
att(1514,1420).
att(261,844).
att(1428,1196).
att(423,274).
att(503,1354).
att(1259,1338).
att(1523,1327).
att(1252,1251).
att(1433,1215).
att(1252,1261).
att(1357,953).
att(505,1360).
att(1348,1010).
att(1265,1330).
att(436,57).
att(144,358).
att(268,840).
att(423,141).
att(503,1265).
att(1439,918).
att(1466,241).
att(1514,1319).
att(131,236).
att(1516,1323).
att(1519,1422).
att(257,838).
att(1256,1338).
att(416,147).
att(1473,371).
att(1384,163).
att(268,1026).
att(386,47).
att(386,54).
att(433,106).
att(499,1314).
att(136,341).
att(1414,495).
att(505,1411).
att(500,1326).
att(1477,1218).
att(265,962).
att(1366,237).
att(1419,487).
att(1507,65).
att(419,301).
att(1415,546).
att(1400,568).
att(1400,563).
att(1411,462).
att(259,904).
att(433,46).
att(261,909).
att(1371,140).
att(1509,30).
att(1512,1453).
att(423,208).
att(1414,405).
att(136,366).
att(1414,374).
att(263,920).
att(263,889).
att(265,1008).
att(500,1357).
att(1506,17).
att(132,338).
att(257,904).
att(257,902).
att(498,1360).
att(1501,34).
att(1494,1468).
att(503,1448).
att(1413,412).
att(491,1415).
att(1415,407).
att(493,1411).
att(491,1398).
att(1510,105).
att(1503,68).
att(380,81).
att(500,1389).
att(1419,398).
att(380,194).
att(257,1118).
att(222,862).
att(382,198).
att(501,1371).
att(1501,49).
att(254,1023).
att(1508,65).
att(1494,1386).
att(1415,442).
att(1495,1375).
att(1439,1088).
att(1484,1213).
att(1508,66).
att(270,954).
att(504,1413).
att(1513,1418).
att(500,1321).
att(1414,334).
att(1417,439).
att(1505,13).
att(131,443).
att(500,1419).
att(382,74).
att(1480,1150).
att(1414,314).
att(505,1387).
att(1475,1197).
att(265,1127).
att(505,1363).
att(382,88).
att(501,1398).
att(259,956).
att(271,787).
att(1411,452).
att(1498,1388).
att(1477,1210).
att(259,1212).
att(498,1426).
att(1507,207).
att(224,852).
att(899,748).
att(1475,1375).
att(268,1199).
att(880,748).
att(268,1215).
att(437,247).
att(1265,958).
att(272,914).
att(499,1425).
att(503,1504).
att(212,858).
att(218,873).
att(386,164).
att(427,286).
att(493,1429).
att(893,747).
att(1519,1152).
att(1507,189).
att(257,1212).
att(1371,403).
att(893,745).
att(1519,1145).
att(1384,371).
att(502,1423).
att(433,143).
att(1383,353).
att(224,871).
att(1439,1212).
att(1371,330).
att(1383,357).
att(1484,1412).
att(433,150).
att(1259,961).
att(212,790).
att(1243,881).
att(1484,1375).
att(263,1079).
att(212,860).
att(1509,90).
att(501,1471).
att(1369,412).
att(265,1165).
att(1499,113).
att(1242,1033).
att(1249,888).
att(1501,148).
att(491,1498).
att(1385,371).
att(272,1026).
att(437,332).
att(491,1502).
att(1384,241).
att(1489,34).
att(1522,1062).
att(1384,239).
att(1484,1420).
att(1371,321).
att(224,887).
att(382,368).
att(1417,563).
att(1501,201).
att(254,1199).
att(498,1497).
att(503,1476).
att(254,1215).
att(272,895).
att(272,898).
att(469,1259).
att(1475,1361).
att(386,280).
att(1414,485).
att(1486,2).
att(1478,1325).
att(212,906).
att(1479,3).
att(1482,1315).
att(1262,888).
att(1487,30).
att(500,1494).
att(1477,1347).
att(1411,563).
att(1484,1323).
att(505,1480).
att(1482,1327).
att(501,1504).
att(1512,331).
att(1324,1332).
att(1320,1258).
att(1417,969).
att(1502,401).
att(1328,1332).
att(1398,1114).
att(1502,398).
att(1316,1334).
att(1504,330).
att(1328,1258).
att(1502,445).
att(1322,1296).
att(1441,549).
att(1316,1153).
att(1512,235).
att(1502,331).
att(1495,353).
att(1511,279).
att(1494,244).
att(1511,277).
att(262,526).
att(1395,897).
att(1321,1166).
att(1504,367).
att(252,522).
att(258,555).
att(264,566).
att(1411,1198).
att(1417,1155).
att(1413,1201).
att(262,572).
att(1495,479).
att(1419,1166).
att(1419,1201).
att(1398,1130).
att(1511,465).
att(1504,546).
att(1504,558).
att(1504,509).
att(1512,396).
att(262,611).
att(1477,146).
att(1494,407).
att(1415,1126).
att(1511,455).
att(1504,407).
att(256,660).
att(1395,1076).
att(1414,953).
att(1502,492).
att(258,683).
att(1328,877).
att(1440,365).
att(1324,1025).
att(1342,1271).
att(1314,969).
att(1351,1338).
att(1443,361).
att(1342,1187).
att(1443,278).
att(264,721).
att(213,526).
att(262,712).
att(213,528).
att(262,720).
att(1354,1159).
att(1473,487).
att(1473,462).
att(1424,231).
att(1473,465).
att(213,538).
att(223,557).
att(1467,543).
att(1342,1214).
att(1473,489).
att(1342,1208).
att(213,553).
att(255,713).
att(1343,1076).
att(221,580).
att(1471,492).
att(219,588).
att(1342,1073).
att(1350,1063).
att(213,572).
att(211,566).
att(1423,485).
att(1498,140).
att(223,616).
att(1443,509).
att(1424,490).
att(1441,401).
att(219,657).
att(1504,152).
att(225,648).
att(1500,273).
att(225,658).
att(1430,462).
att(221,679).
att(1318,958).
att(1320,961).
att(1500,163).
att(223,683).
att(1324,1113).
att(1328,1113).
att(1328,1128).
att(1500,142).
att(1322,961).
att(1346,1219).
att(1442,314).
att(1342,1221).
att(223,709).
att(228,526).
att(221,715).
att(1467,1076).
att(1342,54).
att(1243,368).
att(1523,401).
att(1516,490).
att(1252,325).
att(1471,1061).
att(1450,1166).
att(1519,492).
att(1252,368).
att(1351,96).
att(1259,338).
att(1516,396).
att(1360,96).
att(1357,95).
att(1242,368).
att(1335,46).
att(1243,286).
att(1514,410).
att(1467,971).
att(1456,1115).
att(1389,1356).
att(1252,245).
att(1265,366).
att(1515,442).
att(1516,410).
att(1265,372).
att(1469,1025).
att(1469,1019).
att(1518,458).
att(1387,1264).
att(1466,1033).
att(1383,1216).
att(1473,1016).
att(1354,243).
att(1440,1016).
att(1443,886).
att(1348,299).
att(1342,286).
att(1443,1010).
att(1342,280).
att(1466,1149).
att(1456,1248).
att(1523,489).
att(1467,1157).
att(1446,1268).
att(1515,546).
att(1357,138).
att(1473,1157).
att(1448,1305).
att(1466,1157).
att(1343,159).
att(1473,1149).
att(1517,563).
att(1342,102).
att(1522,552).
att(1448,1161).
att(1357,196).
att(1342,82).
att(1521,549).
att(1383,957).
att(1252,57).
att(1249,57).
att(1369,1086).
att(1476,407).
att(1520,152).
att(1484,492).
att(1477,405).
att(1478,374).
att(1413,1248).
att(1371,955).
att(1482,401).
att(1477,410).
att(1389,971).
att(1383,971).
att(1413,1309).
att(1492,361).
att(1371,1012).
att(1484,340).
att(1387,1022).
att(1398,1362).
att(1421,1258).
att(1366,965).
att(1387,1010).
att(1391,1010).
att(1415,1337).
att(1417,1309).
att(1476,367).
att(1385,1309).
att(1444,1012).
att(1249,141).
att(1467,876).
att(1444,1016).
att(1262,286).
att(1471,888).
att(1383,1271).
att(1446,881).
att(1446,878).
att(1391,1149).
att(1243,96).
att(1521,298).
att(1249,74).
att(1252,92).
att(1389,1166).
att(1480,543).
att(1387,1208).
att(1391,1166).
att(1252,81).
att(1517,285).
att(1265,196).
att(1254,79).
att(1371,1131).
att(1477,467).
att(1363,1205).
att(1475,517).
att(1475,509).
att(1242,108).
att(1265,84).
att(1482,487).
att(1411,200).
att(1512,1151).
att(1484,877).
att(1484,876).
att(1502,1261).
att(1504,1219).
att(1320,443).
att(1419,198).
att(1395,143).
att(1395,156).
att(1500,1309).
att(1497,1159).
att(1502,1296).
att(1512,1078).
att(1512,1061).
att(1495,1208).
att(1321,341).
att(1398,198).
att(1415,104).
att(1322,338).
att(1318,366).
att(1421,44).
att(1320,370).
att(1415,95).
att(1495,1083).
att(1411,44).
att(1328,335).
att(1321,362).
att(1421,100).
att(1398,77).
att(1415,341).
att(1414,372).
att(1492,1113).
att(1480,1201).
att(1398,411).
att(1415,413).
att(1385,59).
att(1492,963).
att(1415,372).
att(1400,364).
att(1411,236).
att(1417,370).
att(1493,969).
att(1366,106).
att(1475,1117).
att(1411,366).
att(1391,59).
att(1484,957).
att(1484,961).
att(1395,343).
att(1363,61).
att(1366,59).
att(1475,963).
att(1476,958).
att(1476,963).
att(1495,1264).
att(1414,138).
att(1400,208).
att(1442,1205).
att(1318,74).
att(1348,450).
att(1429,1300).
att(1502,888).
att(1321,88).
att(1316,102).
att(1424,1205).
att(1321,96).
att(1316,50).
att(1350,368).
att(1326,106).
att(1424,1061).
att(1326,102).
att(1469,1332).
att(1440,961).
att(1440,971).
att(1442,965).
att(1324,50).
att(1466,1334).
att(1513,965).
att(1442,1345).
att(1500,1086).
att(1400,104).
att(1314,332).
att(1321,232).
att(1498,1012).
att(1424,1345).
att(1320,296).
att(1424,1359).
att(1398,50).
att(1443,1248).
att(1316,141).
att(1511,876).
att(1442,1268).
att(1326,289).
att(1425,1261).
att(1320,156).
att(1328,276).
att(1321,138).
att(1440,1157).
att(1326,141).
att(1440,1268).
att(1314,296).
att(1466,276).
att(1514,1356).
att(1514,1345).
att(1430,44).
att(1423,44).
att(1467,296).
att(1360,836).
att(1520,1334).
att(1335,892).
att(1456,289).
att(1335,840).
att(1342,803).
att(1252,1071).
att(1516,1268).
att(1351,838).
att(1473,159).
att(1520,1258).
att(1350,871).
att(1265,1165).
att(1354,842).
att(1517,1309).
att(1259,1079).
att(1518,1268).
att(1246,1120).
att(1383,440).
att(1262,1079).
att(1354,871).
att(1343,793).
att(1252,1088).
att(1357,860).
att(1516,1159).
att(1242,1120).
att(1424,150).
att(1424,153).
att(1335,1199).
att(1312,844).
att(1343,964).
att(1322,793).
att(1357,1088).
att(1324,795).
att(1441,77).
att(1350,967).
att(1429,153).
att(1350,966).
att(1426,102).
att(1471,332).
att(1348,1031).
att(1346,1023).
att(1312,787).
att(1360,956).
att(1466,332).
att(1425,88).
att(1467,362).
att(1342,907).
att(1426,61).
att(1423,96).
att(1446,338).
att(1440,52).
att(1450,301).
att(1424,108).
att(1450,328).
att(1360,1034).
att(1360,1017).
att(1384,159).
att(1484,1248).
att(1518,959).
att(1385,276).
att(1385,208).
att(1254,836).
att(1383,193).
att(1363,289).
att(1515,884).
att(1262,848).
att(1520,1016).
att(1391,164).
att(1383,75).
att(1478,1268).
att(1256,859).
att(1522,881).
att(1262,871).
att(1389,198).
att(1518,884).
att(1519,888).
att(1484,1303).
att(1417,450).
att(1256,803).
att(1385,79).
att(1478,1159).
att(1389,88).
att(1387,74).
att(1366,198).
att(1477,1198).
att(1482,1149).
att(1514,1214).
att(1246,954).
att(1335,787).
att(1450,74).
att(1456,188).
att(1256,1123).
att(1262,1123).
att(1354,813).
att(1354,797).
att(1252,967).
att(1519,1151).
att(1446,200).
att(1516,1205).
att(1383,408).
att(1254,954).
att(1517,1113).
att(1522,1204).
att(1254,1034).
att(1389,328).
att(1519,1201).
att(1369,450).
att(1383,338).
att(1383,240).
att(1242,909).
att(1444,100).
att(1519,1078).
att(1469,57).
att(1366,301).
att(1446,94).
att(1252,898).
att(1385,301).
att(1265,1034).
att(1387,208).
att(1523,1012).
att(1515,958).
att(1262,898).
att(1518,1111).
att(1383,247).
att(1492,104).
att(1413,1031).
att(1492,96).
att(37,553).
att(315,729).
att(318,722).
att(1477,82).
att(310,729).
att(25,720).
att(1512,358).
att(1415,1008).
att(1417,1031).
att(1414,887).
att(1493,52).
att(1482,77).
att(1411,1029).
att(1421,1034).
att(39,580).
att(1400,882).
att(1482,52).
att(1504,372).
att(1484,46).
att(27,572).
att(1478,94).
att(1502,301).
att(1474,44).
att(1480,100).
att(1415,916).
att(29,620).
att(1513,289).
att(10,616).
att(1371,911).
att(11,625).
att(1484,249).
att(10,613).
att(35,675).
att(1385,907).
att(1493,296).
att(329,1259).
att(1262,30).
att(31,660).
att(329,1243).
att(1477,247).
att(1519,44).
att(1482,370).
att(29,676).
att(1484,274).
att(27,672).
att(10,654).
att(1391,856).
att(1384,862).
att(1476,283).
att(35,711).
att(33,681).
att(1411,1206).
att(1411,1209).
att(1484,243).
att(1476,289).
att(1484,143).
att(1371,862).
att(1415,1081).
att(1419,1079).
att(1419,1037).
att(1400,1202).
att(1477,153).
att(1371,846).
att(1484,291).
att(11,707).
att(1476,153).
att(29,716).
att(37,722).
att(1512,443).
att(1484,193).
att(1482,159).
att(1513,459).
att(29,729).
att(1316,879).
att(1320,902).
att(1494,96).
att(1511,54).
att(1504,94).
att(33,729).
att(1328,1023).
att(11,726).
att(1322,902).
att(1324,882).
att(1502,96).
att(1425,362).
att(1429,338).
att(1326,887).
att(1497,61).
att(1430,238).
att(1441,286).
att(1324,914).
att(1326,924).
att(1342,1209).
att(1357,1165).
att(1322,842).
att(1423,286).
att(1442,141).
att(1320,862).
att(1312,909).
att(1500,243).
att(1326,1165).
att(1417,846).
att(1419,840).
att(1513,156).
att(1321,1084).
att(1513,150).
att(1411,806).
att(1400,860).
att(1494,138).
att(1322,1116).
att(1504,196).
att(1494,198).
att(1326,1118).
att(1442,459).
att(1324,967).
att(1502,74).
att(1320,1017).
att(1495,92).
att(1320,1034).
att(1326,966).
att(1513,106).
att(1314,1116).
att(1395,795).
att(1312,1120).
att(451,1430).
att(1466,1116).
att(1456,1196).
att(1351,76).
att(1430,836).
att(347,648).
att(1424,844).
att(434,1456).
att(1425,844).
att(346,677).
att(1466,956).
att(441,1371).
att(1446,1079).
att(1357,109).
att(356,526).
att(1360,111).
att(1350,45).
att(1456,1206).
att(1450,1084).
att(1467,964).
att(1351,62).
att(1469,967).
att(1514,459).
att(1456,1129).
att(1515,459).
att(1430,793).
att(1346,72).
att(1469,956).
att(1471,972).
att(351,526).
att(434,1411).
att(1473,964).
att(388,723).
att(346,715).
att(317,1492).
att(1343,20).
att(1466,892).
att(1523,368).
att(1351,64).
att(305,526).
att(347,712).
att(1469,1034).
att(1348,13).
att(1519,443).
att(435,1322).
att(1466,1034).
att(346,727).
att(1350,21).
att(1440,1020).
att(444,1519).
att(1343,290).
att(345,729).
att(1343,284).
att(1318,17).
att(305,553).
att(1342,250).
att(404,1414).
att(1320,17).
att(347,727).
att(352,580).
att(1326,71).
att(435,1519).
att(1314,14).
att(305,572).
att(434,1477).
att(404,1321).
att(406,1322).
att(397,1342).
att(1318,28).
att(441,1514).
att(444,1500).
att(1312,32).
att(1343,197).
att(1316,22).
att(1357,157).
att(397,1254).
att(448,1514).
att(1360,157).
att(451,1498).
att(1351,197).
att(448,1513).
att(308,648).
att(451,1513).
att(1322,6).
att(404,1242).
att(1357,189).
att(457,1513).
att(404,1246).
att(446,1441).
att(1357,197).
att(1354,191).
att(1324,7).
att(1343,205).
att(1360,197).
att(1425,909).
att(333,1444).
att(1385,1129).
att(317,1411).
att(317,1421).
att(1252,45).
att(1469,795).
att(1446,873).
att(1469,806).
att(1515,200).
att(307,679).
att(1366,1074).
att(1371,1071).
att(323,1421).
att(1384,1034).
att(1492,328).
att(1484,440).
att(310,530).
att(352,712).
att(1249,64).
att(1456,793).
att(1369,1116).
att(1391,967).
att(315,557).
att(1391,956).
att(355,724).
att(1371,1129).
att(1477,453).
att(350,726).
att(310,550).
att(305,720).
att(1514,102).
att(1480,408).
att(308,718).
att(1384,892).
att(1385,1008).
att(1514,106).
att(329,1320).
att(1476,341).
att(339,1395).
att(1482,408).
att(1515,106).
att(315,588).
att(1520,77).
att(1371,972).
att(1371,960).
att(1516,102).
att(1391,1034).
att(305,727).
att(1385,898).
att(316,1262).
att(1484,358).
att(310,582).
att(1243,8).
att(1514,61).
att(1246,28).
att(1256,16).
att(1262,16).
att(307,727).
att(1476,372).
att(1252,43).
att(320,1322).
att(24,566).
att(320,1314).
att(1516,61).
att(1456,1026).
att(1467,892).
att(1456,1023).
att(316,1512).
att(1350,4).
att(1252,151).
att(1262,251).
att(451,1328).
att(1249,157).
att(1515,366).
att(329,1478).
att(1254,151).
att(320,1519).
att(1520,304).
att(1469,885).
att(448,1398).
att(1360,17).
att(1448,1013).
att(1473,892).
att(1256,154).
att(1343,7).
att(1523,286).
att(318,662).
att(1467,916).
att(25,614).
att(1469,914).
att(317,1442).
att(1466,836).
att(315,681).
att(339,1475).
att(323,1480).
att(24,658).
att(1249,90).
att(326,1430).
att(1249,80).
att(1351,8).
att(317,1471).
att(1249,85).
att(448,1243).
att(1389,1202).
att(1519,238).
att(339,1497).
att(1354,6).
att(1383,1215).
att(320,1512).
att(1516,289).
att(1246,109).
att(1522,296).
att(1450,860).
att(1521,147).
att(1252,107).
att(1389,1081).
att(326,1471).
att(1444,840).
att(1466,787).
att(1387,1084).
att(318,715).
att(323,1430).
att(115,729).
att(1484,892).
att(1417,151).
att(1395,297).
att(1363,20).
att(1415,139).
att(496,1517).
att(1477,837).
att(514,1511).
att(1484,916).
att(130,648).
att(461,1354).
att(1513,1165).
att(135,659).
att(1482,836).
att(1476,859).
att(424,648).
att(1474,844).
att(1475,846).
att(1395,205).
att(516,1430).
att(1513,1074).
att(422,659).
att(1414,99).
att(1474,837).
att(508,1423).
att(1477,850).
att(1482,909).
att(133,675).
att(514,1450).
att(1421,55).
att(494,1430).
att(514,1466).
att(1415,99).
att(1500,1199).
att(1419,105).
att(1502,1202).
att(1480,836).
att(1246,759).
att(1363,90).
att(1383,51).
att(424,702).
att(417,676).
att(1387,113).
att(426,529).
att(316,435).
att(1383,112).
att(480,1444).
att(1519,837).
att(1254,752).
att(1484,1206).
att(1516,860).
att(1252,755).
att(1519,842).
att(1484,1122).
att(1520,793).
att(320,435).
att(414,710).
att(1520,787).
att(130,722).
att(313,313).
att(317,316).
att(1387,58).
att(135,727).
att(317,320).
att(426,554).
att(316,316).
att(1515,800).
att(133,726).
att(385,534).
att(313,438).
att(378,526).
att(510,1521).
att(1477,1026).
att(414,721).
att(1414,284).
att(1414,300).
att(1256,778).
att(1384,15).
att(481,1314).
att(432,580).
att(326,326).
att(1366,60).
att(329,329).
att(383,559).
att(480,1354).
att(378,553).
att(1484,1008).
att(508,1477).
att(1477,882).
att(336,333).
att(1384,36).
att(333,333).
att(333,336).
att(506,1521).
att(1476,1034).
att(336,336).
att(1414,157).
att(383,580).
att(1262,762).
att(1259,764).
att(402,1502).
att(379,614).
att(397,1442).
att(1442,1165).
att(1415,2).
att(404,1494).
att(1324,195).
att(391,1426).
att(1395,38).
att(1497,924).
att(1512,836).
att(1512,842).
att(496,1346).
att(402,1478).
att(506,1256).
att(391,1442).
att(381,652).
att(381,648).
att(1440,1074).
att(402,1440).
att(1322,91).
att(1498,862).
att(1316,111).
att(1424,1196).
att(1511,856).
att(1424,1212).
att(1423,1199).
att(404,1442).
att(1440,1165).
att(395,1429).
att(1326,80).
att(1441,1123).
att(381,679).
att(1316,60).
att(379,679).
att(379,687).
att(1494,860).
att(1441,1120).
att(426,710).
att(406,1450).
att(1326,109).
att(406,1448).
att(406,1444).
att(1440,1037).
att(1312,80).
att(1500,837).
att(1443,1112).
att(1429,1196).
att(1500,840).
att(402,1385).
att(1316,66).
att(377,677).
att(1440,968).
att(397,1400).
att(402,1389).
att(1424,1118).
att(383,710).
att(514,1385).
att(1411,67).
att(1414,71).
att(345,530).
att(1478,859).
att(1414,65).
att(348,526).
att(390,538).
att(1395,97).
att(1482,862).
att(381,726).
att(1421,56).
att(397,1514).
att(377,715).
att(379,725).
att(385,726).
att(514,1421).
att(1320,294).
att(391,1516).
att(1413,13).
att(1400,17).
att(399,1474).
att(1414,28).
att(1328,251).
att(1500,962).
att(1320,157).
att(1498,1017).
att(1504,967).
att(389,630).
att(1321,139).
att(1502,972).
att(404,1480).
att(1494,904).
att(388,648).
att(395,1511).
att(1494,887).
att(510,1256).
att(391,1497).
att(1500,1026).
att(1417,30).
att(1398,12).
att(400,1517).
att(1497,887).
att(1419,28).
att(1328,148).
att(176,526).
att(1322,783).
att(1312,750).
att(1426,66).
att(1423,53).
att(1322,766).
att(1346,910).
att(1440,68).
att(223,715).
att(1442,66).
att(397,317).
att(540,1415).
att(1425,63).
att(1318,734).
att(1429,99).
att(532,1450).
att(228,553).
att(1321,737).
att(1342,923).
att(1320,764).
att(1335,1032).
att(375,375).
att(211,717).
att(211,718).
att(1467,292).
att(1342,863).
att(1440,14).
att(1469,284).
att(1322,739).
att(402,333).
att(1326,736).
att(213,729).
att(441,631).
att(527,1414).
att(1335,896).
att(375,457).
att(434,535).
att(1326,734).
att(375,451).
att(444,542).
att(209,721).
att(545,1522).
att(441,548).
att(1466,197).
att(570,1480).
att(1354,839).
att(1351,845).
att(1469,148).
att(1351,839).
att(525,1326).
att(166,538).
att(209,723).
att(171,554).
att(527,1318).
att(228,616).
att(448,617).
att(527,1326).
att(561,1478).
att(1357,845).
att(1426,2).
att(1343,812).
att(441,482).
att(527,1242).
att(562,1512).
att(1423,40).
att(1440,2).
att(171,569).
att(1469,195).
att(441,481).
att(1423,32).
att(171,576).
att(1354,865).
att(560,1512).
att(561,1502).
att(527,1357).
att(1442,2).
att(551,1492).
att(1357,867).
att(1423,158).
att(537,1500).
att(1512,9).
att(180,648).
att(404,564).
att(1424,160).
att(395,480).
att(406,567).
att(171,611).
att(540,1504).
att(1494,28).
att(1430,294).
att(536,1474).
att(621,1360).
att(1326,867).
att(521,1513).
att(631,1243).
att(1314,788).
att(435,705).
att(1440,90).
att(399,494).
att(525,1502).
att(1316,823).
att(1318,833).
att(1322,798).
att(535,1430).
att(397,510).
att(166,648).
att(1441,80).
att(393,482).
att(527,1513).
att(1346,1032).
att(375,511).
att(393,393).
att(1342,883).
att(1318,759).
att(171,676).
att(1440,97).
att(1316,753).
att(228,714).
att(535,1456).
att(397,391).
att(434,692).
att(527,1429).
att(393,518).
att(521,1504).
att(1425,80).
att(1312,801).
att(1443,113).
att(527,1440).
att(121,522).
att(454,703).
att(172,708).
att(1324,756).
att(1318,774).
att(1351,1009).
att(1354,1032).
att(1360,973).
att(406,400).
att(1320,780).
att(1318,772).
att(404,404).
att(166,711).
att(406,406).
att(481,1474).
att(1456,67).
att(560,1342).
att(561,1335).
att(1473,30).
att(172,714).
att(562,1322).
att(115,526).
att(1389,292).
att(180,726).
att(1262,922).
att(1446,70).
att(564,1318).
att(1357,736).
att(1520,967).
att(457,336).
att(1391,292).
att(1519,972).
att(1354,732).
att(1520,956).
att(480,1520).
att(1516,1011).
att(169,731).
att(117,553).
att(480,1498).
att(1450,36).
att(123,586).
att(1522,1031).
att(486,1474).
att(1518,1031).
att(488,1493).
att(1254,872).
att(166,722).
att(570,1351).
att(478,1492).
att(480,1478).
att(486,1500).
att(1385,201).
att(1385,197).
att(1383,87).
att(484,1500).
att(1366,165).
att(317,510).
att(564,1246).
att(1387,203).
att(1249,812).
att(1469,22).
att(1389,201).
att(1471,9).
att(1516,924).
att(464,1493).
att(560,1262).
att(323,542).
att(1371,148).
att(1448,40).
att(551,1354).
att(1383,101).
att(316,391).
att(1256,814).
att(461,1502).
att(1484,1215).
att(115,620).
att(127,648).
att(1387,85).
att(326,494).
att(1254,833).
att(1391,90).
att(127,660).
att(545,1243).
att(316,496).
att(1391,78).
att(1477,1199).
att(478,1443).
att(1265,809).
att(435,399).
att(521,1265).
att(564,1440).
att(1343,826).
att(1466,97).
att(561,1450).
att(1450,78).
att(1354,814).
att(1515,1196).
att(444,516).
att(564,1441).
att(1343,819).
att(564,1442).
att(1515,1165).
att(1357,810).
att(1342,834).
att(438,488).
att(435,494).
att(1450,202).
att(317,609).
att(1342,770).
att(1342,766).
att(1466,49).
att(562,1471).
att(317,587).
att(434,434).
att(1246,1021).
att(451,511).
att(1354,834).
att(326,705).
att(435,435).
att(186,713).
att(125,702).
att(457,496).
att(567,1471).
att(1350,753).
att(316,703).
att(551,1443).
att(1473,97).
att(1350,756).
att(561,1421).
att(1518,1036).
att(1335,752).
att(435,320).
att(448,406).
att(438,438).
att(542,1444).
att(1456,105).
att(1346,780).
att(454,375).
att(326,577).
att(448,391).
att(1467,49).
att(1518,1079).
att(457,375).
att(329,610).
att(422,522).
att(448,494).
att(1360,757).
att(1265,1021).
att(117,720).
att(123,727).
att(446,446).
att(560,1363).
att(560,1366).
att(1466,15).
att(1467,70).
att(1523,1017).
att(123,730).
att(1521,962).
att(1444,55).
att(1469,66).
att(420,559).
att(567,1398).
att(1444,49).
att(564,1414).
att(1249,917).
att(451,454).
att(1471,66).
att(457,454).
att(444,326).
att(1521,1125).
att(448,375).
att(1450,63).
att(133,580).
att(457,457).
att(1413,1032).
att(1484,87).
att(508,680).
att(1413,1027).
att(587,1511).
att(464,488).
att(511,705).
att(464,464).
att(511,703).
att(1391,828).
att(466,481).
att(478,512).
att(609,1423).
att(339,1186).
att(1482,201).
att(329,1064).
att(1519,6).
att(1484,101).
att(609,1385).
att(514,690).
att(1484,105).
att(1419,1028).
att(480,435).
att(511,589).
att(1384,750).
att(1384,768).
att(1419,1035).
att(1484,91).
att(478,400).
att(466,516).
att(339,1066).
att(514,579).
att(1484,51).
att(1371,783).
att(512,610).
att(1363,759).
att(1385,780).
att(1476,56).
att(496,685).
att(506,573).
att(587,1471).
att(610,1314).
att(651,1517).
att(653,1518).
att(1415,919).
att(1511,287).
att(508,535).
att(1484,68).
att(514,628).
att(575,1421).
att(486,333).
att(1512,294).
att(464,438).
att(466,444).
att(1411,925).
att(466,457).
att(579,1421).
att(1477,70).
att(496,610).
att(562,326).
att(1371,921).
att(1518,62).
att(1523,13).
att(612,1520).
att(690,1385).
att(464,610).
att(486,655).
att(313,1255).
att(570,329).
att(684,1421).
att(313,1266).
att(478,621).
att(690,1391).
att(317,1156).
att(1383,865).
att(484,536).
att(542,333).
att(486,537).
att(326,1308).
att(461,621).
att(577,1519).
att(481,548).
att(484,537).
att(1446,732).
att(551,323).
att(1383,854).
att(703,1314).
att(1516,20).
att(316,1197).
att(1383,798).
att(1522,14).
att(336,1270).
att(1383,788).
att(316,1190).
att(612,1504).
att(1384,812).
att(339,1302).
att(1366,853).
att(326,1152).
att(481,481).
att(587,1521).
att(1484,292).
att(466,537).
att(1389,857).
att(478,551).
att(329,1154).
att(1391,868).
att(575,1504).
att(1385,812).
att(482,482).
att(587,1478).
att(1475,203).
att(583,1476).
att(685,1346).
att(323,1203).
att(461,551).
att(1383,823).
att(1384,826).
att(484,484).
att(1492,78).
att(486,486).
att(482,548).
att(313,1207).
att(682,1254).
att(1498,55).
att(1421,780).
att(1498,49).
att(1504,105).
att(1326,1028).
att(1495,113).
att(617,1469).
att(1411,770).
att(1494,109).
att(508,434).
att(1328,1032).
att(1502,90).
att(511,457).
att(511,454).
att(494,494).
att(1504,90).
att(1502,78).
att(1502,85).
att(1414,772).
att(1497,111).
att(619,1363).
att(1511,68).
att(397,619).
att(397,621).
att(1328,901).
att(1328,899).
att(1398,756).
att(1398,757).
att(375,703).
att(494,399).
att(537,1517).
att(1504,68).
att(539,1522).
att(1322,925).
att(1318,845).
att(539,1517).
att(397,536).
att(404,615).
att(1400,764).
att(1494,71).
att(540,1515).
att(628,1366).
att(1442,300).
att(1321,845).
att(496,438).
att(1321,841).
att(621,1400).
att(1395,768).
att(628,1391).
att(402,536).
att(1423,294).
att(402,532).
att(537,1474).
att(521,1515).
att(1328,857).
att(397,560).
att(1318,867).
att(404,527).
att(539,1475).
att(615,1321).
att(1316,857).
att(539,1484).
att(615,1318).
att(1511,36).
att(1326,841).
att(619,1322).
att(1442,162).
att(1426,284).
att(1395,764).
att(1426,300).
att(536,1520).
att(1497,20).
att(514,536).
att(1484,15).
att(1511,165).
att(615,1514).
att(615,1515).
att(511,542).
att(617,1517).
att(609,1342).
att(1414,867).
att(1497,300).
att(518,523).
att(461,323).
att(619,1516).
att(621,1522).
att(1363,732).
att(589,1417).
att(512,631).
att(1400,923).
att(1494,162).
att(1494,160).
att(508,466).
att(651,1500).
att(1495,148).
att(612,1242).
att(1478,14).
att(583,1328).
att(628,1520).
att(1482,15).
att(651,1478).
att(1400,851).
att(496,537).
att(1480,17).
att(1504,191).
att(649,1440).
att(508,494).
att(514,481).
att(619,1512).
att(621,1502).
att(510,510).
att(628,1482).
att(1495,199).
att(631,1493).
att(512,511).
att(615,1440).
att(651,1444).
att(399,680).
att(587,1256).
att(628,1511).
att(1321,1021).
att(1321,1035).
att(1495,78).
att(583,1265).
att(511,375).
att(1321,1028).
att(587,1254).
att(496,484).
att(628,1513).
att(395,1148).
att(521,540).
att(521,521).
att(523,523).
att(375,1218).
att(532,561).
att(395,1189).
att(397,1210).
att(395,1203).
att(537,486).
att(539,481).
att(404,1154).
att(525,564).
att(532,532).
att(444,1396).
att(561,682).
att(537,516).
att(1426,810).
att(399,1060).
att(441,1329).
att(535,434).
att(1426,759).
att(448,1420).
att(441,1319).
att(454,1422).
att(535,400).
att(1473,1027).
att(1442,759).
att(537,705).
att(516,1082).
att(628,481).
att(631,466).
att(1443,1024).
att(655,393).
att(615,391).
att(404,1310).
att(402,1325).
att(1443,900).
att(1442,890).
att(375,1422).
att(536,680).
att(375,1420).
att(391,1355).
att(406,1317).
att(1502,750).
att(535,535).
att(651,320).
att(527,575).
att(406,1336).
att(617,435).
att(1512,739).
att(1494,772).
att(1426,890).
att(375,1323).
att(1513,739).
att(1423,925).
att(1426,841).
att(1494,736).
att(539,523).
att(1424,910).
att(1494,734).
att(539,539).
att(631,454).
att(619,316).
att(540,540).
att(441,1207).
att(1521,189).
att(317,1393).
att(438,1203).
att(542,542).
att(1523,80).
att(545,545).
att(1471,798).
att(682,1511).
att(548,548).
att(1473,801).
att(684,1512).
att(551,551).
att(323,1422).
att(317,1325).
att(323,1418).
att(560,397).
att(561,400).
att(688,1498).
att(336,1388).
att(339,1375).
att(551,461).
att(1469,823).
att(548,482).
att(451,1190).
att(560,514).
att(1446,791).
att(484,703).
att(1466,780).
att(481,589).
att(1450,757).
att(561,448).
att(678,1444).
att(486,705).
att(1389,1030).
att(545,512).
att(564,404).
att(1466,768).
att(1391,1032).
att(1469,753).
att(1518,76).
att(480,688).
att(316,1255).
att(1450,768).
att(1466,739).
att(316,1250).
att(480,651).
att(1383,908).
att(317,1220).
att(320,1344).
att(1473,739).
att(1450,774).
att(1389,900).
att(1518,105).
att(1466,764).
att(1366,973).
att(548,393).
att(1391,900).
att(339,1311).
att(1450,760).
att(451,1323).
att(561,651).
att(564,575).
att(1425,750).
att(448,1329).
att(448,1323).
att(1450,899).
att(562,610).
att(1469,905).
att(1424,752).
att(539,446).
att(570,573).
att(1471,905).
att(560,612).
att(560,609).
att(527,393).
att(438,1255).
att(1450,912).
att(1473,845).
att(1467,912).
att(525,448).
att(1473,910).
att(542,688).
att(560,619).
att(1450,901).
att(446,1255).
att(545,631).
att(564,527).
att(435,1152).
att(441,1306).
att(451,1218).
att(1429,732).
att(317,1447).
att(705,1474).
att(1523,158).
att(703,1493).
att(1467,843).
att(561,561).
att(1516,284).
att(551,631).
att(1516,300).
att(1424,736).
att(561,532).
att(1450,917).
att(1473,843).
att(525,313).
att(1466,812).
att(1521,154).
att(560,478).
att(548,523).
att(317,1392).
att(1446,839).
att(1519,294).
att(560,551).
att(570,570).
att(583,685).
att(575,583).
att(320,235).
att(573,573).
att(1480,973).
att(317,288).
att(481,1257).
att(1477,893).
att(609,579).
att(609,573).
att(609,587).
att(579,579).
att(1492,851).
att(1474,925).
att(678,333).
att(1484,908).
att(480,1270).
att(461,1361).
att(583,575).
att(317,146).
att(1522,776).
att(1492,845).
att(484,1260).
att(583,583).
att(316,142).
att(1480,880).
att(1480,905).
att(609,619).
att(488,1255).
att(1476,910).
att(1519,766).
att(589,589).
att(575,521).
att(609,560).
att(1484,849).
att(478,1150).
att(1522,739).
att(461,1263).
att(1478,922).
att(587,619).
att(1480,922).
att(481,1154).
att(688,336).
att(1484,922).
att(1519,739).
att(464,1255).
att(1518,764).
att(1484,865).
att(480,1190).
att(336,140).
att(333,140).
att(1476,867).
att(562,1152).
att(1521,863).
att(1514,875).
att(316,458).
att(542,1270).
att(678,542).
att(316,455).
att(561,1189).
att(1523,801).
att(1515,867).
att(1516,875).
att(1518,843).
att(316,376).
att(570,1144).
att(320,492).
att(317,331).
att(323,439).
att(1517,823).
att(461,1455).
att(705,494).
att(703,516).
att(464,1453).
att(688,542).
att(317,337).
att(1519,874).
att(329,439).
att(567,1194).
att(1518,863).
att(684,480).
att(548,1154).
att(685,464).
att(1492,1024).
att(486,1396).
att(680,494).
att(339,449).
att(1518,791).
att(703,496).
att(466,1392).
att(684,506).
att(1519,788).
att(480,1361).
att(685,496).
att(1492,900).
att(1521,752).
att(320,331).
att(1516,759).
att(615,653).
att(1511,853).
att(516,1260).
att(1511,845).
att(1494,915).
att(1502,900).
att(1502,901).
att(619,619).
att(587,435).
att(1476,738).
att(1502,899).
att(621,621).
att(628,612).
att(1511,872).
att(615,540).
att(651,562).
att(1511,868).
att(615,525).
att(395,1468).
att(617,540).
att(583,313).
att(619,536).
att(655,548).
att(1511,812).
att(508,1207).
att(649,488).
att(1512,798).
att(617,562).
att(1504,867).
att(619,560).
att(628,536).
att(655,482).
att(1497,875).
att(518,1154).
att(496,1306).
att(511,1190).
att(508,1066).
att(496,1190).
att(631,488).
att(1504,809).
att(651,510).
att(621,461).
att(393,1377).
att(655,518).
att(1500,865).
att(1484,798).
att(573,466).
att(1477,829).
att(575,484).
att(1476,809).
att(511,1420).
att(484,1190).
att(587,560).
att(466,1156).
att(573,510).
att(484,1082).
att(486,1060).
att(612,393).
att(651,579).
att(1477,770).
att(617,688).
att(610,438).
att(494,1422).
att(1482,826).
att(1511,973).
att(577,399).
att(508,1266).
att(1504,899).
att(506,1253).
att(619,573).
att(653,649).
att(511,1218).
att(609,317).
att(1511,912).
att(619,612).
att(1493,739).
att(510,1253).
att(628,690).
att(653,653).
att(512,1313).
att(587,397).
att(655,655).
att(539,1418).
att(397,337).
att(397,331).
att(402,439).
att(537,1418).
att(539,1406).
att(619,1210).
att(525,1386).
att(375,398).
att(535,1422).
att(532,1451).
att(631,1156).
att(406,442).
att(527,1386).
att(395,369).
att(535,1347).
att(628,1065).
att(539,1323).
att(615,1062).
att(540,1325).
att(404,327).
att(406,303).
att(375,445).
att(527,1418).
att(395,231).
att(527,1323).
att(537,1257).
att(397,298).
att(395,273).
att(527,1333).
att(397,288).
att(540,1247).
att(651,1220).
att(649,1255).
att(510,298).
att(651,1253).
att(397,483).
att(617,1352).
att(402,565).
att(511,282).
att(628,1323).
att(406,563).
att(516,241).
att(406,546).
att(508,146).
att(395,515).
att(512,295).
att(397,507).
att(514,279).
att(628,1331).
att(395,471).
att(649,1218).
att(518,277).
att(628,1358).
att(395,405).
att(406,495).
att(518,142).
att(375,485).
att(395,447).
att(406,403).
att(525,1468).
att(404,405).
att(651,1190).
att(527,1468).
att(564,1323).
att(678,678).
att(682,690).
att(567,1317).
att(548,1418).
att(446,365).
att(1517,1032).
att(685,685).
att(1518,1027).
att(441,231).
att(1522,1027).
att(1516,890).
att(684,577).
att(690,682).
att(1516,905).
att(678,688).
att(435,163).
att(448,248).
att(434,137).
att(560,1295).
att(682,628).
att(448,231).
att(313,460).
att(570,1220).
att(1515,919).
att(570,1250).
att(551,1352).
att(562,1301).
att(1514,839).
att(1520,910).
att(434,163).
att(1516,841).
att(400,285).
att(521,1266).
att(536,1306).
att(527,1247).
att(532,1301).
att(523,1270).
att(535,1156).
att(404,129).
att(560,1451).
att(564,1386).
att(448,396).
att(438,439).
att(525,1150).
att(454,398).
att(457,373).
att(523,1154).
att(551,1455).
att(570,1364).
att(375,163).
att(542,1388).
att(560,1319).
att(536,1060).
att(537,1082).
att(548,1388).
att(539,1085).
att(561,1393).
att(540,1069).
att(560,1401).
att(545,295).
att(486,492).
att(326,1061).
att(564,129).
att(692,1260).
att(551,285).
att(678,1156).
att(609,1392).
att(461,495).
att(682,1160).
att(609,1451).
att(320,1078).
att(609,1447).
att(690,1301).
att(579,1470).
att(609,1457).
att(682,1145).
att(579,1451).
att(339,1067).
att(573,1392).
att(583,1451).
att(678,1194).
att(329,961).
att(682,1197).
att(482,374).
att(609,1372).
att(609,1377).
att(336,1114).
att(316,878).
att(478,361).
att(690,1065).
att(486,331).
att(575,1420).
att(464,439).
att(587,1372).
att(579,1422).
att(690,1197).
att(682,1072).
att(587,1392).
att(434,877).
att(561,369).
att(562,331).
att(564,327).
att(688,1388).
att(682,1401).
att(560,337).
att(481,543).
att(316,1151).
att(313,1300).
att(317,1205).
att(484,563).
att(484,558).
att(317,1187).
att(561,277).
att(564,248).
att(561,273).
att(478,568).
att(684,1352).
att(481,490).
att(692,1255).
att(560,152).
att(317,1073).
att(461,568).
att(317,1070).
att(461,563).
att(680,1257).
att(466,549).
att(690,1331).
att(684,1260).
att(339,1153).
att(570,298).
att(508,452).
att(514,396).
att(619,1457).
att(518,374).
att(583,1306).
att(615,1386).
att(649,1416).
att(653,1416).
att(619,1367).
att(575,1207).
att(619,1372).
att(653,1325).
att(575,1069).
att(587,1210).
att(397,568).
att(651,1361).
att(583,1069).
att(628,1401).
att(587,1066).
att(510,543).
att(480,235).
att(573,1325).
att(320,888).
att(508,549).
att(333,1012).
att(336,1012).
att(508,479).
att(508,462).
att(516,543).
att(480,285).
att(486,235).
att(339,897).
att(589,1323).
att(508,497).
att(575,1247).
att(482,277).
att(589,1355).
att(651,1457).
att(466,137).
att(511,373).
att(494,462).
att(575,1306).
att(583,1218).
att(482,142).
att(583,1247).
att(461,285).
att(579,1306).
att(589,1218).
att(395,1163).
att(649,241).
att(402,1269).
att(539,563).
att(397,1161).
att(619,357).
att(540,546).
att(621,361).
att(395,1166).
att(402,1163).
att(397,1208).
att(397,1187).
att(406,1130).
att(391,1214).
att(535,462).
att(539,492).
att(649,140).
att(617,273).
att(397,1073).
att(655,142).
att(619,277).
att(535,497).
att(399,1061).
att(525,490).
att(402,1086).
att(619,149).
att(406,1078).
att(540,373).
att(615,129).
att(375,1211).
att(540,407).
att(619,155).
att(508,1115).
att(615,495).
att(589,163).
att(619,492).
att(508,1113).
att(573,137).
att(655,374).
att(516,1086).
att(587,288).
att(628,487).
att(512,1119).
att(397,1338).
att(496,1113).
att(510,959).
att(651,455).
att(516,1113).
att(619,376).
att(494,1061).
att(628,507).
att(395,1248).
att(651,331).
att(395,1217).
att(508,1010).
att(619,455).
att(619,452).
att(496,1128).
att(400,1248).
att(402,1217).
att(506,878).
att(496,1010).
att(653,365).
att(615,314).
att(617,334).
att(617,303).
att(406,1264).
att(516,1012).
att(518,1016).
att(561,519).
att(435,1061).
att(535,137).
att(532,369).
att(560,483).
att(448,1268).
att(551,568).
att(561,394).
att(527,129).
att(536,163).
att(523,277).
att(454,1211).
att(317,1356).
att(441,1119).
att(444,1114).
att(523,152).
att(448,1119).
att(685,1451).
att(317,1221).
att(323,1334).
att(685,1453).
att(682,1377).
att(451,1128).
att(705,1422).
att(703,1377).
att(313,1356).
att(521,407).
att(441,1359).
att(532,394).
att(523,374).
att(406,1114).
att(535,452).
att(527,405).
att(451,1332).
att(535,357).
att(521,442).
att(404,953).
att(527,410).
att(539,340).
att(540,330).
att(435,1151).
att(521,334).
att(446,1268).
att(395,891).
att(406,1010).
att(406,1012).
att(525,327).
att(521,365).
att(537,241).
att(567,546).
att(404,878).
att(444,1155).
att(570,543).
att(375,1016).
att(560,549).
att(317,293).
att(480,1248).
att(685,373).
att(562,969).
att(561,1015).
att(317,280).
att(567,955).
att(551,1119).
att(548,1114).
att(703,363).
att(685,439).
att(567,1016).
att(551,963).
att(313,299).
att(684,331).
att(480,1159).
att(542,1012).
att(317,192).
att(567,877).
att(575,558).
att(703,285).
att(684,273).
att(484,1155).
att(682,237).
att(486,1155).
att(481,1201).
att(339,156).
att(548,878).
att(560,1187).
att(448,150).
att(561,1166).
att(317,409).
att(451,156).
att(567,1131).
att(454,156).
att(446,200).
att(326,408).
att(560,1073).
att(685,558).
att(560,1070).
att(567,1205).
att(326,443).
att(682,471).
att(451,194).
att(680,462).
att(457,188).
att(457,194).
att(434,44).
att(561,1126).
att(435,44).
att(441,108).
att(454,77).
att(444,100).
att(545,1204).
att(690,471).
att(560,1080).
att(313,338).
att(690,487).
att(438,52).
att(561,969).
att(320,358).
att(326,358).
att(336,304).
att(441,61).
att(454,108).
att(690,490).
att(512,1261).
att(478,877).
att(464,969).
att(481,878).
att(577,331).
att(516,1264).
att(589,410).
att(587,455).
att(514,1307).
att(573,359).
att(655,543).
att(609,288).
att(617,556).
att(579,277).
att(609,298).
att(508,1198).
att(577,235).
att(461,877).
att(512,1204).
att(609,155).
att(651,492).
att(512,1211).
att(587,277).
att(649,513).
att(577,462).
att(583,546).
att(609,467).
att(690,233).
att(486,1061).
att(336,77).
att(688,273).
att(333,77).
att(478,1086).
att(464,1201).
att(320,52).
att(339,44).
att(484,1128).
att(610,439).
att(577,396).
att(587,507).
att(336,100).
att(688,140).
att(484,961).
att(480,1012).
att(484,969).
att(511,1261).
att(583,407).
att(587,396).
att(649,1076).
att(631,1204).
att(395,332).
att(395,302).
att(615,1195).
att(511,108).
att(619,1198).
att(406,411).
att(494,188).
att(619,1187).
att(512,108).
att(402,343).
att(649,965).
att(395,208).
att(496,52).
att(514,59).
att(399,238).
att(514,47).
att(653,961).
att(535,1300).
att(521,1337).
att(615,953).
att(619,959).
att(651,1010).
att(375,360).
att(494,44).
att(506,286).
att(516,243).
att(617,1362).
att(516,208).
att(619,1338).
att(508,289).
att(573,959).
att(577,969).
att(516,238).
att(464,52).
att(511,289).
att(496,276).
att(506,147).
att(510,147).
att(516,299).
att(619,1221).
att(631,1359).
att(621,1264).
att(514,164).
att(577,888).
att(511,194).
att(575,884).
att(514,141).
att(395,413).
att(395,409).
att(617,1131).
att(619,1159).
att(583,884).
att(441,366).
att(535,965).
att(375,110).
att(441,360).
att(397,54).
att(402,94).
att(391,61).
att(540,1128).
att(532,1114).
att(535,1022).
att(567,1353).
att(444,238).
att(402,59).
att(560,1338).
att(404,61).
att(446,247).
att(539,971).
att(539,957).
att(535,884).
att(532,961).
att(521,958).
att(441,276).
att(444,299).
att(525,953).
att(560,1221).
att(446,289).
att(525,965).
att(532,1010).
att(448,289).
att(532,1015).
att(448,276).
att(532,998).
att(539,881).
att(539,894).
att(539,888).
att(438,296).
att(434,161).
att(560,1268).
att(395,164).
att(393,150).
att(539,1303).
att(617,1016).
att(397,164).
att(617,1012).
att(539,1296).
att(651,886).
att(655,878).
att(399,156).
att(539,1159).
att(617,888).
att(395,190).
att(395,198).
att(399,188).
att(391,102).
att(406,198).
att(434,459).
att(375,77).
att(435,358).
att(535,1115).
att(537,1061).
att(395,100).
att(454,459).
att(406,77).
att(532,1159).
att(317,1123).
att(434,800).
att(1397,106).
att(329,1036).
att(1410,196).
att(1403,74).
att(1394,95).
att(446,873).
att(316,972).
att(320,1116).
att(1410,94).
att(317,956).
att(1410,95).
att(561,77).
att(564,198).
att(561,86).
att(548,150).
att(1408,74).
att(441,790).
att(320,1087).
att(570,206).
att(1404,96).
att(484,408).
att(478,322).
att(705,1061).
att(329,962).
att(316,898).
att(703,1128).
att(551,96).
att(464,408).
att(481,370).
att(486,304).
att(561,52).
att(560,47).
att(561,59).
att(1394,74).
att(482,409).
att(466,453).
att(567,100).
att(448,962).
att(562,338).
att(441,1011).
att(564,341).
att(1410,372).
att(444,1023).
att(448,1088).
att(434,1029).
att(525,88).
att(551,364).
att(444,902).
att(561,232).
att(1407,274).
att(567,372).
att(1394,138).
att(441,924).
att(1403,301).
att(560,276).
att(1397,366).
att(567,208).
att(532,47).
att(1409,338).
att(1409,332).
att(446,916).
att(1405,332).
att(1410,459).
att(1373,100).
att(1410,409).
att(703,1332).
att(1381,44).
att(316,1068).
att(560,147).
att(451,918).
att(1409,370).
att(684,1219).
att(444,844).
att(444,838).
att(1373,44).
att(1379,96).
att(434,852).
att(313,1196).
att(1403,360).
att(457,918).
att(684,1264).
att(1403,358).
att(1403,368).
att(583,1268).
att(1376,88).
att(1382,188).
att(577,1151).
att(461,141).
att(329,803).
att(587,1307).
att(1380,147).
att(609,1073).
att(1368,96).
att(1404,443).
att(1404,459).
att(481,106).
att(1397,341).
att(1382,88).
att(1378,75).
att(333,787).
att(1373,88).
att(506,453).
att(512,338).
att(1374,299).
att(1368,159).
att(1382,238).
att(511,368).
att(587,1187).
att(508,243).
att(1381,156).
att(484,57).
att(1376,200).
att(610,969).
att(1378,193).
att(655,1334).
att(488,52).
att(496,335).
att(587,1070).
att(612,958).
att(316,920).
att(609,1345).
att(703,961).
att(564,61).
att(481,238).
att(562,44).
att(336,1017).
att(464,332).
att(320,1031).
att(339,1011).
att(570,52).
att(313,904).
att(1340,104).
att(684,1012).
att(317,852).
att(575,1337).
att(685,1128).
att(575,1334).
att(339,902).
att(464,370).
att(1378,240).
att(481,289).
att(1380,358).
att(688,1114).
att(1340,57).
att(313,859).
att(339,837).
att(583,1337).
att(323,836).
att(583,1334).
att(320,837).
att(317,859).
att(573,1338).
att(1380,453).
att(478,198).
att(316,803).
att(573,1298).
att(577,1296).
att(464,296).
att(333,840).
att(466,286).
att(690,1010).
att(1339,82).
att(1340,77).
att(329,860).
att(1340,1126).
att(649,242).
att(512,889).
att(653,242).
att(1378,1359).
att(496,1023).
att(619,364).
att(506,838).
att(395,1164).
att(508,852).
att(651,299).
att(508,850).
att(391,1165).
att(511,844).
att(402,1164).
att(649,159).
att(402,1202).
att(506,859).
att(615,289).
att(404,1212).
att(1339,1195).
att(506,797).
att(628,293).
att(510,803).
att(1339,1061).
att(494,836).
att(628,276).
att(406,1071).
att(466,864).
att(484,869).
att(609,192).
att(612,188).
att(496,1199).
att(506,962).
att(575,196).
att(506,1125).
att(615,459).
att(508,1029).
att(1340,1334).
att(508,1023).
att(583,196).
att(518,967).
att(575,84).
att(649,370).
att(496,1026).
att(621,364).
att(615,301).
att(651,358).
att(575,94).
att(575,106).
att(631,453).
att(628,443).
att(575,95).
att(393,838).
att(444,1199).
att(444,1215).
att(537,299).
att(536,276).
att(434,1165).
att(406,911).
att(532,343).
att(434,1199).
att(375,902).
att(532,342).
att(400,846).
att(448,1196).
att(527,138).
att(397,864).
att(539,150).
att(435,972).
att(441,1088).
att(532,164).
att(444,1129).
att(395,813).
att(441,1118).
att(404,860).
att(457,1081).
att(397,803).
att(402,859).
att(402,866).
att(523,150).
att(525,138).
att(532,190).
att(435,1031).
att(561,302).
att(567,411).
att(539,75).
att(375,869).
att(527,198).
att(560,409).
att(395,968).
att(395,967).
att(400,1129).
att(494,793).
att(391,1011).
att(651,86).
att(375,1081).
att(406,1129).
att(628,164).
att(391,887).
att(521,409).
att(397,1029).
att(651,104).
att(404,966).
att(651,94).
att(540,325).
att(1404,61).
att(525,301).
att(402,1031).
att(521,325).
att(397,887).
att(525,341).
att(527,341).
att(619,102).
att(617,95).
att(521,372).
att(631,52).
att(628,47).
att(537,238).
att(1408,54).
att(397,907).
att(539,249).
att(1408,59).
att(406,885).
att(532,304).
att(448,56).
att(521,800).
att(1410,886).
att(1403,884).
att(446,64).
att(1213,1383).
att(560,898).
att(316,162).
att(317,154).
att(438,14).
att(1190,1346).
att(441,20).
att(678,325).
att(454,72).
att(684,335).
att(548,956).
att(690,443).
att(567,1013).
att(1186,1324).
att(1213,1411).
att(435,9).
att(560,913).
att(703,243).
att(323,157).
att(685,338).
att(1409,969).
att(435,6).
att(1410,1126).
att(339,292).
att(564,887).
att(690,301).
att(1407,971).
att(1064,1478).
att(339,284).
att(1403,971).
att(1186,1360).
att(1197,1262).
att(457,3).
att(1072,1511).
att(481,1165).
att(329,207).
att(1085,1475).
att(680,238).
att(570,920).
att(1066,1477).
att(567,911).
att(448,151).
att(535,852).
att(1197,1497).
att(1158,1350).
att(1200,1511).
att(1210,1474).
att(1207,1493).
att(1186,1497).
att(1402,1113).
att(1160,1360).
att(1408,1208).
att(540,916).
att(404,28).
att(1189,1502).
att(451,202).
att(1397,953).
att(1197,1442).
att(434,101).
att(1197,1426).
att(560,1068).
att(1207,1500).
att(454,202).
att(1158,1252).
att(537,844).
att(444,89).
att(434,89).
att(1207,1478).
att(527,924).
att(560,1206).
att(1189,1424).
att(1207,1429).
att(1200,1466).
att(446,105).
att(1379,897).
att(523,838).
att(567,1071).
att(570,1036).
att(434,105).
att(539,859).
att(1200,1366).
att(560,956).
att(434,68).
att(564,1120).
att(1200,1385).
att(532,866).
att(539,800).
att(523,862).
att(1189,1385).
att(1402,1086).
att(1194,1448).
att(682,47).
att(317,34).
att(575,341).
att(484,1034).
att(488,1031).
att(486,1023).
att(583,459).
att(1065,1360).
att(1373,1012).
att(1379,971).
att(589,450).
att(329,17).
att(326,14).
att(589,408).
att(692,52).
att(690,47).
att(339,26).
att(1065,1262).
att(583,325).
att(1065,1254).
att(1075,1343).
att(323,30).
att(589,338).
att(480,846).
att(508,1206).
att(612,293).
att(685,57).
att(609,276).
att(481,837).
att(326,6).
att(1379,1061).
att(326,9).
att(1365,958).
att(690,59).
att(466,844).
att(589,289).
att(609,147).
att(1403,1332).
att(1404,1345).
att(484,846).
att(486,840).
att(1376,969).
att(612,150).
att(583,247).
att(1378,971).
att(1402,1248).
att(339,7).
att(1402,1264).
att(1082,1500).
att(480,1081).
att(313,99).
att(561,866).
att(1082,1512).
att(481,1087).
att(678,276).
att(480,1077).
att(451,3).
att(481,1074).
att(1069,1504).
att(682,274).
att(339,199).
att(682,276).
att(682,289).
att(480,1129).
att(560,803).
att(478,1112).
att(1380,1208).
att(692,153).
att(542,840).
att(1065,1385).
att(484,1081).
att(1382,1211).
att(682,164).
att(1065,1391).
att(326,111).
att(551,846).
att(548,838).
att(690,280).
att(1062,1444).
att(1374,1061).
att(1072,1366).
att(313,65).
att(1368,1149).
att(612,450).
att(1072,1384).
att(1072,1385).
att(323,49).
att(323,60).
att(1066,1456).
att(545,864).
att(1339,1033).
att(1378,1303).
att(339,101).
att(488,1116).
att(690,164).
att(313,14).
att(1365,1214).
att(1380,1307).
att(1062,1320).
att(1341,878).
att(1069,1415).
att(482,967).
att(1380,1268).
att(678,77).
att(1376,1201).
att(610,338).
att(678,84).
att(464,1116).
att(1085,1387).
att(481,1008).
att(1065,1320).
att(542,787).
att(1340,886).
att(329,64).
att(336,55).
att(615,1212).
att(1365,401).
att(514,90).
att(589,836).
att(619,1209).
att(1295,1442).
att(1302,1497).
att(1270,1498).
att(587,924).
att(1220,1256).
att(1341,142).
att(587,859).
att(1302,1473).
att(1302,1467).
att(1365,410).
att(1380,492).
att(651,1129).
att(619,1068).
att(1308,1471).
att(1339,137).
att(649,1037).
att(587,852).
att(1340,152).
att(619,1077).
att(649,966).
att(573,803).
att(653,968).
att(573,797).
att(510,69).
att(655,956).
att(619,1112).
att(1152,1519).
att(1368,513).
att(651,1034).
att(651,1017).
att(1299,1324).
att(1376,485).
att(619,972).
att(510,16).
att(514,68).
att(391,284).
att(631,1123).
att(1293,1326).
att(1373,489).
att(391,300).
att(1340,241).
att(655,1017).
att(508,294).
att(589,962).
att(488,14).
att(1072,323).
att(1263,1400).
att(610,1031).
att(323,764).
att(577,972).
att(575,954).
att(685,806).
att(1255,1314).
att(589,1008).
att(514,287).
att(1082,326).
att(1082,320).
att(1082,336).
att(1295,1516).
att(466,40).
att(609,924).
att(464,30).
att(612,909).
att(583,1034).
att(494,294).
att(480,2).
att(1302,1516).
att(587,1011).
att(649,1202).
att(508,90).
att(512,197).
att(512,207).
att(1299,1442).
att(508,89).
att(1308,1512).
att(1263,1249).
att(1339,401).
att(1293,1440).
att(1340,563).
att(521,1081).
att(400,113).
att(397,56).
att(651,813).
att(1162,1471).
att(404,109).
att(1162,1448).
att(1148,1473).
att(1148,1450).
att(435,294).
att(402,58).
att(536,956).
att(1162,1371).
att(397,69).
att(539,970).
att(1148,1389).
att(406,49).
att(619,797).
att(536,1017).
att(1150,1314).
att(406,12).
att(537,1026).
att(402,66).
att(521,954).
att(537,1023).
att(1152,1322).
att(444,294).
att(1186,1514).
att(523,962).
att(406,66).
att(535,1029).
att(540,1034).
att(1150,1360).
att(391,2).
att(1158,1328).
att(451,294).
att(1158,1326).
att(1160,1320).
att(402,14).
att(1203,1493).
att(1144,1351).
att(1162,1316).
att(1304,1312).
att(395,114).
att(508,26).
att(397,162).
att(397,165).
att(1308,1322).
att(619,1029).
att(1144,1478).
att(496,72).
att(496,30).
att(1160,1480).
att(393,189).
att(400,148).
att(1302,1343).
att(395,191).
att(1152,1512).
att(402,160).
att(506,2).
att(510,2).
att(617,882).
att(1293,1252).
att(1150,1480).
att(1156,1513).
att(512,3).
att(537,1215).
att(512,8).
att(395,85).
att(404,189).
att(1162,1498).
att(617,911).
att(404,197).
att(402,191).
att(395,113).
att(1148,1466).
att(649,859).
att(402,85).
att(651,869).
att(651,862).
att(628,907).
att(540,1074).
att(404,80).
att(406,83).
att(1323,1348).
att(1397,109).
att(551,157).
att(1317,1249).
att(1310,1321).
att(441,870).
att(1213,539).
att(444,865).
att(1276,538).
att(444,874).
att(527,20).
att(1352,1517).
att(1394,99).
att(1403,85).
att(1313,1320).
att(1403,91).
att(448,870).
att(551,191).
att(1272,576).
att(1203,464).
att(1277,582).
att(1284,613).
att(1407,55).
att(1276,572).
att(1407,97).
att(444,798).
att(537,6).
att(457,874).
att(949,660).
att(1403,105).
att(570,207).
att(1186,484).
att(1065,690).
att(1404,157).
att(1280,656).
att(1331,1502).
att(562,91).
att(1062,705).
att(692,1196).
att(1284,648).
att(561,99).
att(564,85).
att(532,2).
att(1410,139).
att(1284,654).
att(1310,1246).
att(1197,510).
att(1410,281).
att(1378,36).
att(1336,1502).
att(1282,652).
att(1313,1243).
att(1213,488).
att(434,770).
att(561,56).
att(1064,610).
att(1403,202).
att(551,103).
att(1272,648).
att(1397,78).
att(316,901).
att(317,880).
att(561,55).
att(680,1087).
att(1075,680).
att(1349,1389).
att(564,109).
att(316,883).
att(690,1165).
att(1407,201).
att(1333,1441).
att(1374,3).
att(313,1027).
att(329,1027).
att(1186,400).
att(1060,705).
att(1310,1442).
att(1156,511).
att(1200,690).
att(1368,15).
att(400,823).
att(1158,511).
att(444,1032).
att(537,113).
att(1327,1444).
att(393,752).
att(1200,682).
att(1277,681).
att(525,85).
att(1154,393).
att(1186,685).
att(397,761).
att(1152,399).
att(391,760).
att(1189,684).
att(1190,685).
att(1310,1504).
att(1189,678).
att(1272,704).
att(1189,688).
att(1317,1444).
att(1365,20).
att(1158,375).
att(536,56).
att(1394,160).
att(535,67).
att(1404,284).
att(1207,692).
att(1376,30).
att(406,766).
att(1284,719).
att(391,764).
att(1200,579).
att(457,1030).
att(1286,555).
att(402,754).
att(1160,399).
att(1162,400).
att(1276,709).
att(1152,435).
att(1378,19).
att(1407,292).
att(1319,1363).
att(434,893).
att(1315,1466).
att(1368,30).
att(1380,72).
att(1272,716).
att(1162,406).
att(1194,678).
att(441,915).
att(406,735).
att(1200,628).
att(1284,723).
att(1368,56).
att(395,732).
att(402,774).
att(1232,541).
att(521,58).
att(1349,1517).
att(397,732).
att(1329,1417).
att(1232,553).
att(1276,720).
att(1378,105).
att(1230,544).
att(1274,722).
att(540,68).
att(1197,573).
att(457,899).
att(404,772).
att(1144,323).
att(1289,580).
att(1317,1398).
att(1272,728).
att(1349,1475).
att(448,915).
att(402,736).
att(441,839).
att(521,70).
att(1311,1395).
att(539,15).
att(525,71).
att(1162,336).
att(1378,51).
att(539,19).
att(527,71).
att(404,764).
att(1289,611).
att(1317,1322).
att(1374,53).
att(1365,71).
att(539,18).
att(1253,1423).
att(1373,202).
att(320,798).
att(551,8).
att(478,78).
att(690,913).
att(1065,514).
att(317,828).
att(1082,542).
att(320,788).
att(482,189).
att(1226,630).
att(1339,3).
att(326,788).
att(545,40).
att(705,837).
att(1378,199).
att(705,836).
att(329,791).
att(1247,1513).
att(682,907).
att(466,158).
att(1368,97).
att(703,869).
att(1066,508).
att(1232,650).
att(1266,1429).
att(1286,679).
att(1286,677).
att(680,836).
att(1291,677).
att(1382,202).
att(333,804).
att(612,1087).
att(1263,1443).
att(1373,80).
att(1378,90).
att(1289,675).
att(1365,99).
att(1062,494).
att(1379,205).
att(339,812).
att(1066,466).
att(1365,109).
att(339,753).
att(684,803).
att(1226,679).
att(1260,1444).
att(1368,157).
att(609,1123).
att(684,813).
att(678,862).
att(610,1116).
att(692,859).
att(316,778).
att(577,1087).
att(326,757).
att(1082,516).
att(684,871).
att(579,1087).
att(690,846).
att(589,1165).
att(1257,1430).
att(688,840).
att(1374,157).
att(573,1123).
att(1066,434).
att(573,1125).
att(466,53).
att(1368,201).
att(609,967).
att(1286,712).
att(1374,158).
att(1368,197).
att(316,762).
att(1225,676).
att(685,869).
att(316,739).
att(480,72).
att(577,1116).
att(1289,712).
att(317,732).
att(1066,400).
att(1379,294).
att(1379,297).
att(587,1068).
att(329,778).
att(1225,702).
att(1069,575).
att(451,760).
att(441,783).
att(685,1081).
att(1203,438).
att(1234,557).
att(1240,554).
att(1289,727).
att(1174,531).
att(1223,715).
att(1172,538).
att(438,739).
att(1226,722).
att(1253,1521).
att(560,20).
att(1236,578).
att(542,49).
att(1232,724).
att(441,736).
att(448,780).
att(1230,725).
att(1331,1366).
att(545,53).
att(1240,576).
att(1339,63).
att(1186,323).
att(1336,1371).
att(1168,544).
att(313,865).
att(1225,730).
att(564,20).
att(317,875).
att(448,737).
att(705,902).
att(1176,580).
att(1255,1493).
att(1082,655).
att(690,964).
att(1213,326).
att(1250,1518).
att(1247,1515).
att(1236,658).
att(692,904).
att(1240,648).
att(560,2).
att(1339,80).
att(1065,481).
att(561,2).
att(690,1008).
att(1250,1480).
att(488,739).
att(514,905).
att(609,66).
att(1370,1389).
att(1270,688).
att(1308,577).
att(1293,649).
att(1266,438).
att(651,251).
att(1386,1321).
att(1386,1318).
att(577,14).
att(1390,1324).
att(609,16).
att(583,58).
att(610,14).
att(1370,1421).
att(575,72).
att(976,554).
att(1364,1314).
att(1372,1342).
att(1306,536).
att(1396,1517).
att(615,284).
att(1412,1482).
att(610,30).
att(510,863).
att(975,538).
att(619,250).
att(1390,1360).
att(1422,1474).
att(511,857).
att(619,287).
att(975,553).
att(1297,488).
att(512,870).
att(506,814).
att(1297,464).
att(986,614).
att(995,616).
att(992,614).
att(651,191).
att(1420,1513).
att(979,613).
att(628,287).
att(516,865).
att(1340,1068).
att(1412,1495).
att(974,580).
att(1453,1314).
att(1064,1203).
att(1263,551).
att(573,154).
att(1445,1348).
att(685,14).
att(1449,1343).
att(587,250).
att(1472,1252).
att(484,857).
att(575,139).
att(690,15).
att(486,865).
att(974,614).
att(986,679).
att(1060,1060).
att(1253,506).
att(1263,478).
att(480,821).
att(480,823).
att(975,648).
att(1392,1423).
att(1066,1156).
att(1250,393).
att(508,1032).
att(1388,1444).
att(1370,1424).
att(1390,1469).
att(1367,1442).
att(1072,1065).
att(480,755).
att(511,1030).
att(1072,1072).
att(982,687).
att(1457,1259).
att(1457,1262).
att(486,823).
att(1386,1424).
att(1372,1442).
att(1455,1249).
att(1250,438).
att(496,1027).
att(1306,705).
att(508,893).
att(612,63).
att(1257,494).
att(1220,510).
att(511,899).
att(1085,1085).
att(395,855).
att(395,847).
att(938,544).
att(938,557).
att(621,17).
att(1154,523).
att(944,544).
att(514,762).
att(1162,617).
att(617,66).
att(941,553).
att(1406,1387).
att(976,723).
att(1319,1514).
att(975,720).
att(1401,1421).
att(1317,1517).
att(619,73).
att(1308,320).
att(976,728).
att(1158,527).
att(976,731).
att(649,30).
att(402,839).
att(1154,548).
att(649,28).
att(395,861).
att(982,729).
att(521,281).
att(404,841).
att(653,36).
att(1002,611).
att(1319,1480).
att(1317,1476).
att(391,875).
att(1144,570).
att(619,20).
att(941,586).
att(393,804).
att(1311,1474).
att(1311,1482).
att(1319,1442).
att(1319,1426).
att(1323,1513).
att(527,189).
att(521,139).
att(1327,1498).
att(1144,464).
att(1162,567).
att(1154,482).
att(628,15).
att(1403,9).
att(1406,1314).
att(619,34).
att(1406,1243).
att(929,625).
att(1310,1497).
att(1310,1494).
att(631,3).
att(1311,1495).
att(1154,518).
att(941,650).
att(404,809).
att(1329,1424).
att(523,189).
att(395,823).
att(1160,488).
att(1144,510).
att(406,804).
att(1148,464).
att(406,809).
att(1404,20).
att(1364,1259).
att(653,90).
att(1407,30).
att(649,78).
att(1407,15).
att(1370,1249).
att(1403,13).
att(1308,464).
att(577,6).
att(1406,1484).
att(1401,1511).
att(1396,1430).
att(395,1018).
att(1295,391).
att(395,1028).
att(1416,1473).
att(615,80).
att(1154,688).
att(649,97).
att(508,760).
att(619,91).
att(1408,17).
att(514,831).
att(514,828).
att(516,823).
att(631,202).
att(518,833).
att(1293,404).
att(938,717).
att(395,903).
att(400,1032).
att(1397,71).
att(1407,64).
att(402,1018).
att(649,55).
att(496,755).
att(1302,391).
att(395,896).
att(944,717).
att(510,778).
att(508,770).
att(391,890).
att(1150,688).
att(1416,1444).
att(1412,1387).
att(1293,457).
att(1394,71).
att(929,719).
att(496,780).
att(649,70).
att(1405,14).
att(391,841).
att(1319,1516).
att(1410,64).
att(1420,1417).
att(395,910).
att(397,923).
att(1407,14).
att(1272,531).
att(1297,313).
att(402,903).
att(1401,1366).
att(1154,655).
att(397,910).
att(1158,685).
att(1401,1391).
att(1403,72).
att(375,1030).
att(1406,1456).
att(1274,541).
att(1401,1385).
att(1156,1210).
att(1150,1062).
att(1158,1197).
att(1325,518).
att(1150,1060).
att(525,801).
att(561,903).
att(1317,435).
att(1404,924).
att(1358,705).
att(1156,1060).
att(1160,1062).
att(539,760).
att(1361,684).
att(1408,882).
att(1410,904).
att(537,752).
att(1213,1406).
att(1323,494).
att(1347,692).
att(1402,846).
att(570,1009).
att(1329,391).
att(1329,406).
att(1213,1412).
att(1310,404).
att(1200,1331).
att(525,772).
att(1200,1358).
att(527,772).
att(1331,682).
att(1407,964).
att(1329,448).
att(1405,967).
att(1333,705).
att(1380,803).
att(551,1024).
att(1329,441).
att(551,1032).
att(527,734).
att(527,737).
att(1327,333).
att(564,919).
att(1409,1031).
att(523,780).
att(1336,583).
att(1327,336).
att(1358,655).
att(1315,438).
att(1203,1255).
att(539,739).
att(551,900).
att(1145,1301).
att(628,780).
att(1405,1116).
att(539,908).
att(617,774).
att(1373,864).
att(1379,850).
att(540,910).
att(532,1032).
att(1380,838).
att(1144,1250).
att(1402,1129).
att(653,732).
att(1315,610).
att(1323,589).
att(653,739).
att(1162,1344).
att(1403,1084).
att(1150,1270).
att(1144,1144).
att(1406,320).
att(1160,1257).
att(523,922).
att(1152,1308).
att(1397,968).
att(1409,1116).
att(521,919).
att(1145,1145).
att(539,839).
att(1378,811).
att(539,854).
att(1401,323).
att(532,903).
att(540,839).
att(1394,966).
att(525,919).
att(1310,540).
att(1150,1160).
att(1310,525).
att(532,855).
att(1310,521).
att(1310,523).
att(1158,1293).
att(1203,1453).
att(1382,909).
att(1379,887).
att(1186,1451).
att(1373,909).
att(1156,1218).
att(1189,1451).
att(1317,562).
att(1144,1150).
att(1380,898).
att(535,829).
att(1381,837).
att(1368,860).
att(1310,564).
att(1381,836).
att(1394,1084).
att(1148,1203).
att(521,867).
att(1313,545).
att(1376,873).
att(535,823).
att(1325,488).
att(1382,840).
att(535,819).
att(1405,1087).
att(1160,1145).
att(1373,837).
att(1213,1447).
att(521,857).
att(1162,1145).
att(1379,914).
att(527,875).
att(1447,1456).
att(1445,1469).
att(1368,892).
att(484,1027).
att(1065,1358).
att(564,760).
att(1065,1331).
att(1072,1323).
att(480,880).
att(1347,434).
att(562,757).
att(678,107).
att(1207,1082).
att(1075,1319).
att(1449,1466).
att(548,833).
att(1255,610).
att(1266,692).
att(1378,1029).
att(1374,1008).
att(1072,1331).
att(1069,1355).
att(1468,1413).
att(684,73).
att(484,880).
att(1253,655).
att(1470,1421).
att(1381,902).
att(484,901).
att(564,772).
att(682,56).
att(1075,1347).
att(1082,1327).
att(1333,375).
att(1472,1421).
att(684,58).
att(1336,406).
att(1468,1363).
att(682,60).
att(464,1027).
att(1368,964).
att(482,922).
att(1069,1218).
att(1368,962).
att(1082,1352).
att(486,922).
att(564,736).
att(1263,621).
att(692,65).
att(480,839).
att(562,739).
att(1263,631).
att(1220,573).
att(1218,610).
att(478,923).
att(1250,631).
att(1373,1120).
att(688,55).
att(1361,326).
att(1380,1068).
att(1250,570).
att(1367,1514).
att(1380,1123).
att(1380,1125).
att(609,165).
att(690,17).
att(1062,1160).
att(685,72).
att(703,30).
att(1082,1257).
att(1368,1031).
att(1082,1260).
att(1368,1034).
att(1376,1008).
att(482,843).
att(1367,1516).
att(1372,1514).
att(612,151).
att(1449,1324).
att(1472,1346).
att(1370,1517).
att(1340,797).
att(1386,1515).
att(1336,333).
att(1340,813).
att(1247,521).
att(1331,628).
att(1470,1474).
att(1447,1517).
att(561,861).
att(1336,617).
att(1339,909).
att(1378,1199).
att(564,841).
att(1315,323).
att(703,251).
att(551,923).
att(685,251).
att(1189,1200).
att(570,791).
att(684,191).
att(1069,1451).
att(1186,1186).
att(570,788).
att(1197,1154).
att(1189,1189).
att(1197,1152).
att(545,845).
att(682,165).
att(564,867).
att(1200,1145).
att(1449,1477).
att(570,863).
att(1340,842).
att(551,851).
att(548,843).
att(551,847).
att(1344,548).
att(1365,1118).
att(1340,1034).
att(1072,1377).
att(684,89).
att(1194,1194).
att(1341,1017).
att(1210,1156).
att(1355,481).
att(1472,1424).
att(560,819).
att(562,798).
att(1347,508).
att(1455,1492).
att(1085,1457).
att(1200,1200).
att(1453,1493).
att(1358,488).
att(1336,567).
att(1203,1203).
att(1365,1196).
att(561,757).
att(1072,1401).
att(682,85).
att(1200,1065).
att(1200,1072).
att(561,754).
att(1468,1424).
att(690,197).
att(1340,898).
att(612,872).
att(1293,1445).
att(583,919).
att(1075,146).
att(1072,152).
att(1218,1218).
att(1386,525).
att(1220,1253).
att(1266,1301).
att(1372,535).
att(1266,1297).
att(1218,1255).
att(1367,560).
att(1299,1390).
att(573,863).
att(1260,1152).
att(575,867).
att(612,801).
att(587,839).
att(1386,548).
att(1372,560).
att(1377,536).
att(1293,1390).
att(575,809).
att(1367,478).
att(1266,1203).
att(1339,368).
att(1247,1207).
att(577,798).
att(583,867).
att(1218,1154).
att(1377,542).
att(649,1028).
att(653,1028).
att(653,1030).
att(1260,1082).
att(1422,705).
att(1263,1062).
att(1422,680).
att(653,1035).
att(587,798).
att(1372,508).
att(575,821).
att(1295,1393).
att(1069,334).
att(1260,1396).
att(1257,1422).
att(1388,688).
att(703,755).
att(1453,464).
att(684,755).
att(1333,1210).
att(1266,1396).
att(1392,680).
att(1453,488).
att(1331,1200).
att(1472,406).
att(1457,482).
att(682,826).
att(1445,404).
att(684,780).
att(1468,448).
att(1370,692).
att(1331,1065).
att(1370,682).
att(1370,684).
att(690,828).
att(1386,655).
att(1247,1247).
att(1072,237).
att(1367,579).
att(612,910).
att(685,755).
att(583,1021).
att(1447,434).
att(1253,1253).
att(1065,279).
att(1255,1255).
att(1372,579).
att(1372,609).
att(1457,316).
att(690,764).
att(1457,329).
att(1072,279).
att(1062,142).
att(1372,619).
att(685,780).
att(1218,1355).
att(1453,438).
att(575,919).
att(587,883).
att(1247,1266).
att(1377,579).
att(1386,615).
att(587,890).
att(1075,275).
att(1247,1218).
att(1266,1266).
att(1418,482).
att(1158,1457).
att(1158,1445).
att(651,798).
att(1160,1451).
att(1299,1186).
att(1420,488).
att(628,853).
att(653,788).
att(1412,464).
att(619,872).
att(1158,1386).
att(1416,511).
att(1158,1377).
att(617,809).
att(1420,494).
att(1162,1390).
att(617,804).
att(1420,518).
att(1412,516).
att(1412,518).
att(1412,512).
att(628,868).
att(655,833).
att(1145,1393).
att(1148,1364).
att(1158,1416).
att(1327,688).
att(1145,1344).
att(1156,1422).
att(535,893).
att(1323,705).
att(1396,518).
att(615,833).
att(1302,1062).
att(651,755).
att(1329,705).
att(1406,486).
att(619,829).
att(1422,399).
att(532,1021).
att(1412,326).
att(532,1035).
att(532,1018).
att(1396,393).
att(525,1021).
att(1317,583).
att(1315,688).
att(539,893).
att(628,826).
att(1319,589).
att(628,828).
att(1416,375).
att(619,757).
att(527,1028).
att(619,761).
att(1162,1317).
att(579,780).
att(1372,434).
att(1396,705).
att(589,752).
att(615,1021).
att(1420,589).
att(1401,682).
att(1370,402).
att(575,760).
att(1367,397).
att(587,828).
att(621,1024).
att(1372,397).
att(619,1024).
att(1416,688).
att(1297,1266).
att(1372,317).
att(1416,649).
att(573,778).
att(1418,655).
att(619,893).
att(619,905).
att(1270,1327).
att(587,732).
att(1295,1295).
att(1396,655).
att(1297,1297).
att(1370,336).
att(575,738).
att(1370,333).
att(1293,1299).
att(1412,539).
att(1295,1218).
att(621,923).
att(1301,1301).
att(628,905).
att(1418,548).
att(1405,793).
att(628,845).
att(1295,1150).
att(615,841).
att(1402,806).
att(651,865).
att(1375,316).
att(1377,336).
att(1308,1301).
att(1403,869).
att(1308,1308).
att(1310,1329).
att(1310,1310).
att(1323,1355).
att(1200,563).
att(1311,1311).
att(1186,571).
att(1315,1315).
att(1319,1295).
att(1210,549).
att(1200,485).
att(1315,1358).
att(1150,163).
att(1310,1266).
att(1156,282).
att(1190,373).
att(1347,1447).
att(1150,140).
att(1327,1270).
att(1213,485).
att(1323,1218).
att(1329,1301).
att(1154,142).
att(1158,152).
att(1311,1302).
att(1194,519).
att(1317,1162).
att(1270,140).
att(1302,163).
att(1154,374).
att(1393,1301).
att(1416,1144).
att(1329,1470).
att(1329,1451).
att(1401,1306).
att(1148,445).
att(1393,1145).
att(1158,403).
att(1311,1449).
att(1162,403).
att(1317,1388).
att(1310,1386).
att(1401,1065).
att(1401,1062).
att(1152,331).
att(1416,1064).
att(1401,1200).
att(1412,1085).
att(1310,1416).
att(1317,1344).
att(1190,558).
att(1396,1082).
att(1158,321).
att(1162,303).
att(1162,331).
att(1329,1313).
att(1396,1060).
att(1162,330).
att(1315,1422).
att(1315,1418).
att(1329,1329).
att(1194,277).
att(1069,485).
att(690,912).
att(1445,615).
att(1445,617).
att(1200,279).
att(1065,495).
att(1331,1331).
att(1347,1297).
att(1361,1220).
att(1085,563).
att(1069,558).
att(1457,610).
att(1066,563).
att(1066,549).
att(1336,1352).
att(1445,536).
att(1344,1145).
att(684,863).
att(703,857).
att(1065,376).
att(1255,1453).
att(1455,621).
att(1075,497).
att(1066,460).
att(682,853).
att(1451,536).
att(1069,407).
att(1082,492).
att(1085,517).
att(684,821).
att(1347,1066).
att(1347,1064).
att(1349,1085).
att(1069,442).
att(1250,1364).
att(690,868).
att(1197,439).
att(1189,324).
att(1197,455).
att(1319,1062).
att(1313,1156).
att(1310,1207).
att(1355,1399).
att(1347,1323).
att(1190,363).
att(1472,678).
att(1470,705).
att(1344,1418).
att(1349,1361).
att(1331,1401).
att(1347,1347).
att(1311,1075).
att(1451,688).
att(1213,340).
att(1447,589).
att(684,910).
att(1189,279).
att(1352,1352).
att(1472,649).
att(685,1027).
att(1065,487).
att(1197,233).
att(685,1032).
att(705,925).
att(1472,615).
att(1472,617).
att(1065,471).
att(1355,1355).
att(1200,239).
att(1358,1358).
att(1445,685).
att(1194,367).
att(1336,1327).
att(1361,1361).
att(1451,579).
att(782,614).
att(1367,1377).
att(1457,1203).
att(1386,1420).
att(1066,965).
att(1247,330).
att(1364,1364).
att(1069,958).
att(777,616).
att(1372,1367).
att(767,580).
att(1370,1370).
att(779,614).
att(1247,410).
att(1250,365).
att(1253,359).
att(1447,1066).
att(1453,1203).
att(1064,884).
att(779,648).
att(1065,877).
att(1449,1075).
att(767,648).
att(1066,877).
att(1392,1355).
att(1370,1327).
att(1370,1329).
att(779,673).
att(1075,897).
att(1082,1012).
att(1293,565).
att(1250,295).
att(769,677).
att(777,711).
att(1370,1331).
att(782,712).
att(1220,359).
att(1263,552).
att(1064,1195).
att(1347,285).
att(1085,1307).
att(1358,239).
att(1349,285).
att(1213,881).
att(779,721).
att(1347,163).
att(1352,285).
att(1062,1061).
att(1468,1301).
att(769,715).
att(1260,460).
att(1457,1253).
att(1060,1061).
att(777,726).
att(1470,1306).
att(1472,1293).
att(1065,1076).
att(1082,1151).
att(773,721).
att(1331,239).
att(1361,277).
att(751,715).
att(1455,1361).
att(767,723).
att(769,727).
att(1260,492).
att(1331,279).
att(1445,1293).
att(1072,1086).
att(1449,1302).
att(1331,285).
att(1257,462).
att(1075,1076).
att(1445,1158).
att(1386,1386).
att(1247,442).
att(1064,965).
att(1372,1447).
att(1266,405).
att(1370,1468).
att(1390,1390).
att(1247,407).
att(1085,1086).
att(1364,1064).
att(1367,1066).
att(1364,1062).
att(1396,1396).
att(1401,1420).
att(1293,367).
att(1293,277).
att(1406,1418).
att(1412,1352).
att(1293,246).
att(1293,248).
att(1406,1406).
att(1293,129).
att(1406,1349).
att(1158,556).
att(1420,1218).
att(1401,1331).
att(1306,241).
att(1422,1257).
att(1299,285).
att(1293,282).
att(1401,1358).
att(1152,492).
att(1145,396).
att(1412,1154).
att(1270,273).
att(1158,479).
att(1418,1306).
att(1156,549).
att(1301,142).
att(1399,1255).
att(1388,1270).
att(1386,1295).
att(1304,489).
att(1306,462).
att(1375,1352).
att(1390,1299).
att(1253,137).
att(1263,295).
att(1372,1263).
att(1302,517).
att(1370,1297).
att(1370,1306).
att(1392,1156).
att(1308,492).
att(1260,140).
att(1390,1160).
att(1370,1301).
att(1304,401).
att(1418,1388).
att(1392,1210).
att(1377,1306).
att(1401,1470).
att(1295,314).
att(1293,354).
att(1367,1210).
att(1412,1406).
att(1370,1200).
att(1422,1422).
att(1370,1203).
att(1310,489).
att(1141,715).
att(1160,1205).
att(822,528).
att(1416,145).
att(1405,925).
att(1147,729).
att(1365,734).
att(1418,142).
att(1142,717).
att(1422,163).
att(832,555).
att(1148,1114).
att(1190,1332).
att(820,550).
att(1407,845).
att(1329,403).
att(1142,725).
att(786,526).
att(820,553).
att(817,721).
att(1407,925).
att(1144,1119).
att(1401,152).
att(1323,490).
att(1394,841).
att(1317,403).
att(1154,1114).
att(822,566).
att(1310,401).
att(1317,321).
att(822,588).
att(1158,1121).
att(785,559).
att(1150,961).
att(1323,374).
att(1189,1330).
att(1394,890).
att(1376,750).
att(1397,900).
att(1378,766).
att(1311,449).
att(1378,768).
att(1190,1309).
att(1313,439).
att(1379,819).
att(1323,410).
att(830,652).
att(1194,1330).
att(1368,768).
att(1368,812).
att(1381,874).
att(1299,1019).
att(827,679).
att(1379,845).
att(1162,1353).
att(1399,412).
att(824,660).
att(1162,1362).
att(1412,234).
att(1406,340).
att(784,654).
att(785,660).
att(1152,1296).
att(1160,1258).
att(1304,1033).
att(827,709).
att(1378,831).
att(1378,798).
att(832,701).
att(1148,1261).
att(1406,410).
att(1306,1012).
att(1368,843).
att(1378,908).
att(1270,1016).
att(1365,843).
att(822,713).
att(830,721).
att(1380,899).
att(1162,1296).
att(785,710).
att(1156,1161).
att(1406,239).
att(1329,485).
att(1162,1131).
att(1162,1130).
att(796,526).
att(1378,854).
att(1313,552).
att(1379,925).
att(794,526).
att(830,727).
att(1347,452).
att(1445,1445).
att(1358,401).
att(1349,449).
att(1190,969).
att(1447,1447).
att(1310,129).
att(1449,1449).
att(1368,912).
att(1069,1334).
att(1449,1375).
att(1376,917).
att(1189,998).
att(1203,961).
att(1213,1124).
att(1457,1453).
att(1203,969).
att(1336,403).
att(1347,357).
att(1468,1319).
att(1468,1329).
att(1200,1010).
att(1336,442).
att(1213,957).
att(1064,1159).
att(1066,1300).
att(1358,365).
att(1449,1311).
att(1445,1317).
att(799,681).
att(796,654).
att(1358,371).
att(1066,1264).
att(1085,1267).
att(1336,303).
att(1197,1307).
att(1152,888).
att(763,660).
att(1339,925).
att(1162,1025).
att(1189,1268).
att(1189,1269).
att(1347,485).
att(1347,467).
att(802,720).
att(799,717).
att(1327,241).
att(1194,1305).
att(1329,248).
att(1340,1032).
att(1197,1208).
att(1355,462).
att(792,715).
att(1310,244).
att(1317,140).
att(529,1348).
att(782,553).
att(777,538).
att(799,723).
att(1358,465).
att(531,1354).
att(1355,485).
att(1197,1201).
att(530,1249).
att(1327,273).
att(1203,1201).
att(1213,1157).
att(1210,1161).
att(1358,487).
att(1361,460).
att(1194,1161).
att(1315,239).
att(1329,277).
att(1213,1151).
att(765,720).
att(529,1252).
att(1323,163).
att(1344,396).
att(1358,513).
att(796,722).
att(531,1265).
att(777,572).
att(1470,1470).
att(794,724).
att(1472,1472).
att(765,723).
att(771,553).
att(524,1265).
att(1062,188).
att(1234,672).
att(1060,188).
att(1390,563).
att(1447,357).
att(1072,164).
att(531,1415).
att(1333,1033).
att(1472,246).
att(1390,571).
att(534,1320).
att(1060,156).
att(1333,1012).
att(1358,876).
att(1449,353).
att(1470,273).
att(1445,231).
att(1367,568).
att(1234,710).
att(1240,704).
att(528,1320).
att(1250,1201).
att(1174,673).
att(1082,156).
att(1370,565).
att(1072,198).
att(1470,277).
att(1220,1298).
att(1247,1159).
att(1075,188).
att(528,1473).
att(1468,163).
att(1234,712).
att(1180,531).
att(1470,140).
att(522,1423).
att(529,1469).
att(1172,717).
att(1220,1161).
att(1372,483).
att(1472,145).
att(528,1391).
att(1172,720).
att(528,1385).
att(1236,731).
att(1180,557).
att(1447,146).
att(1174,714).
att(1062,52).
att(1240,730).
att(1449,163).
att(1065,59).
att(1447,137).
att(1451,152).
att(522,1444).
att(1191,572).
att(1455,295).
att(1168,717).
att(1347,1115).
att(554,1246).
att(1186,50).
att(550,1351).
att(1189,46).
att(530,1502).
att(1190,57).
att(1178,572).
att(1449,513).
att(550,1262).
att(1062,332).
att(1066,453).
att(1213,75).
att(1135,572).
att(1253,1338).
att(1331,1086).
att(1064,247).
att(1178,622).
att(1210,108).
att(534,1446).
att(1200,54).
att(1200,59).
att(1132,566).
att(1186,57).
att(1361,1111).
att(1135,613).
att(1135,611).
att(1200,47).
att(1361,1128).
att(1468,324).
att(554,1320).
att(1457,458).
att(554,1318).
att(1184,657).
att(1178,660).
att(524,1515).
att(1182,648).
att(1184,660).
att(1349,1022).
att(534,1480).
att(1184,658).
att(1213,52).
att(1468,412).
att(1457,376).
att(1210,44).
att(1247,1337).
att(1361,963).
att(1132,616).
att(534,1493).
att(531,1478).
att(1336,1012).
att(1336,1025).
att(550,1314).
att(1445,327).
att(1072,293).
att(1352,1010).
att(1472,354).
att(1220,1338).
att(1263,1248).
att(538,1320).
att(522,1520).
att(1191,706).
att(1085,236).
att(1361,1016).
att(1133,674).
att(1396,543).
att(1377,241).
att(1409,739).
att(1293,1063).
att(1420,485).
att(1299,1205).
att(1420,462).
att(547,1385).
att(1399,563).
att(1372,235).
att(1308,1151).
att(1370,231).
att(1147,531).
att(1377,277).
att(1396,460).
att(1180,716).
att(1141,524).
att(1141,531).
att(1367,298).
att(1178,720).
att(550,1363).
att(1140,529).
att(534,1518).
att(1143,526).
att(1375,233).
att(1132,702).
att(1147,547).
att(1146,538).
att(1404,760).
att(574,1265).
att(1180,731).
att(1184,723).
att(1302,1061).
att(1408,831).
att(1182,723).
att(1367,155).
att(817,526).
att(1394,750).
att(1408,826).
att(550,1442).
att(1367,149).
att(1403,757).
att(1372,149).
att(1293,1121).
att(1372,152).
att(1135,723).
att(1308,1061).
att(1401,507).
att(1397,772).
att(1404,759).
att(554,1424).
att(1295,965).
att(816,559).
att(1133,730).
att(1420,410).
att(1420,412).
att(1147,611).
att(1394,734).
att(1403,774).
att(1406,517).
att(1143,586).
att(1397,734).
att(550,1518).
att(1247,958).
att(1297,1356).
att(574,1318).
att(1409,788).
att(541,1521).
att(574,1326).
att(1295,1345).
att(1220,1111).
att(544,1522).
att(1143,614).
att(569,1326).
att(1293,1330).
att(554,1480).
att(1072,54).
att(1402,831).
att(1301,1356).
att(1255,969).
att(1260,1113).
att(1260,1114).
att(1455,149).
att(1072,47).
att(559,1512).
att(1386,327).
att(1397,760).
att(1405,752).
att(588,1262).
att(1367,455).
att(588,1256).
att(557,1512).
att(1299,1219).
att(1407,826).
att(569,1357).
att(1263,963).
att(547,1511).
att(538,1480).
att(1394,759).
att(538,1493).
att(1394,875).
att(1141,673).
att(1141,677).
att(1367,337).
att(1140,683).
att(1297,1300).
att(817,648).
att(559,1517).
att(1147,702).
att(586,1322).
att(817,658).
att(1220,959).
att(1293,1307).
att(576,1414).
att(1397,801).
att(1404,875).
att(1418,543).
att(1141,708).
att(1386,244).
att(1416,565).
att(578,1415).
att(1388,241).
att(1410,867).
att(817,673).
att(1410,847).
att(576,1326).
att(1263,881).
att(569,1419).
att(1370,369).
att(569,1415).
att(1146,712).
att(1408,853).
att(1299,1153).
att(816,701).
att(576,1321).
att(1394,801).
att(566,1417).
att(576,1318).
att(1141,713).
att(554,1514).
att(1406,1113).
att(1416,961).
att(608,1265).
att(588,1471).
att(1329,1359).
att(1329,1353).
att(1412,969).
att(1306,44).
att(1406,957).
att(1412,888).
att(1158,245).
att(1162,208).
att(1313,1359).
att(1418,1012).
att(1317,1264).
att(1401,971).
att(582,1387).
att(1156,286).
att(1325,1268).
att(572,1480).
att(578,1476).
att(630,1259).
att(572,1493).
att(582,1502).
att(1154,150).
att(1158,276).
att(611,1360).
att(1399,1010).
att(1319,1214).
att(1406,884).
att(1406,876).
att(576,1442).
att(576,1426).
att(586,1471).
att(1396,878).
att(580,1430).
att(566,1513).
att(1317,1131).
att(1396,877).
att(1370,891).
att(1306,156).
att(1293,204).
att(1406,1216).
att(1416,1201).
att(1304,188).
att(578,1515).
att(622,1346).
att(1306,188).
att(1396,1151).
att(580,1474).
att(574,1514).
att(574,1515).
att(1393,1205).
att(1158,411).
att(1156,453).
att(620,1467).
att(1304,88).
att(1297,94).
att(1158,456).
att(620,1384).
att(1162,411).
att(1412,1083).
att(1412,1078).
att(1406,1157).
att(1422,1061).
att(1401,1208).
att(618,1391).
att(1399,1201).
att(1401,1166).
att(1401,1205).
att(622,1421).
att(1319,1345).
att(1150,370).
att(1412,965).
att(625,1411).
att(1406,1086).
att(1308,44).
att(1158,325).
att(1299,50).
att(1160,338).
att(1306,100).
att(657,1254).
att(1189,153).
att(1197,296).
att(650,1342).
att(1317,877).
att(1213,247).
att(618,1424).
att(1327,1016).
att(1210,238).
att(1336,1362).
att(1336,1356).
att(1327,1012).
att(1336,1337).
att(608,1504).
att(1315,876).
att(614,1430).
att(630,1467).
att(1189,190).
att(1323,878).
att(1472,556).
att(1210,286).
att(1213,291).
att(1315,1016).
att(1197,206).
att(1470,462).
att(522,336).
att(650,1400).
att(1358,1157).
att(1331,1307).
att(520,339).
att(1189,74).
att(1349,1166).
att(1447,549).
att(1361,1159).
att(1358,1149).
att(625,1477).
att(625,1474).
att(1194,77).
att(1331,1149).
att(1189,98).
att(630,1498).
att(1200,74).
att(1361,1208).
att(611,1480).
att(1358,1195).
att(1075,456).
att(1449,467).
att(1472,519).
att(1344,1205).
att(1468,462).
att(616,1478).
att(1190,335).
att(533,333).
att(520,399).
att(1158,194).
att(1313,1161).
att(1311,1153).
att(1189,413).
att(534,329).
att(662,1421).
att(1315,1149).
att(658,1413).
att(650,1385).
att(1203,332).
att(1197,408).
att(1317,1078).
att(1189,302).
att(652,1417).
att(1194,413).
att(1313,1204).
att(1317,958).
att(533,395).
att(650,1511).
att(1156,106).
att(1190,208).
att(1315,1114).
att(1150,44).
att(648,1513).
att(1319,965).
att(1160,96).
att(1152,52).
att(1311,1076).
att(526,518).
att(1317,1012).
att(1207,366).
att(1323,965).
att(1189,283).
att(656,1444).
att(654,1429).
att(1158,57).
att(1329,955).
att(674,1314).
att(1247,325).
att(1451,1061).
att(673,1316).
att(526,523).
att(1069,954).
att(656,1493).
att(658,1513).
att(681,1262).
att(1472,1063).
att(1072,956).
att(1468,1119).
att(657,1513).
att(1218,408).
att(1266,338).
att(1331,74).
att(1065,898).
att(1449,1083).
att(1218,459).
att(1453,1201).
att(1472,1121).
att(1218,450).
att(1255,370).
att(529,486).
att(672,1354).
att(1457,1208).
att(662,1425).
att(524,481).
att(534,518).
att(1333,77).
att(1333,88).
att(660,1517).
att(1064,909).
att(673,1371).
att(1064,916).
att(1390,1332).
att(676,1419).
att(1218,338).
att(1065,907).
att(1082,1017).
att(1331,106).
att(1075,887).
att(528,628).
att(533,532).
att(662,1515).
att(1075,879).
att(1260,243).
att(1060,837).
att(656,1520).
att(1085,906).
att(1390,1219).
att(683,1314).
att(1445,955).
att(673,1398).
att(1331,54).
att(1472,1007).
att(1218,370).
att(1085,882).
att(1247,247).
att(1085,898).
att(534,570).
att(524,540).
att(1331,47).
att(1445,1362).
att(677,1444).
att(544,512).
att(554,393).
att(674,1423).
att(1445,1330).
att(528,682).
att(1472,1219).
att(541,510).
att(1207,904).
att(555,444).
att(547,400).
att(1200,913).
att(550,393).
att(557,435).
att(524,692).
att(554,404).
att(1213,882).
att(675,1466).
att(534,610).
att(1069,1196).
att(554,441).
att(1066,1199).
att(1447,1267).
att(1347,156).
att(1072,1165).
att(1355,296).
att(1445,1251).
att(1210,918).
att(683,1421).
att(1065,1068).
att(675,1384).
att(544,375).
att(704,1357).
att(1069,1081).
att(1445,1305).
att(1468,1159).
att(1447,1309).
att(708,1265).
att(1197,871).
att(1075,1087).
att(1082,1199).
att(554,482).
att(1066,1165).
att(1210,836).
att(1085,1202).
att(687,1424).
att(673,1504).
att(1468,1204).
att(674,1497).
att(1445,1130).
att(1331,164).
att(704,1242).
att(1065,967).
att(1197,803).
att(1255,408).
att(1349,92).
att(547,514).
att(675,1430).
att(676,1440).
att(1082,1087).
att(544,464).
att(1066,1087).
att(700,1256).
att(533,688).
att(559,400).
att(1210,864).
att(1333,156).
att(704,1419).
att(1293,232).
att(572,323).
att(1367,1080).
att(1250,52).
att(683,1520).
att(1308,338).
att(559,542).
att(681,1475).
att(707,1324).
att(1367,1070).
att(1367,1073).
att(1388,1114).
att(1372,1070).
att(554,521).
att(1418,1334).
att(1412,1248).
att(550,523).
att(704,1318).
att(707,1343).
att(701,1314).
att(711,1254).
att(675,1482).
att(559,486).
att(672,1521).
att(1293,245).
att(1308,358).
att(1375,1086).
att(1364,969).
att(547,690).
att(572,393).
att(574,391).
att(1370,961).
att(1390,1010).
att(569,404).
att(706,1363).
att(1390,1019).
att(1302,343).
att(1375,1126).
att(708,1398).
att(574,448).
att(550,577).
att(557,651).
att(1306,276).
att(687,1522).
att(554,653).
att(1370,998).
att(1412,1303).
att(1370,1015).
att(700,1366).
att(554,615).
att(559,537).
att(1412,1268).
att(707,1495).
att(1250,141).
att(588,496).
att(1447,1010).
att(1065,860).
att(588,391).
att(1453,969).
att(700,1512).
att(566,481).
att(1455,963).
att(706,1426).
att(1372,1221).
att(704,1442).
att(1250,206).
att(1257,156).
att(708,1448).
att(704,1425).
att(700,1443).
att(1455,886).
att(702,1441).
att(1367,1307).
att(557,684).
att(1082,838).
att(1372,1268).
att(1455,1010).
att(709,1444).
att(586,435).
att(1372,1271).
att(1449,897).
att(711,1480).
att(720,1360).
att(1372,1187).
att(1299,443).
att(1066,793).
att(1069,813).
att(1257,188).
att(700,1520).
att(1392,1211).
att(1072,806).
att(1370,1163).
att(707,1477).
att(1220,147).
att(1218,156).
att(716,1354).
att(717,1243).
att(574,564).
att(709,1512).
att(1250,96).
att(1247,95).
att(706,1497).
att(569,564).
att(1372,1198).
att(709,1498).
att(1085,813).
att(709,1500).
att(1372,1205).
att(1150,1087).
att(578,583).
att(616,438).
att(1302,837).
att(1295,859).
att(719,1411).
att(710,1517).
att(608,446).
att(576,615).
att(713,1389).
att(1144,1077).
att(1308,842).
att(611,438).
att(1293,869).
att(1162,1202).
att(1412,75).
att(1416,206).
att(1393,150).
att(1420,188).
att(576,525).
att(1396,150).
att(718,1314).
att(1160,1087).
att(574,615).
att(1148,1079).
att(613,313).
att(1162,1071).
att(1299,795).
att(580,705).
att(719,1456).
att(1148,964).
att(616,518).
att(622,400).
att(1323,459).
att(580,680).
att(1156,1123).
att(586,680).
att(712,1498).
att(1152,972).
att(611,494).
att(1329,409).
att(576,692).
att(618,395).
att(1317,411).
att(588,573).
att(1412,52).
att(1150,1031).
att(713,1473).
att(578,703).
att(630,438).
att(721,1369).
att(578,678).
att(622,444).
att(718,1383).
att(618,448).
att(718,1387).
att(576,589).
att(713,1450).
att(1148,968).
att(608,521).
att(1295,1008).
att(731,1265).
att(1406,459).
att(728,1242).
att(1406,440).
att(620,548).
att(620,542).
att(1386,102).
att(1388,100).
att(728,1249).
att(1412,338).
att(1412,332).
att(1412,240).
att(1416,370).
att(625,508).
att(620,482).
att(723,1348).
att(1299,885).
att(1299,879).
att(620,516).
att(714,1502).
att(608,481).
att(1306,1034).
att(625,494).
att(611,482).
att(723,1369).
att(1416,242).
att(608,583).
att(728,1321).
att(1364,52).
att(608,575).
att(618,536).
att(728,1326).
att(1406,249).
att(650,316).
att(1416,274).
att(611,523).
att(1399,243).
att(1304,909).
att(1418,276).
att(729,1335).
att(716,1520).
att(724,1322).
att(618,561).
att(728,1357).
att(614,680).
att(622,610).
att(1347,453).
att(622,579).
att(1197,1123).
att(727,1444).
att(1344,443).
att(726,1473).
att(726,1466).
att(656,395).
att(1311,159).
att(1156,864).
att(726,1467).
att(614,705).
att(656,402).
att(648,494).
att(1160,860).
att(1203,1116).
att(1311,156).
att(726,1384).
att(724,1471).
att(1186,1129).
att(731,1421).
att(731,1415).
att(630,649).
att(1319,96).
att(1317,95).
att(618,653).
att(652,444).
att(1213,1122).
att(652,438).
att(654,444).
att(728,1415).
att(722,1478).
att(1355,332).
att(727,1498).
att(529,1194).
att(725,1480).
att(1319,61).
att(650,560).
att(1189,882).
att(528,1200).
att(728,1424).
att(1331,443).
att(724,1512).
att(662,518).
att(728,1441).
att(728,1442).
att(522,1194).
att(1315,44).
att(522,1210).
att(1347,208).
att(630,688).
att(662,399).
att(657,514).
att(528,1065).
att(723,1513).
att(654,516).
att(1325,52).
att(529,1082).
att(731,1448).
att(524,1069).
att(622,685).
att(658,393).
att(520,1257).
att(1401,47).
att(1401,54).
att(650,619).
att(656,532).
att(672,326).
att(534,1144).
att(531,1297).
att(531,1306).
att(1396,100).
att(731,1476).
att(1148,1031).
att(1420,44).
att(520,1302).
att(650,536).
att(1310,366).
att(656,561).
att(725,1522).
att(1158,895).
att(1406,46).
att(533,1189).
att(1190,1215).
att(658,482).
att(728,1494).
att(729,1511).
att(658,464).
att(728,1502).
att(1144,920).
att(1401,59).
att(529,1158).
att(658,481).
att(731,1504).
att(656,579).
att(1156,918).
att(528,1355).
att(687,313).
att(1148,840).
att(1315,274).
att(674,391).
att(659,579).
att(524,1355).
att(676,454).
att(654,610).
att(676,451).
att(1162,911).
att(1189,1164).
att(676,446).
att(648,589).
att(650,609).
att(679,336).
att(1189,1129).
att(531,1247).
att(1200,1068).
att(1156,836).
att(1190,1116).
att(1150,860).
att(531,1218).
att(677,333).
att(728,1516).
att(676,336).
att(1210,1199).
att(1311,274).
att(662,536).
att(1329,150).
att(1315,296).
att(152,1474).
att(674,488).
att(544,1210).
att(1336,882).
att(129,1504).
att(1082,294).
att(1453,332).
att(145,1498).
att(683,496).
att(1072,165).
att(1468,232).
att(1352,882).
att(1349,906).
att(1349,913).
att(1358,892).
att(679,496).
att(1336,1017).
att(529,1396).
att(662,680).
att(676,511).
att(1445,245).
att(538,1062).
att(672,510).
att(675,399).
att(1065,90).
att(1349,848).
att(1069,191).
att(526,1393).
att(659,678).
att(1197,9).
att(1347,852).
att(1347,850).
att(129,1425).
att(683,438).
att(1075,205).
att(658,589).
att(155,1511).
att(657,682).
att(662,612).
att(533,1352).
att(687,457).
att(1455,364).
att(137,1513).
att(657,690).
att(662,579).
att(1210,40).
att(149,1443).
att(1445,299).
att(1069,90).
att(554,1154).
att(677,542).
att(1250,1036).
att(1457,280).
att(1355,838).
att(553,1145).
att(1347,864).
att(1064,105).
att(1260,1215).
att(1082,189).
att(1358,838).
att(1472,138).
att(529,1457).
att(1349,858).
att(155,1443).
att(534,1364).
att(298,1256).
att(155,1442).
att(1331,907).
att(672,537).
att(1213,6).
att(149,1502).
att(547,1150).
att(1333,909).
att(555,1203).
att(1066,101).
att(1445,161).
att(541,1156).
att(1066,99).
att(687,511).
att(1257,1087).
att(538,1154).
att(1220,1077).
att(530,1375).
att(1358,862).
att(1082,89).
att(155,1471).
att(129,1363).
att(163,1430).
att(550,1210).
att(1218,1165).
att(1472,204).
att(1453,296).
att(538,1150).
att(1333,836).
att(1361,862).
att(687,518).
att(1333,837).
att(559,1082).
att(1085,85).
att(547,1200).
att(700,435).
att(1347,1129).
att(673,583).
att(704,448).
att(674,610).
att(700,434).
att(1329,790).
att(1189,56).
att(1347,1123).
att(1194,107).
att(702,438).
att(1355,1074).
att(1210,89).
att(676,649).
att(547,1218).
att(1358,1087).
att(554,1218).
att(672,577).
att(1213,87).
att(700,316).
att(700,317).
att(1189,66).
att(1470,409).
att(533,1470).
att(700,320).
att(288,1363).
att(1197,53).
att(673,617).
att(1213,112).
att(1200,60).
att(672,651).
att(687,567).
att(282,1444).
att(1327,787).
att(683,685).
att(1445,450).
att(683,703).
att(711,400).
att(1358,967).
att(1447,453).
att(278,1322).
att(708,406).
att(1197,73).
att(557,1325).
att(569,1069).
att(687,589).
att(1200,68).
att(1358,964).
att(1200,66).
att(1065,287).
att(538,1422).
att(554,1323).
att(1213,62).
att(710,444).
att(701,516).
att(1210,53).
att(279,1366).
att(709,444).
att(145,1482).
att(553,1344).
att(674,703).
att(700,397).
att(1213,14).
att(1213,18).
att(278,1354).
att(550,1325).
att(1355,1008).
att(1189,28).
att(1072,292).
att(704,393).
att(1075,300).
att(1190,30).
att(1065,165).
att(1072,287).
att(544,1313).
att(1213,67).
att(1203,14).
att(672,684).
att(554,1355).
att(554,1333).
att(1060,294).
att(1297,1196).
att(709,486).
att(1377,238).
att(711,482).
att(588,1197).
att(588,1210).
att(1297,1199).
att(550,1457).
att(572,1160).
att(700,551).
att(1293,1215).
att(559,1418).
att(1377,276).
att(566,1203).
att(700,478).
att(1302,1209).
att(578,1207).
att(1257,837).
att(580,1060).
att(1299,1081).
att(547,1401).
att(569,1207).
att(709,494).
att(1392,141).
att(553,1393).
att(700,461).
att(1370,276).
att(572,1257).
att(704,655).
att(574,1247).
att(704,649).
att(1372,192).
att(704,615).
att(709,537).
att(1293,956).
att(715,333).
att(707,535).
att(566,1218).
att(714,333).
att(1253,803).
att(555,1470).
att(588,1152).
att(704,525).
att(704,527).
att(704,521).
att(1220,797).
att(1257,793).
att(1299,960).
att(1304,1120).
att(708,567).
att(547,1470).
att(1367,192).
att(1260,787).
att(1388,77).
att(1420,459).
att(576,1154).
att(1293,968).
att(1392,82).
att(1247,954).
att(719,434).
att(155,1363).
att(1336,795).
att(711,589).
att(701,703).
att(1263,1112).
att(1392,453).
att(700,690).
att(1331,856).
att(1447,188).
att(1358,787).
att(710,655).
att(1218,1074).
att(714,406).
att(1472,81).
att(720,323).
att(1250,1031).
att(146,1411).
att(704,575).
att(569,1310).
att(1447,92).
att(1370,409).
att(1445,81).
att(1367,453).
att(1069,68).
att(1062,17).
att(129,1326).
att(155,1411).
att(155,1400).
att(1372,443).
att(704,583).
att(1220,1125).
att(625,1064).
att(1386,362).
att(625,1060).
att(1451,44).
att(1370,301).
att(719,508).
att(1260,1023).
att(712,542).
att(1445,110).
att(1065,36).
att(1064,30).
att(718,518).
att(569,1386).
att(1470,44).
att(155,1322).
att(1377,409).
att(717,512).
att(719,400).
att(1457,52).
att(721,400).
att(608,1194).
att(572,1418).
att(569,1416).
att(721,438).
att(608,1069).
att(1370,343).
att(1218,1008).
att(1455,104).
att(1075,38).
att(129,1246).
att(1270,55).
att(1406,1122).
att(1270,49).
att(716,521).
att(608,1247).
att(718,523).
att(630,1148).
att(620,1270).
att(608,1218).
att(613,1297).
att(1306,56).
att(369,1391).
att(1370,806).
att(371,1384).
att(1370,813).
att(715,542).
att(1412,882).
att(1150,294).
att(622,1190).
att(719,481).
att(1418,1034).
att(572,1470).
att(582,1375).
att(363,1328).
att(1299,17).
att(1420,1031).
att(1293,21).
att(611,1150).
att(717,488).
att(611,1160).
att(1158,251).
att(354,1252).
att(716,575).
att(1150,157).
att(712,688).
att(1422,902).
att(363,1346).
att(235,1519).
att(717,631).
att(234,1480).
att(1293,43).
att(716,583).
att(359,1256).
att(1422,837).
att(724,320).
att(1422,836).
att(718,631).
att(1158,151).
att(719,535).
att(1302,38).
att(1295,2).
att(613,1266).
att(241,1498).
att(1144,197).
att(1399,882).
att(1299,22).
att(1302,157).
att(1392,837).
att(365,1493).
att(1299,195).
att(324,1243).
att(1386,909).
att(1364,889).
att(1253,2).
att(725,512).
att(353,1495).
att(1390,914).
att(1295,162).
att(724,494).
att(728,404).
att(1304,202).
att(367,1498).
att(723,494).
att(1220,2).
att(1375,906).
att(361,1443).
att(630,1355).
att(1364,920).
att(650,1072).
att(730,454).
att(650,1066).
att(729,441).
att(1260,6).
att(354,1440).
att(1412,1209).
att(625,1352).
att(1293,83).
att(1412,1206).
att(1293,93).
att(1372,864).
att(1392,793).
att(1297,99).
att(630,1388).
att(1377,844).
att(1401,1165).
att(729,478).
att(618,1370).
att(724,562).
att(303,1265).
att(357,1423).
att(1422,1087).
att(657,1197).
att(1372,803).
att(354,1419).
att(361,1389).
att(613,1453).
att(656,1194).
att(630,1416).
att(371,1467).
att(611,1377).
att(729,514).
att(1420,1116).
att(620,1420).
att(1390,795).
att(724,464).
att(353,1387).
att(371,1466).
att(725,488).
att(246,1417).
att(244,1414).
att(520,239).
att(528,277).
att(1150,17).
att(288,1521).
att(648,1355).
att(1310,966).
att(244,1419).
att(285,1517).
att(1197,284).
att(1323,1008).
att(728,525).
att(654,1266).
att(725,631).
att(1150,14).
att(275,1516).
att(1329,1008).
att(728,540).
att(657,1301).
att(1317,911).
att(295,1522).
att(1148,36).
att(622,1470).
att(1158,21).
att(278,1498).
att(656,1297).
att(1311,1029).
att(726,536).
att(244,1326).
att(528,152).
att(648,1218).
att(656,1306).
att(1148,28).
att(654,1297).
att(1329,902).
att(729,551).
att(656,1145).
att(1186,157).
att(275,1475).
att(625,1447).
att(522,330).
att(237,1262).
att(660,1352).
att(730,589).
att(1156,32).
att(648,1420).
att(1190,89).
att(531,367).
att(244,1357).
att(1148,2).
att(726,680).
att(1347,1199).
att(279,1482).
att(1158,28).
att(1152,6).
att(1152,9).
att(1315,892).
att(724,680).
att(533,285).
att(723,680).
att(529,231).
att(657,1344).
att(275,1466).
att(1315,838).
att(275,1469).
att(662,1247).
att(244,1242).
att(729,575).
att(1158,5).
att(1311,924).
att(1319,860).
att(726,579).
att(728,615).
att(658,1218).
att(729,651).
att(729,649).
att(246,1262).
att(722,610).
att(279,1513).
att(724,610).
att(1213,189).
att(658,1255).
att(662,1257).
att(724,577).
att(275,1430).
att(528,455).
att(533,324).
att(528,410).
att(650,1447).
att(1148,85).
att(673,1162).
att(674,1144).
att(1152,91).
att(248,1513).
att(231,1424).
att(1304,3).
att(1308,9).
att(524,442).
att(1162,195).
att(681,1085).
att(656,1416).
att(1145,60).
att(650,1367).
att(533,367).
att(731,703).
att(1148,105).
att(1396,846).
att(239,1473).
att(241,1444).
att(246,1424).
att(1158,83).
att(520,452).
att(1310,1196).
att(524,334).
att(728,692).
att(673,1069).
att(657,1401).
att(730,685).
att(1401,846).
att(530,353).
att(1150,56).
att(237,1391).
att(677,1270).
att(520,465).
att(528,513).
att(674,1220).
att(1310,1037).
att(239,1384).
att(541,298).
att(1310,1074).
att(1150,60).
att(231,1369).
att(1329,1088).
att(524,490).
att(679,1270).
att(1317,1129).
att(672,1260).
att(1154,55).
att(662,1451).
att(1329,1118).
att(524,519).
att(674,1308).
att(1406,800).
att(1406,811).
att(675,1154).
att(246,1371).
att(656,1470).
att(1396,806).
att(673,1145).
att(526,396).
att(1158,45).
att(675,1150).
att(1399,806).
att(145,688).
att(1347,113).
att(1186,753).
att(282,496).
att(452,1430).
att(679,1355).
att(1347,101).
att(1447,1209).
att(1447,1206).
att(1447,1165).
att(1197,833).
att(1355,90).
att(288,510).
att(550,233).
att(555,285).
att(530,479).
att(557,278).
att(1190,755).
att(1200,828).
att(288,514).
att(1331,201).
att(529,571).
att(275,494).
att(376,1262).
att(547,239).
att(533,471).
att(1468,1118).
att(1352,113).
att(452,1456).
att(559,142).
att(1344,60).
att(1213,752).
att(529,479).
att(533,515).
att(675,1255).
att(673,1344).
att(282,399).
att(673,1336).
att(555,152).
att(676,1250).
att(1358,97).
att(1449,1087).
att(447,1389).
att(1197,755).
att(1075,973).
att(522,549).
att(528,471).
att(1062,973).
att(1336,85).
att(279,514).
att(1333,80).
att(547,285).
att(288,391).
att(140,688).
att(277,333).
att(1186,735).
att(1470,967).
att(282,454).
att(275,339).
att(709,1082).
att(449,1387).
att(1062,922).
att(1472,967).
att(1347,67).
att(142,655).
att(1468,956).
att(277,336).
att(1190,733).
att(163,680).
att(129,615).
att(1213,758).
att(1468,1088).
att(1457,1081).
att(1457,1079).
att(1336,113).
att(707,1062).
att(1361,58).
att(707,1075).
att(555,363).
att(674,1418).
att(1445,967).
att(1468,1034).
att(1247,281).
att(452,1411).
att(1062,845).
att(677,1327).
att(1085,900).
att(1333,63).
att(534,543).
att(550,359).
att(1197,762).
att(129,525).
att(1358,70).
att(295,457).
att(676,1315).
att(288,317).
att(1200,764).
att(273,333).
att(675,1315).
att(1472,1013).
att(557,373).
att(277,536).
att(403,1398).
att(1162,735).
att(235,326).
att(1329,12).
att(442,1515).
att(555,373).
att(574,129).
att(704,1297).
att(1148,732).
att(407,1415).
att(246,444).
att(246,457).
att(447,1523).
att(282,589).
att(569,129).
att(1313,53).
att(248,441).
att(541,374).
att(1189,868).
att(1347,158).
att(442,1476).
att(1358,292).
att(1197,843).
att(1197,841).
att(704,1148).
att(1355,294).
att(710,1082).
att(1310,65).
att(550,455).
att(711,1082).
att(1158,737).
att(674,1457).
att(1162,738).
att(1213,908).
att(547,447).
att(442,1513).
att(541,543).
att(1200,868).
att(702,1355).
att(1317,22).
att(1331,292).
att(1349,203).
att(574,231).
att(407,1354).
att(288,560).
att(559,492).
att(273,542).
att(1311,15).
att(702,1255).
att(1331,287).
att(288,551).
att(1213,843).
att(439,1493).
att(554,485).
att(1186,823).
att(1194,804).
att(445,1430).
att(576,145).
att(557,509).
att(455,1497).
att(401,1242).
att(1189,828).
att(547,513).
att(1190,823).
att(410,1493).
att(288,466).
att(373,1346).
att(376,1346).
att(442,1504).
att(449,1475).
att(706,1295).
att(687,1468).
att(412,1493).
att(407,1265).
att(707,1299).
att(1451,793).
att(1457,864).
att(1062,783).
att(1457,871).
att(331,1471).
att(1364,1036).
att(574,334).
att(1377,1087).
att(578,334).
att(1367,1068).
att(1468,790).
att(327,1389).
att(716,1069).
att(137,375).
att(1064,750).
att(1392,1123).
att(129,448).
att(314,1363).
att(701,1396).
att(1218,90).
att(1447,873).
att(145,438).
att(1370,1037).
att(706,1319).
att(146,494).
att(1263,103).
att(1065,780).
att(704,1323).
att(146,444).
att(1266,65).
att(1372,956).
att(140,336).
att(704,1310).
att(709,1352).
att(145,336).
att(1260,49).
att(578,365).
att(557,563).
att(1066,770).
att(707,1358).
att(1390,960).
att(1072,783).
att(1445,790).
att(1062,764).
att(553,543).
att(1372,1127).
att(303,1450).
att(707,1349).
att(146,313).
att(572,396).
att(588,455).
att(152,333).
att(1386,1008).
att(155,320).
att(718,1213).
att(707,1390).
att(1370,967).
att(586,331).
att(1255,14).
att(714,1152).
att(155,317).
att(321,1398).
att(700,1447).
att(340,1411).
att(714,1162).
att(1370,966).
att(1372,967).
att(303,1371).
att(574,447).
att(1364,1031).
att(716,1207).
att(717,1062).
att(1220,16).
att(1377,1017).
att(1377,1034).
att(711,1418).
att(1299,162).
att(369,1520).
att(1370,1020).
att(1390,882).
att(1390,879).
att(706,1393).
att(588,363).
att(359,1521).
att(566,439).
att(576,314).
att(1372,1034).
att(1336,12).
att(142,548).
att(572,462).
att(625,137).
att(334,1520).
att(582,509).
att(146,535).
att(455,1322).
att(1069,839).
att(622,152).
att(1445,1020).
att(716,1247).
att(1472,898).
att(410,1417).
att(569,485).
att(129,548).
att(1072,853).
att(1447,1023).
att(314,1478).
att(1253,154).
att(412,1413).
att(582,517).
att(618,140).
att(1449,1011).
att(566,485).
att(582,495).
att(137,537).
att(719,1156).
att(142,482).
att(327,1494).
att(1066,865).
att(149,551).
att(713,1308).
att(337,1492).
att(455,1351).
att(1069,867).
att(1072,868).
att(1445,898).
att(614,163).
att(715,1270).
att(1468,911).
att(588,376).
att(1457,887).
att(447,1249).
att(129,482).
att(145,481).
att(576,374).
att(1065,812).
att(1218,294).
att(707,1449).
att(1457,1031).
att(714,1301).
att(1449,885).
att(140,542).
att(314,1513).
att(1085,849).
att(1085,847).
att(1075,874).
att(1069,809).
att(1386,1212).
att(149,461).
att(324,1424).
att(1333,3).
att(1445,913).
att(608,334).
att(719,1347).
att(1468,836).
att(1250,76).
att(1457,913).
att(129,518).
att(137,466).
att(314,1426).
att(321,1504).
att(1075,810).
att(1470,837).
att(412,1348).
att(458,1243).
att(1361,9).
att(1392,1199).
att(618,248).
att(620,234).
att(1082,865).
att(1066,829).
att(716,1355).
att(580,462).
att(611,241).
att(608,367).
att(1066,819).
att(155,508).
att(155,506).
att(630,145).
att(1447,852).
att(1447,850).
att(713,1358).
att(1449,836).
att(618,273).
att(574,543).
att(720,1422).
att(419,566).
att(359,548).
att(608,407).
att(715,1388).
att(361,551).
att(1299,857).
att(1420,151).
att(371,523).
att(712,1388).
att(1372,20).
att(303,336).
att(489,1348).
att(729,1062).
att(1401,292).
att(507,1474).
att(1412,87).
att(1295,810).
att(625,357).
att(1418,189).
att(718,1406).
att(717,1313).
att(1399,151).
att(1399,148).
att(363,488).
att(369,561).
att(1367,34).
att(1295,875).
att(1412,207).
att(489,1242).
att(497,1477).
att(359,506).
att(490,1513).
att(723,1218).
att(132,674).
att(719,1447).
att(727,1270).
att(1270,804).
att(471,1249).
att(357,508).
att(622,373).
att(1144,1009).
att(620,515).
att(730,1150).
att(650,288).
att(359,510).
att(723,1257).
att(1304,804).
att(1364,2).
att(363,496).
att(423,660).
att(1412,91).
att(1308,798).
att(1412,90).
att(1375,42).
att(618,396).
att(618,394).
att(1299,823).
att(132,706).
att(622,439).
att(513,1466).
att(1148,1009).
att(354,451).
att(513,1467).
att(419,683).
att(131,702).
att(650,137).
att(731,1190).
att(613,405).
att(423,677).
att(1299,756).
att(509,1444).
att(1144,1027).
att(354,375).
att(1406,203).
att(625,452).
att(618,447).
att(725,1150).
att(334,496).
att(1386,109).
att(731,1247).
att(131,716).
att(429,526).
att(146,1066).
att(337,514).
att(656,231).
att(327,404).
att(630,487).
att(656,237).
att(1364,76).
att(660,285).
att(1253,752).
att(337,510).
att(487,1466).
att(656,278).
att(487,1473).
att(618,471).
att(471,1511).
att(625,467).
att(556,1265).
att(659,277).
att(382,526).
att(419,713).
att(421,719).
att(657,279).
att(324,448).
att(367,688).
att(436,555).
att(380,529).
att(1388,49).
att(429,553).
att(650,233).
att(656,279).
att(730,1308).
att(650,237).
att(386,528).
att(423,715).
att(465,1473).
att(337,397).
att(467,1456).
att(1253,778).
att(656,145).
att(1388,55).
att(421,724).
att(662,163).
att(1220,834).
att(163,1060).
att(1308,1027).
att(483,1456).
att(625,497).
att(730,1315).
att(483,1411).
att(1377,56).
att(1266,739).
att(331,435).
att(361,621).
att(465,1384).
att(1306,880).
att(330,336).
att(1299,910).
att(384,553).
att(530,877).
att(471,1467).
att(431,566).
att(431,580).
att(1218,760).
att(1370,60).
att(331,326).
att(727,1327).
att(730,1333).
att(1295,841).
att(331,320).
att(357,535).
att(487,1314).
att(630,565).
att(726,1315).
att(723,1418).
att(1306,910).
att(433,616).
att(507,1520).
att(526,878).
att(659,241).
att(487,1320).
att(725,1313).
att(1390,20).
att(489,1312).
att(363,537).
att(433,620).
att(722,1325).
att(354,536).
att(524,884).
att(622,558).
att(437,658).
att(467,1411).
att(471,1385).
att(625,563).
att(382,611).
att(1375,58).
att(471,1366).
att(337,317).
att(529,1121).
att(382,622).
att(533,969).
att(1150,788).
att(674,142).
att(674,137).
att(729,1455).
att(1310,139).
att(433,648).
att(656,394).
att(1406,30).
att(1156,865).
att(244,564).
att(403,1512).
att(513,1242).
att(407,1513).
att(654,405).
att(658,412).
att(517,1249).
att(433,662).
att(531,963).
att(233,482).
att(436,683).
att(731,1377).
att(278,688).
att(726,1377).
att(237,514).
att(529,953).
att(1406,9).
att(1162,823).
att(231,391).
att(524,958).
att(246,484).
att(656,447).
att(244,481).
att(278,684).
att(533,1015).
att(405,1429).
att(495,1249).
att(386,662).
att(436,701).
att(729,1401).
att(431,679).
att(652,439).
att(248,481).
att(725,1392).
att(1160,804).
att(1190,901).
att(382,683).
att(679,282).
att(1315,97).
att(380,673).
att(662,507).
att(1150,752).
att(674,233).
att(520,1149).
att(1200,973).
att(231,375).
att(433,709).
att(246,511).
att(530,1083).
att(659,519).
att(246,516).
att(401,1425).
att(657,465).
att(657,471).
att(1203,1027).
att(234,333).
att(403,1371).
att(1156,760).
att(235,435).
att(529,1063).
att(650,483).
att(675,140).
att(731,1470).
att(1162,766).
att(1207,1021).
att(433,715).
att(1310,109).
att(1148,768).
att(1160,757).
att(279,690).
att(288,609).
att(650,471).
att(248,391).
att(675,163).
att(282,685).
att(231,454).
att(279,682).
att(231,451).
att(231,448).
att(531,1268).
att(528,1309).
att(660,563).
att(1406,105).
att(533,1159).
att(1406,113).
att(369,402).
att(386,713).
att(1302,753).
att(1302,759).
att(1393,111).
att(431,723).
att(369,395).
att(524,1268).
att(1308,757).
att(235,705).
att(529,1305).
att(679,241).
att(533,1201).
att(513,1421).
att(522,1305).
att(1412,19).
att(681,278).
att(541,878).
att(677,241).
att(239,655).
att(1150,910).
att(1393,60).
att(1412,14).
att(1295,732).
att(1319,284).
att(1304,750).
att(658,485).
att(495,1389).
att(1154,922).
att(1406,112).
att(687,295).
att(235,610).
att(235,577).
att(529,1130).
att(490,1417).
att(244,615).
att(533,1248).
att(1156,925).
att(233,570).
att(557,959).
att(673,403).
att(490,1413).
att(531,1337).
att(1416,15).
att(676,458).
att(248,617).
att(407,1515).
att(246,653).
att(248,631).
att(369,336).
att(672,376).
att(1154,843).
att(1329,284).
att(547,971).
att(244,527).
att(515,1335).
att(244,525).
att(507,1242).
att(529,1251).
att(559,878).
att(246,537).
att(241,542).
att(1311,297).
att(1416,28).
att(374,1520).
att(531,1258).
att(1310,284).
att(1319,197).
att(534,1268).
att(394,1478).
att(407,1476).
att(524,1219).
att(554,1033).
att(1399,13).
att(533,1269).
att(681,353).
att(522,1330).
att(1315,292).
att(1315,768).
att(401,454).
att(218,701).
att(295,1313).
att(398,333).
att(285,1352).
att(374,393).
att(181,526).
att(410,705).
att(687,403).
att(1361,899).
att(687,374).
att(218,716).
att(376,316).
att(1468,294).
att(1336,921).
att(571,1520).
att(1349,849).
att(410,589).
att(1472,251).
att(175,541).
att(557,1126).
att(1310,774).
att(683,373).
att(175,553).
att(277,1306).
att(1355,922).
att(405,313).
att(681,449).
att(571,1517).
att(1331,883).
att(1310,772).
att(1325,732).
att(571,1514).
att(557,963).
att(279,1355).
att(679,373).
att(1329,736).
att(1344,922).
att(701,152).
att(1313,776).
att(229,580).
att(687,410).
att(675,401).
att(212,729).
att(279,1301).
att(700,361).
att(565,1482).
att(227,611).
att(568,1492).
att(173,538).
att(541,1298).
att(702,365).
att(683,558).
att(273,1270).
att(230,616).
att(288,1295).
att(1310,764).
att(298,1220).
att(676,565).
att(275,1302).
att(701,363).
att(1449,290).
att(288,1301).
att(707,239).
att(177,616).
att(140,1388).
att(410,523).
att(168,586).
att(549,1474).
att(704,231).
att(173,582).
att(546,1476).
att(181,613).
att(681,517).
att(711,140).
att(556,1517).
att(547,1166).
att(681,495).
att(552,1480).
att(1331,853).
att(1472,195).
att(455,570).
att(710,142).
att(279,1306).
att(543,1520).
att(672,558).
att(175,650).
att(708,331).
att(1323,874).
att(235,1145).
att(233,1197).
att(1317,798).
att(544,1359).
att(1315,874).
att(1317,809).
att(374,523).
att(227,675).
att(288,1457).
att(373,536).
att(244,1304).
att(1319,810).
att(586,888).
att(588,878).
att(572,1012).
att(566,961).
att(559,1296).
att(569,953).
att(235,1203).
att(1315,804).
att(246,1158).
att(1323,788).
att(704,327).
att(398,496).
att(550,1307).
att(376,570).
att(279,1451).
att(168,672).
att(394,464).
att(407,480).
att(170,677).
att(273,1388).
att(711,234).
att(1327,804).
att(235,1060).
att(442,684).
att(227,712).
att(1310,801).
att(373,484).
att(1319,757).
att(445,705).
att(237,1072).
att(244,1207).
att(248,1207).
att(181,710).
att(239,1064).
att(246,1194).
att(714,140).
att(1315,812).
att(376,484).
att(1329,833).
att(185,524).
att(1323,760).
att(553,1356).
att(282,1323).
att(1352,1032).
att(447,577).
att(373,516).
att(173,707).
att(244,1069).
att(398,451).
att(702,401).
att(373,496).
att(183,559).
att(1347,893).
att(298,1418).
att(374,518).
att(555,1248).
att(1311,829).
att(1358,1027).
att(547,1334).
att(170,715).
att(394,402).
att(376,518).
att(185,553).
att(273,1327).
att(578,958).
att(543,1421).
att(1468,20).
att(149,1263).
att(1386,281).
att(181,722).
att(1457,72).
att(173,720).
att(588,1214).
att(1390,251).
att(122,541).
att(337,619).
att(152,1257).
att(327,527).
att(455,316).
att(556,1371).
att(707,487).
att(1447,67).
att(715,273).
att(710,492).
att(1331,783).
att(330,536).
att(126,553).
att(331,577).
att(170,727).
att(458,329).
att(709,460).
att(717,295).
att(1472,12).
att(129,1297).
att(321,617).
att(571,1316).
att(168,722).
att(1247,867).
att(116,538).
att(1457,16).
att(711,515).
att(183,622).
att(580,1061).
att(1445,21).
att(334,540).
att(487,1474).
att(122,588).
att(152,1270).
att(720,140).
att(712,273).
att(1372,250).
att(556,1415).
att(1392,158).
att(715,140).
att(340,523).
att(145,1148).
att(187,618).
att(1390,162).
att(566,1201).
att(1372,287).
att(1331,764).
att(483,1521).
att(1370,287).
att(572,1258).
att(1257,874).
att(149,1160).
att(124,616).
att(1220,863).
att(331,562).
att(578,1258).
att(719,357).
att(1445,43).
att(485,1513).
att(565,1259).
att(1457,40).
att(586,1151).
att(1472,5).
att(714,303).
att(1370,160).
att(1390,197).
att(710,543).
att(330,466).
att(471,1517).
att(558,1314).
att(1449,38).
att(1449,36).
att(185,660).
att(618,891).
att(714,321).
att(137,1156).
att(467,1477).
att(483,1478).
att(1455,8).
att(1253,833).
att(337,461).
att(1445,22).
att(489,1425).
att(185,673).
att(715,241).
att(1445,3).
att(1253,834).
att(713,365).
att(1453,30).
att(137,1210).
att(479,1424).
att(142,1418).
att(565,1440).
att(1361,821).
att(1361,831).
att(278,1082).
att(1347,819).
att(155,1367).
att(295,1156).
att(145,1416).
att(452,481).
att(1347,829).
att(630,969).
att(128,677).
att(549,1500).
att(275,1062).
att(445,494).
att(622,961).
att(719,452).
att(714,403).
att(288,1197).
att(1358,812).
att(295,1150).
att(718,452).
att(445,511).
att(620,971).
att(1472,93).
att(717,445).
att(185,708).
att(714,396).
att(452,494).
att(572,1334).
att(574,1345).
att(183,721).
att(1352,823).
att(549,1430).
att(568,1450).
att(452,508).
att(1250,1009).
att(182,721).
att(445,375).
att(716,442).
att(129,1329).
att(288,1072).
att(556,1512).
att(185,712).
att(569,1345).
att(552,1423).
att(718,340).
att(718,331).
att(445,399).
att(556,1502).
att(1333,801).
att(144,553).
att(622,1086).
att(728,142).
att(1455,103).
att(713,489).
att(128,715).
att(1447,105).
att(145,1355).
att(419,526).
att(1355,760).
att(445,454).
att(1445,109).
att(1447,101).
att(136,554).
att(718,497).
att(1347,770).
att(185,730).
att(729,145).
att(725,282).
att(1472,45).
att(716,519).
att(122,724).
att(334,579).
att(421,553).
att(324,617).
att(334,583).
att(625,1115).
att(452,434).
att(614,1061).
att(145,1218).
att(442,313).
att(719,405).
att(1250,917).
att(714,492).
att(303,688).
att(340,589).
att(1445,45).
att(1358,768).
att(321,577).
att(416,541).
att(1358,780).
att(620,1114).
att(460,486).
att(652,877).
att(471,481).
att(509,684).
att(726,371).
att(369,1370).
att(657,876).
att(622,1155).
att(630,1157).
att(729,248).
att(489,494).
att(1367,798).
att(354,1416).
att(625,1161).
att(483,461).
att(616,1268).
att(303,1162).
att(729,234).
att(340,1213).
att(467,466).
att(618,1163).
att(717,552).
att(460,516).
att(483,397).
att(1416,1035).
att(1372,757).
att(716,546).
att(724,235).
att(1370,754).
att(1416,1028).
att(334,1069).
att(730,282).
att(719,479).
att(462,494).
att(467,494).
att(1390,757).
att(519,678).
att(714,556).
att(357,1422).
att(720,462).
att(1370,835).
att(1412,912).
att(357,1347).
att(622,1219).
att(724,439).
att(731,334).
att(1412,917).
att(354,1260).
att(1386,772).
att(650,1111).
att(630,1261).
att(483,435).
att(371,1315).
att(648,965).
att(1367,761).
att(471,514).
att(497,705).
att(353,1352).
att(630,1268).
att(730,365).
att(1393,905).
att(354,1299).
att(467,313).
att(361,1263).
att(483,317).
att(515,655).
att(730,371).
att(359,1253).
att(492,577).
att(1418,922).
att(371,1358).
att(656,877).
att(487,323).
att(1370,780).
att(1390,735).
att(357,1352).
att(625,1271).
att(650,1214).
att(731,407).
att(524,95).
att(1445,780).
att(1468,736).
att(728,374).
att(729,396).
att(549,457).
att(1370,903).
att(145,282).
att(465,579).
att(528,47).
att(1449,768).
att(146,365).
att(321,1352).
att(321,1336).
att(471,682).
att(155,233).
att(524,104).
att(556,406).
att(728,401).
att(1447,770).
att(549,444).
att(659,1114).
att(324,1295).
att(543,336).
att(543,333).
att(1372,839).
att(137,137).
att(354,1470).
att(1372,853).
att(528,54).
att(1445,738).
att(1457,762).
att(334,1247).
att(528,59).
att(1445,762).
att(129,142).
att(731,410).
att(1455,774).
att(314,1295).
att(303,1336).
att(479,521).
att(1386,875).
att(650,1268).
att(672,888).
att(324,1145).
att(149,149).
att(672,886).
att(155,149).
att(729,479).
att(1390,875).
att(152,152).
att(467,535).
att(354,1445).
att(1453,739).
att(155,155).
att(529,81).
att(331,1152).
att(660,1086).
att(483,478).
att(534,94).
att(662,1061).
att(1386,809).
att(460,548).
att(460,542).
att(1372,814).
att(337,1156).
att(1367,875).
att(531,95).
att(371,1470).
att(330,1194).
att(728,490).
att(489,466).
att(1388,804).
att(163,163).
att(234,1355).
att(515,400).
att(660,1309).
att(1416,760).
att(650,1356).
att(1406,826).
att(656,1217).
att(672,963).
att(529,280).
att(515,393).
att(528,289).
att(405,692).
att(533,143).
att(1420,760).
att(371,1064).
att(371,1060).
att(394,684).
att(231,1325).
att(369,1065).
att(394,678).
att(244,1323).
att(1406,758).
att(528,164).
att(522,283).
att(656,1269).
att(234,1218).
att(1401,780).
att(373,685).
att(657,1309).
att(1406,760).
att(672,1016).
att(675,878).
att(407,583).
att(656,1300).
att(1393,757).
att(239,1358).
att(509,316).
att(1412,732).
att(376,685).
att(731,546).
att(534,206).
att(1329,905).
att(513,323).
att(522,325).
att(403,617).
att(538,100).
att(547,47).
att(538,96).
att(547,54).
att(1311,890).
att(531,372).
att(1393,783).
att(376,577).
att(530,236).
att(550,57).
att(530,208).
att(1329,921).
att(1329,915).
att(524,372).
att(550,52).
att(277,1470).
att(233,1152).
att(533,283).
att(403,521).
att(394,561).
att(1325,839).
att(659,1334).
att(656,1356).
att(1310,915).
att(374,655).
att(492,326).
att(241,1270).
att(672,1126).
att(231,1295).
att(534,296).
att(407,540).
att(460,333).
att(471,323).
att(679,1211).
att(538,188).
att(354,1158).
att(528,409).
att(1396,925).
att(531,459).
att(673,1131).
att(673,1130).
att(515,537).
att(363,1306).
att(1418,843).
att(1412,854).
att(357,1260).
att(357,1257).
att(239,1453).
att(237,1451).
att(1412,812).
att(529,325).
att(557,104).
att(531,341).
att(371,1306).
att(677,1114).
att(683,1128).
att(497,535).
att(522,409).
att(529,335).
att(533,342).
att(524,325).
att(547,106).
att(676,1076).
att(231,1468).
att(239,1377).
att(234,1396).
att(515,481).
att(492,562).
att(1412,823).
att(515,486).
att(248,1468).
att(702,884).
att(369,1148).
att(513,548).
att(1401,868).
att(674,1307).
att(507,399).
att(398,685).
att(1401,828).
att(554,196).
att(1401,826).
att(357,1066).
att(541,147).
att(1396,804).
att(557,86).
att(357,1207).
att(675,1149).
att(533,409).
att(675,1157).
att(394,1145).
att(442,1470).
att(547,208).
att(405,1297).
att(239,152).
att(702,961).
att(248,277).
att(376,1250).
att(559,299).
att(394,1189).
att(452,1447).
att(679,1261).
att(673,1362).
att(673,1353).
att(455,1457).
att(439,1453).
att(398,1190).
att(550,280).
att(550,296).
att(675,1258).
att(248,163).
att(442,1420).
att(704,1166).
att(576,95).
att(582,104).
att(550,453).
att(702,1195).
att(445,1420).
att(282,445).
att(407,1207).
att(288,455).
att(547,328).
att(578,95).
att(374,1154).
att(275,353).
att(442,1325).
att(275,357).
att(571,685).
att(445,1327).
att(711,965).
att(707,1124).
att(1472,1035).
att(550,370).
att(708,955).
att(376,1197).
att(566,106).
att(700,1080).
att(407,1069).
att(288,314).
att(233,359).
att(713,888).
att(566,156).
att(711,1159).
att(580,188).
att(405,1393).
att(574,138).
att(376,1364).
att(569,141).
att(574,196).
att(700,1151).
att(572,188).
att(239,371).
att(244,327).
att(374,1418).
att(702,1201).
att(234,234).
att(394,1329).
att(554,459).
att(394,1325).
att(497,1066).
att(701,1155).
att(576,88).
att(706,1214).
att(706,1205).
att(403,1336).
att(235,235).
att(403,1344).
att(246,354).
att(578,276).
att(701,1332).
att(405,1344).
att(239,241).
att(394,1352).
att(241,241).
att(237,279).
att(394,1301).
att(709,1309).
att(717,881).
att(234,140).
att(396,1301).
att(701,1219).
att(246,248).
att(405,1266).
att(246,246).
att(572,141).
att(394,1266).
att(401,1333).
att(718,876).
att(248,231).
att(275,465).
att(700,1221).
att(718,894).
att(618,47).
att(1451,804).
att(611,96).
att(568,461).
att(622,57).
att(571,484).
att(718,1115).
att(576,366).
att(715,1114).
att(568,478).
att(578,372).
att(458,1144).
att(620,46).
att(716,1128).
att(1468,833).
att(543,482).
att(337,1372).
att(327,1420).
att(708,1362).
att(442,1069).
att(452,1207).
att(137,410).
att(455,1197).
att(578,247).
att(706,1345).
att(129,314).
att(706,1356).
att(712,1114).
att(549,481).
att(569,362).
att(324,1317).
att(487,688).
att(543,518).
att(324,1325).
att(321,1317).
att(719,1198).
att(340,1420).
att(1447,819).
att(630,94).
att(1447,829).
att(714,1130).
att(489,680).
att(578,459).
att(549,494).
att(608,196).
att(558,484).
att(618,86).
att(1453,788).
att(340,1412).
att(552,512).
att(321,1393).
att(618,94).
att(462,705).
att(572,443).
att(327,1355).
att(1468,776).
att(1370,1018).
att(129,244).
att(578,325).
att(1390,890).
att(549,375).
att(578,341).
att(1372,1024).
att(1386,973).
att(618,98).
att(713,1166).
att(483,690).
att(1449,756).
att(142,543).
att(145,565).
att(730,888).
att(282,363).
att(723,969).
att(275,234).
att(727,1016).
att(412,1399).
att(1472,883).
att(278,233).
att(412,1396).
att(1449,973).
att(608,283).
att(729,886).
att(620,143).
att(442,1247).
att(546,589).
att(1457,883).
att(149,568).
att(1457,899).
att(145,487).
att(447,1218).
att(568,621).
att(145,465).
att(1470,925).
att(565,653).
att(137,549).
att(1453,1027).
att(1455,973).
att(410,1323).
att(277,277).
att(1447,893).
att(279,371).
att(725,881).
att(1455,1024).
att(543,655).
att(657,59).
att(731,963).
att(616,370).
att(728,953).
att(279,279).
att(608,341).
att(727,1114).
att(1447,925).
att(145,513).
att(620,343).
att(657,54).
att(731,958).
att(282,282).
att(718,1359).
att(410,1355).
att(613,366).
att(285,285).
att(458,1255).
att(1451,925).
att(546,521).
att(142,374).
att(149,495).
att(546,540).
att(608,372).
att(1470,874).
att(650,59).
att(620,289).
att(556,617).
att(730,876).
att(721,1309).
att(410,1218).
att(1472,857).
att(410,1255).
att(714,1362).
att(729,1022).
att(1472,865).
att(324,248).
att(622,335).
att(622,332).
att(650,192).
att(327,248).
att(656,84).
att(324,231).
att(327,244).
att(361,563).
att(340,365).
att(363,563).
att(465,1315).
att(487,1358).
att(656,98).
att(479,1331).
att(303,303).
att(331,235).
att(479,1301).
att(321,285).
att(483,1263).
att(324,277).
att(662,44).
att(729,1117).
att(465,1358).
att(630,242).
att(465,1333).
att(353,479).
att(471,1315).
att(625,366).
att(483,1301).
att(324,163).
att(321,140).
att(524,859).
att(479,1148).
att(520,852).
att(533,790).
att(462,1257).
att(657,141).
att(371,465).
att(357,467).
att(471,1331).
att(371,489).
att(654,153).
att(630,408).
att(730,1166).
att(485,1154).
att(722,1268).
att(520,793).
att(337,152).
att(465,1304).
att(648,188).
att(656,74).
att(659,84).
att(487,1160).
att(722,1159).
att(357,497).
att(340,146).
att(487,1453).
att(529,911).
att(533,846).
att(529,918).
att(672,57).
att(674,61).
att(155,1073).
att(155,1070).
att(340,515).
att(455,137).
att(729,1267).
att(155,1080).
att(321,495).
att(652,243).
att(725,1359).
att(321,442).
att(146,1115).
att(314,314).
att(534,860).
att(543,1154).
att(334,407).
att(533,866).
att(654,299).
att(152,1114).
att(520,837).
att(549,1156).
att(129,958).
att(558,1306).
att(163,1061).
att(321,403).
att(129,953).
att(658,156).
att(129,965).
att(679,110).
att(657,328).
att(687,61).
att(650,409).
att(327,324).
att(487,1418).
att(656,328).
att(327,334).
att(140,1012).
att(149,963).
att(656,338).
att(549,1210).
att(683,57).
att(483,1372).
att(676,94).
att(483,1367).
att(467,1392).
att(303,403).
att(556,1162).
att(330,330).
att(672,104).
att(462,1422).
att(487,1315).
att(531,904).
att(679,44).
att(672,94).
att(334,334).
att(467,1396).
att(549,1082).
att(330,367).
att(534,920).
att(731,1337).
att(129,878).
att(483,1393).
att(556,1194).
att(234,515).
att(359,298).
att(237,487).
att(490,1355).
att(679,194).
att(234,490).
att(538,862).
att(361,295).
att(554,790).
att(369,231).
att(550,797).
att(361,278).
att(531,954).
att(541,803).
att(673,198).
att(677,77).
att(662,450).
att(371,239).
att(529,1088).
att(497,1355).
att(515,1270).
att(529,956).
att(490,1257).
att(490,1218).
att(237,495).
att(675,88).
att(659,413).
att(239,513).
att(658,338).
att(248,485).
att(524,967).
att(531,1013).
att(677,100).
att(237,471).
att(524,954).
att(244,495).
att(513,1150).
att(234,410).
att(675,274).
att(557,848).
att(492,1308).
att(531,1165).
att(231,374).
att(495,1304).
att(246,519).
att(529,1212).
att(235,492).
att(495,1301).
att(534,1079).
att(557,859).
att(507,1069).
att(672,299).
att(246,403).
att(541,838).
att(398,1422).
att(403,1390).
att(520,1209).
att(492,1145).
att(530,1129).
att(374,1451).
att(557,813).
att(394,1388).
att(524,1074).
att(519,1194).
att(679,368).
att(676,301).
att(704,96).
att(517,1375).
att(487,1203).
att(550,898).
att(681,208).
att(675,362).
att(672,304).
att(687,276).
att(515,1396).
att(513,1422).
att(354,354).
att(515,1418).
att(700,54).
att(369,439).
att(507,1422).
att(357,452).
att(559,846).
att(507,1399).
att(550,913).
att(676,242).
att(700,192).
att(490,1420).
att(509,1361).
att(554,954).
att(471,1072).
att(509,1352).
att(679,459).
att(354,246).
att(708,84).
att(704,198).
att(471,1065).
att(515,1325).
att(541,1125).
att(462,1060).
att(711,106).
att(557,1023).
att(559,1026).
att(467,1066).
att(497,1422).
att(363,363).
att(555,1026).
att(515,1352).
att(677,304).
att(706,102).
att(687,360).
att(676,408).
att(673,411).
att(702,94).
att(231,543).
att(557,898).
att(369,369).
att(550,1031).
att(711,46).
att(559,902).
att(672,409).
att(277,1258).
att(554,1074).
att(282,1332).
att(239,971).
att(702,296).
att(576,860).
att(554,1037).
att(407,442).
att(554,1118).
att(550,1081).
att(244,965).
att(285,1248).
att(541,1077).
att(557,1129).
att(246,953).
att(244,958).
att(702,200).
att(298,1338).
att(687,459).
att(538,1087).
att(709,238).
att(394,241).
att(574,904).
att(442,546).
att(709,243).
att(711,243).
att(702,370).
att(447,558).
att(239,876).
att(246,1007).
att(407,367).
att(239,878).
att(237,877).
att(580,837).
att(586,842).
att(576,924).
att(710,299).
att(394,273).
att(709,299).
att(376,233).
att(588,848).
att(278,1208).
att(580,844).
att(711,150).
att(373,363).
att(398,273).
att(588,871).
att(554,1212).
att(576,838).
att(711,143).
att(702,408).
att(513,239).
att(403,556).
att(239,1149).
att(515,241).
att(702,459).
att(711,304).
att(716,84).
att(720,96).
att(407,546).
att(515,234).
att(716,95).
att(246,1307).
att(407,558).
att(394,565).
att(497,357).
att(576,1008).
att(714,84).
att(231,1159).
att(495,363).
att(710,358).
att(578,1013).
att(712,77).
att(373,558).
att(237,1208).
att(507,152).
att(492,235).
att(246,1131).
att(711,343).
att(509,140).
att(572,1034).
att(701,335).
att(710,243).
att(578,904).
att(588,920).
att(373,460).
att(394,394).
att(616,859).
att(719,200).
att(396,396).
att(720,188).
att(614,793).
att(608,869).
att(566,1074).
att(620,787).
att(608,859).
att(401,398).
att(401,401).
att(708,443).
att(719,92).
att(716,196).
att(720,77).
att(246,1063).
att(405,396).
att(398,445).
att(405,405).
att(572,956).
att(394,405).
att(497,146).
att(718,75).
att(407,407).
att(625,844).
att(275,897).
att(565,1315).
att(625,852).
att(625,850).
att(720,296).
att(546,1420).
att(719,286).
att(145,1268).
att(556,1388).
att(155,1258).
att(588,1077).
att(410,410).
att(556,1390).
att(630,859).
att(580,1087).
att(611,836).
att(713,274).
att(618,866).
att(145,1159).
att(588,1068).
att(719,153).
att(449,353).
att(552,1313).
att(455,363).
att(569,1212).
att(576,1037).
att(549,1323).
att(620,859).
att(569,1202).
att(716,341).
att(324,462).
att(445,282).
att(449,233).
att(155,1151).
att(714,304).
att(155,1161).
att(445,273).
att(455,235).
att(618,882).
att(729,54).
att(714,325).
att(722,94).
att(729,48).
att(729,59).
att(716,372).
att(449,285).
att(625,916).
att(546,1247).
att(337,483).
att(723,106).
att(556,1336).
att(718,249).
att(330,519).
att(549,1257).
att(713,368).
att(558,1352).
att(303,571).
att(571,1299).
att(275,1076).
att(724,188).
att(452,462).
att(275,1067).
att(398,163).
att(608,1081).
att(298,1161).
att(718,440).
att(726,77).
att(398,140).
att(620,970).
att(618,966).
att(442,407).
att(452,497).
att(622,1034).
att(728,102).
att(401,163).
att(275,1124).
att(630,1017).
att(622,1023).
att(288,1070).
att(571,1451).
att(714,411).
att(410,485).
att(608,954).
att(726,96).
att(445,398).
att(721,370).
att(729,95).
att(407,152).
att(618,1034).
att(622,1081).
att(455,376).
att(726,296).
att(546,1470).
att(442,442).
att(662,856).
att(571,1390).
att(613,1199).
att(445,445).
att(728,150).
att(648,837).
att(565,1416).
att(622,1116).
att(546,1377).
att(657,871).
att(275,1019).
att(724,156).
att(273,1012).
att(608,1196).
att(723,289).
att(723,296).
att(152,1334).
att(452,452).
att(278,1010).
att(295,1119).
att(656,790).
att(656,787).
att(730,74).
att(608,1074).
att(620,1129).
att(630,966).
att(501,708).
att(529,43).
att(534,8).
att(460,460).
att(728,242).
att(504,721).
att(546,278).
att(155,82).
att(465,487).
att(163,188).
att(467,479).
att(556,241).
att(340,1204).
att(552,295).
att(303,1131).
att(467,467).
att(501,715).
att(529,7).
att(483,396).
att(501,714).
att(730,274).
att(543,142).
att(726,247).
att(473,553).
att(529,22).
att(529,4).
att(659,840).
att(489,401).
att(152,100).
att(520,1).
att(493,719).
att(137,110).
att(137,106).
att(625,1209).
att(469,544).
att(556,285).
att(129,61).
att(471,465).
att(471,471).
att(485,412).
att(321,955).
att(485,410).
att(731,325).
att(354,1251).
att(672,813).
att(730,301).
att(501,730).
att(731,341).
att(163,44).
att(534,16).
att(656,966).
att(674,803).
att(476,566).
att(473,580).
att(493,723).
att(726,409).
att(155,59).
att(487,439).
att(520,67).
att(648,962).
att(340,1113).
att(471,513).
att(471,490).
att(524,70).
att(659,1013).
att(534,30).
att(321,1010).
att(367,1334).
att(303,958).
att(303,955).
att(483,337).
att(483,331).
att(363,1219).
att(656,1020).
att(660,882).
att(528,15).
att(656,1031).
att(730,368).
att(648,1008).
att(520,17).
att(722,338).
att(724,338).
att(479,334).
att(467,452).
att(334,1330).
att(533,56).
att(650,1167).
att(337,1356).
att(470,613).
att(337,1334).
att(528,111).
att(470,616).
att(648,1165).
att(674,848).
att(458,969).
att(526,111).
att(673,862).
att(330,1258).
att(321,1362).
att(662,1127).
att(146,366).
att(321,1353).
att(558,373).
att(683,806).
att(295,52).
att(473,679).
att(470,654).
att(546,334).
att(679,787).
att(674,871).
att(449,1010).
att(410,961).
att(303,1330).
att(340,1216).
att(303,1362).
att(303,1353).
att(679,918).
att(334,1268).
att(324,1131).
att(675,909).
att(534,76).
att(449,886).
att(674,898).
att(487,543).
att(541,2).
att(658,1165).
att(474,712).
att(137,156).
att(458,881).
att(479,568).
att(129,198).
att(556,321).
att(656,1164).
att(146,200).
att(483,483).
att(529,83).
att(142,77).
att(327,1214).
att(544,8).
att(324,1204).
att(520,205).
att(679,840).
att(140,77).
att(485,485).
att(520,203).
att(696,526).
att(145,77).
att(654,1196).
att(337,1151).
att(698,544).
att(529,93).
att(303,1296).
att(340,1155).
att(534,105).
att(155,192).
att(314,1214).
att(410,878).
att(340,1149).
att(672,956).
att(533,160).
att(673,960).
att(531,281).
att(673,972).
att(475,723).
att(359,1111).
att(528,287).
att(691,522).
att(679,1008).
att(550,16).
att(676,1020).
att(530,148).
att(673,1013).
att(524,251).
att(531,139).
att(495,495).
att(541,16).
att(547,17).
att(687,902).
att(675,1017).
att(675,1034).
att(520,292).
att(695,588).
att(354,1022).
att(672,1026).
att(693,541).
att(470,722).
att(490,374).
att(529,151).
att(369,1124).
att(673,1017).
att(517,449).
att(520,290).
att(520,297).
att(520,294).
att(369,1113).
att(530,199).
att(557,6).
att(530,203).
att(361,963).
att(369,1126).
att(353,963).
att(524,139).
att(233,1338).
att(237,1264).
att(674,1081).
att(490,410).
att(672,1068).
att(538,111).
att(557,58).
att(553,60).
att(674,1068).
att(693,588).
att(699,662).
att(233,1219).
att(687,967).
att(701,869).
att(495,447).
att(371,971).
att(237,1309).
att(233,1151).
att(513,371).
att(538,49).
att(686,630).
att(246,1258).
att(234,1155).
att(553,66).
att(517,353).
att(246,1251).
att(676,968).
att(495,331).
att(371,1012).
att(233,1268).
att(695,674).
att(704,924).
att(479,234).
att(544,207).
att(303,1025).
att(544,202).
att(557,91).
att(369,1217).
att(691,656).
att(555,113).
att(538,197).
att(353,1309).
att(353,1307).
att(707,850).
att(706,859).
att(483,237).
att(554,99).
att(700,850).
att(554,109).
att(700,848).
att(687,1118).
att(710,806).
att(683,1081).
att(691,676).
att(699,716).
att(557,113).
att(693,683).
att(553,111).
att(367,1305).
att(465,371).
att(702,873).
att(354,1131).
att(467,357).
att(687,1088).
att(467,365).
att(711,806).
att(547,113).
att(681,1129).
att(686,702).
att(471,239).
att(471,237).
att(513,487).
att(357,1198).
att(509,492).
att(669,554).
att(668,528).
att(669,559).
att(691,711).
att(698,725).
att(699,731).
att(367,1161).
att(515,485).
att(668,526).
att(371,1157).
att(369,1163).
att(695,722).
att(708,911).
att(489,273).
att(707,887).
att(353,1208).
att(465,239).
att(547,165).
att(490,462).
att(687,1196).
att(669,576).
att(541,154).
att(515,507).
att(553,189).
att(460,285).
att(483,137).
att(700,887).
att(487,140).
att(550,189).
att(707,914).
att(702,916).
att(708,840).
att(513,465).
att(687,1212).
att(465,277).
att(681,1202).
att(497,485).
att(519,519).
att(670,586).
att(235,156).
att(237,141).
att(239,159).
att(513,884).
att(704,1120).
att(711,1008).
att(711,1026).
att(578,72).
att(708,1013).
att(555,251).
att(231,153).
att(710,1026).
att(394,1269).
att(403,1130).
att(492,888).
att(398,1211).
att(704,954).
att(278,409).
att(711,882).
att(588,40).
att(550,284).
att(702,1008).
att(707,1029).
att(239,200).
att(550,300).
att(234,79).
att(394,1163).
att(495,876).
att(376,1296).
att(700,967).
att(495,884).
att(588,30).
att(717,864).
att(574,90).
att(588,53).
att(569,90).
att(578,107).
att(702,1074).
att(246,204).
att(706,1074).
att(241,77).
att(566,90).
att(712,840).
att(572,111).
att(715,787).
att(288,322).
att(578,58).
att(711,962).
att(246,92).
att(278,358).
att(373,1201).
att(711,970).
att(246,81).
att(354,48).
att(513,1076).
att(234,343).
att(509,1126).
att(582,199).
att(233,370).
att(574,160).
att(367,84).
att(237,328).
att(574,139).
att(495,1205).
att(492,1201).
att(495,1166).
att(582,203).
att(710,1199).
att(710,1215).
att(582,78).
att(709,1199).
att(396,1356).
att(231,232).
att(714,911).
att(719,852).
att(616,2).
att(572,197).
att(588,91).
att(369,98).
att(706,1165).
att(718,846).
att(715,840).
att(719,864).
att(239,362).
att(371,100).
att(231,368).
att(710,1087).
att(513,971).
att(713,972).
att(244,372).
att(403,1362).
att(246,360).
att(613,65).
att(714,954).
att(497,1115).
att(717,1031).
att(369,52).
att(630,30).
att(713,1008).
att(233,147).
att(513,1033).
att(611,17).
att(608,70).
att(715,1017).
att(509,886).
att(719,902).
att(578,139).
att(712,1017).
att(515,1012).
att(234,143).
att(394,1217).
att(495,965).
att(719,1123).
att(439,1201).
att(543,543).
att(725,864).
att(565,487).
att(726,787).
att(630,64).
att(278,86).
att(447,1166).
att(549,549).
att(727,787).
att(279,164).
att(713,1084).
att(725,860).
att(288,192).
att(503,524).
att(374,878).
att(298,147).
att(718,1122).
att(373,877).
att(552,552).
att(142,304).
att(273,100).
att(449,1208).
att(145,332).
att(295,194).
att(586,294).
att(618,66).
att(129,328).
att(137,453).
att(278,94).
att(447,1076).
att(442,1126).
att(625,89).
att(611,189).
att(145,368).
att(719,1196).
att(719,1209).
att(726,838).
att(145,360).
att(618,78).
att(279,54).
att(622,113).
att(625,101).
att(449,1117).
att(625,99).
att(324,1353).
att(713,1202).
att(720,1087).
att(543,374).
att(145,247).
att(327,1345).
att(442,958).
att(330,1330).
att(565,445).
att(727,840).
att(149,364).
att(620,97).
att(504,566).
att(729,858).
att(314,1345).
att(618,111).
att(137,368).
att(314,1356).
att(493,559).
att(652,14).
att(652,13).
att(442,1334).
att(442,1332).
att(650,69).
att(282,360).
att(295,338).
att(723,1008).
att(231,61).
att(493,580).
att(491,578).
att(659,40).
att(442,1258).
att(277,276).
att(244,61).
att(500,611).
att(246,48).
att(295,360).
att(405,961).
att(608,139).
att(447,1261).
att(630,76).
att(730,842).
att(504,658).
att(729,906).
att(248,61).
att(376,1128).
att(407,963).
att(648,30).
att(275,156).
att(401,1033).
att(394,891).
att(396,878).
att(723,1087).
att(526,783).
att(278,147).
att(658,68).
att(493,660).
att(725,1116).
att(491,659).
att(529,736).
att(731,1034).
att(622,251).
att(563,563).
att(505,707).
att(565,565).
att(657,66).
att(722,962).
att(295,296).
att(568,568).
att(654,65).
att(728,1020).
att(503,716).
att(571,571).
att(672,6).
att(331,358).
att(731,1081).
att(565,965).
att(324,232).
att(410,106).
att(337,364).
att(520,819).
att(659,107).
att(479,1337).
att(728,1084).
att(146,916).
att(534,776).
att(724,1087).
att(648,90).
att(140,840).
att(146,906).
att(546,963).
att(479,1267).
att(129,838).
att(571,1025).
att(526,752).
att(571,1019).
att(659,55).
att(528,868).
att(460,1264).
att(146,850).
att(552,881).
att(675,36).
att(681,1).
att(520,849).
att(656,148).
att(674,20).
att(529,857).
att(568,881).
att(465,1258).
att(674,30).
att(327,153).
att(558,969).
att(676,28).
att(658,189).
att(662,80).
att(354,456).
att(483,1159).
att(340,193).
att(327,196).
att(487,1157).
att(531,809).
att(140,787).
att(650,154).
att(533,828).
att(155,871).
att(676,2).
att(155,856).
att(524,809).
att(675,64).
att(273,787).
att(298,859).
att(534,845).
att(533,855).
att(687,20).
att(445,194).
att(282,862).
att(554,734).
att(452,161).
att(279,856).
att(522,880).
att(278,813).
att(277,787).
att(445,188).
att(558,1264).
att(298,838).
att(146,1206).
att(556,1264).
att(533,861).
att(565,1166).
att(558,1155).
att(142,956).
att(142,962).
att(538,764).
att(330,413).
att(524,839).
att(534,870).
att(129,954).
att(129,966).
att(163,1087).
att(558,1201).
att(563,1086).
att(687,62).
att(533,903).
att(675,97).
att(673,83).
att(449,74).
att(674,76).
att(152,967).
att(556,1131).
att(557,778).
att(152,956).
att(145,1020).
att(677,55).
att(445,110).
att(530,900).
att(442,95).
att(445,108).
att(529,1030).
att(550,752).
att(129,1020).
att(439,52).
att(675,55).
att(687,66).
att(146,1023).
att(547,768).
att(152,1034).
att(528,883).
att(553,783).
att(303,411).
att(557,733).
att(445,44).
att(683,72).
att(673,49).
att(531,919).
att(568,1126).
att(555,733).
att(681,73).
att(321,304).
att(550,766).
att(321,301).
att(709,9).
att(544,870).
att(365,247).
att(354,161).
att(513,1258).
att(679,202).
att(700,40).
att(465,961).
att(557,831).
att(465,969).
att(487,1033).
att(557,834).
att(555,823).
att(357,247).
att(371,238).
att(676,201).
att(359,147).
att(471,1010).
att(515,1268).
att(559,752).
att(533,1018).
att(547,831).
att(673,195).
att(541,814).
att(509,1151).
att(369,276).
att(519,1305).
att(547,828).
att(371,274).
att(353,161).
att(487,876).
att(681,113).
att(515,1157).
att(554,845).
att(566,739).
att(700,73).
att(357,200).
att(354,92).
att(538,910).
att(679,294).
att(569,734).
att(702,70).
att(683,251).
att(354,81).
att(704,71).
att(711,36).
att(371,159).
att(495,1296).
att(557,865).
att(679,251).
att(706,20).
att(465,876).
att(687,162).
att(555,857).
att(547,853).
att(569,737).
att(675,292).
att(497,1271).
att(365,200).
att(513,1201).
att(559,804).
att(517,1208).
att(237,443).
att(495,1151).
att(708,22).
att(369,198).
att(492,1151).
att(541,863).
att(231,459).
att(711,2).
att(553,905).
att(163,793).
att(483,1214).
att(483,1205).
att(702,105).
att(334,196).
att(574,759).
att(704,109).
att(321,74).
att(483,1187).
att(550,883).
att(465,1149).
att(547,900).
att(354,411).
att(340,200).
att(337,192).
att(303,74).
att(365,459).
att(576,734).
att(569,772).
att(361,322).
att(582,762).
att(363,338).
att(704,65).
att(467,1198).
att(340,75).
att(538,905).
att(578,732).
att(572,764).
att(321,50).
att(483,1115).
att(369,302).
att(369,328).
att(487,1114).
att(574,833).
att(354,280).
att(467,965).
att(485,965).
att(369,342).
att(547,1032).
att(337,59).
att(519,1330).
att(467,1115).
att(578,755).
att(586,766).
att(465,1114).
att(554,1028).
att(555,899).
att(709,148).
att(237,967).
att(509,94).
att(574,845).
att(403,456).
att(495,194).
att(701,251).
att(711,201).
att(407,413).
att(246,1118).
att(588,814).
att(586,788).
att(369,787).
att(517,74).
att(233,898).
att(717,8).
att(244,954).
att(374,409).
att(398,360).
att(588,810).
att(403,325).
att(233,887).
att(513,100).
att(244,968).
att(707,205).
att(248,956).
att(707,201).
att(718,9).
att(580,925).
att(611,780).
att(244,1008).
att(373,335).
att(233,913).
att(572,905).
att(716,58).
att(712,49).
att(515,46).
att(578,917).
att(394,370).
att(231,889).
att(714,60).
att(231,902).
att(712,55).
att(376,332).
att(407,372).
att(233,838).
att(231,837).
att(233,848).
att(709,294).
att(713,70).
att(576,845).
att(718,14).
att(239,916).
att(234,838).
att(616,732).
att(237,907).
att(616,739).
att(611,764).
att(720,17).
att(407,247).
att(707,297).
att(719,26).
att(572,843).
att(613,732).
att(706,284).
att(566,925).
att(706,300).
att(515,243).
att(513,247).
att(492,358).
att(608,809).
att(509,276).
att(471,54).
att(462,44).
att(630,768).
att(576,1028).
att(578,1021).
att(630,774).
att(611,833).
att(618,757).
att(371,892).
att(497,366).
att(495,362).
att(357,850).
att(237,1165).
att(574,1028).
att(717,62).
att(237,1202).
att(231,1165).
att(715,55).
att(578,899).
att(715,49).
att(608,760).
att(622,733).
att(719,67).
att(497,238).
att(371,916).
att(490,296).
att(720,197).
att(244,1202).
att(731,2).
att(244,1196).
att(490,289).
att(248,1212).
att(361,860).
att(371,840).
att(717,207).
att(495,289).
att(507,79).
att(724,6).
att(611,804).
att(239,1116).
att(509,86).
att(234,970).
att(231,1088).
att(622,755).
att(371,862).
att(371,873).
att(495,141).
att(394,59).
att(275,902).
att(445,368).
att(614,925).
att(447,360).
att(447,358).
att(278,898).
att(608,910).
att(403,100).
att(654,732).
att(439,332).
att(729,17).
att(298,962).
att(452,366).
att(279,898).
att(717,157).
att(719,148).
att(458,370).
att(410,338).
att(729,28).
att(713,292).
att(722,14).
att(278,913).
att(279,907).
att(449,236).
att(563,1248).
att(622,901).
att(543,1334).
att(726,105).
att(622,899).
att(618,903).
att(620,896).
att(630,912).
att(726,49).
att(295,889).
att(278,846).
att(445,289).
att(730,68).
att(376,57).
att(412,370).
att(552,1359).
att(618,896).
att(275,860).
att(146,1196).
att(725,53).
att(630,917).
att(656,774).
att(727,55).
att(145,1037).
att(727,49).
att(650,761).
att(149,1202).
att(442,153).
att(129,1084).
att(137,1165).
att(145,1074).
att(155,1206).
att(568,1309).
att(155,1167).
att(282,837).
att(656,737).
att(728,71).
att(278,859).
att(558,1334).
att(558,1332).
att(556,1362).
att(620,912).
att(235,842).
att(394,143).
att(233,871).
att(233,869).
att(660,831).
att(730,85).
att(394,296).
att(241,840).
att(407,283).
att(725,207).
att(622,1032).
att(731,105).
att(279,1074).
att(630,1035).
att(650,798).
att(622,1027).
att(656,754).
att(398,188).
att(724,91).
att(376,280).
att(407,153).
att(658,760).
att(277,967).
att(248,790).
att(394,86).
att(662,872).
att(728,157).
att(277,956).
att(648,925).
att(730,157).
att(672,762).
att(726,292).
att(656,855).
att(374,150).
att(241,787).
att(658,874).
att(407,196).
att(654,839).
att(729,139).
att(401,88).
att(442,341).
att(657,868).
att(407,95).
att(403,84).
att(277,1034).
att(401,77).
att(275,1011).
att(729,197).
att(298,1125).
att(398,110).
att(660,823).
att(687,736).
att(891,1440).
att(891,1424).
att(337,1209).
att(656,880).
att(149,78).
att(656,905).
att(327,1037).
att(876,1467).
att(340,1165).
att(145,105).
att(327,1074).
att(656,910).
att(888,1512).
att(1033,1242).
att(683,733).
att(881,1423).
att(295,8).
att(549,286).
att(876,1466).
att(146,101).
att(449,871).
att(137,53).
att(891,1450).
att(565,194).
att(142,56).
att(543,150).
att(324,1118).
att(888,1430).
att(452,858).
att(455,871).
att(458,860).
att(549,141).
att(410,838).
att(729,287).
att(324,967).
att(687,760).
att(479,322).
att(487,409).
att(487,408).
att(149,58).
att(565,74).
att(337,1127).
att(891,1444).
att(303,1071).
att(683,755).
att(340,1122).
att(303,1084).
att(334,967).
att(146,68).
att(687,783).
att(471,443).
att(656,1027).
att(324,1008).
att(656,1018).
att(654,1021).
att(568,96).
att(489,304).
att(340,972).
att(279,66).
att(445,1017).
att(145,292).
att(565,328).
att(1022,1415).
att(288,67).
att(877,1517).
att(129,281).
att(674,875).
att(1019,1316).
att(1019,1328).
att(681,831).
att(897,1514).
att(1015,1335).
att(894,1517).
att(1019,1320).
att(155,287).
att(129,162).
att(881,1522).
att(568,364).
att(1025,1316).
att(439,1031).
att(1007,1318).
att(683,823).
att(1007,1316).
att(894,1475).
att(672,883).
att(687,841).
att(701,780).
att(146,148).
att(673,905).
att(1019,1346).
att(155,154).
att(155,162).
att(1033,1312).
att(673,921).
att(1007,1350).
att(298,16).
att(558,335).
att(1007,1346).
att(412,1031).
att(556,325).
att(455,887).
att(881,1480).
att(894,1500).
att(897,1497).
att(894,1512).
att(455,920).
att(455,924).
att(1007,1252).
att(700,829).
att(354,966).
att(359,1125).
att(701,823).
att(704,833).
att(354,956).
att(334,859).
att(465,159).
att(361,1112).
att(462,156).
att(706,760).
att(707,753).
att(353,1129).
att(465,141).
att(467,161).
att(365,1120).
att(701,755).
att(483,79).
att(303,795).
att(487,88).
att(704,750).
att(489,88).
att(702,750).
att(363,956).
att(337,803).
att(700,863).
att(354,895).
att(710,823).
att(485,106).
att(489,100).
att(371,956).
att(513,408).
att(519,325).
att(711,831).
att(483,59).
att(490,338).
att(353,913).
att(495,301).
att(711,760).
att(369,1017).
att(369,1031).
att(495,328).
att(704,922).
att(706,845).
att(556,100).
att(155,20).
att(327,887).
att(487,362).
att(552,108).
att(489,362).
att(321,911).
att(303,882).
att(558,57).
att(354,1212).
att(324,918).
att(146,26).
att(465,370).
att(706,875).
att(314,924).
att(707,874).
att(711,804).
att(363,1199).
att(701,1027).
att(489,286).
att(721,739).
att(707,896).
att(460,299).
att(354,1118).
att(713,783).
att(303,840).
att(331,844).
att(331,842).
att(359,1077).
att(487,150).
att(363,1081).
att(702,917).
att(303,914).
att(357,1206).
att(467,299).
att(507,909).
att(961,1493).
att(1057,530).
att(1117,1335).
att(1107,725).
att(971,1520).
att(365,14).
att(357,26).
att(371,17).
att(718,819).
att(1047,723).
att(248,284).
att(231,160).
att(712,804).
att(1128,1328).
att(233,76).
att(234,90).
att(394,1196).
att(971,1482).
att(1126,1354).
att(1051,725).
att(398,1165).
att(1121,1252).
att(248,160).
att(719,770).
att(965,1513).
att(1119,1243).
att(239,201).
att(359,2).
att(371,36).
att(981,550).
att(1128,1346).
att(1057,582).
att(497,852).
att(955,1469).
att(244,197).
att(234,113).
att(957,1473).
att(237,85).
att(405,1196).
att(517,846).
att(953,1429).
att(716,857).
att(718,865).
att(994,586).
att(957,1387).
att(981,588).
att(519,787).
att(376,1077).
att(394,1116).
att(239,105).
att(373,1215).
att(403,1071).
att(963,1471).
att(1054,662).
att(957,1383).
att(403,1084).
att(492,842).
att(719,819).
att(239,97).
att(728,734).
att(357,101).
att(357,99).
att(513,1087).
att(720,925).
att(490,1165).
att(713,905).
att(361,113).
att(460,838).
att(479,790).
att(724,766).
att(997,660).
att(495,1165).
att(725,776).
att(497,1199).
att(713,900).
att(497,1209).
att(718,908).
att(497,1206).
att(714,905).
att(495,1202).
att(725,764).
att(354,72).
att(354,71).
att(365,105).
att(1117,1385).
att(465,793).
att(1117,1366).
att(720,845).
att(716,919).
att(515,1127).
att(1059,700).
att(1115,1456).
att(363,56).
att(495,1084).
att(718,854).
att(1121,1371).
att(487,793).
att(722,732).
att(354,21).
att(957,1517).
att(1054,716).
att(1115,1411).
att(515,962).
att(1001,533).
att(363,72).
att(981,700).
att(462,793).
att(371,63).
att(717,973).
att(724,757).
att(365,70).
att(1055,727).
att(497,1026).
att(730,774).
att(1059,722).
att(730,783).
att(515,1023).
att(359,16).
att(509,882).
att(719,893).
att(720,880).
att(728,772).
att(1121,1316).
att(1121,1328).
att(943,526).
att(1121,1326).
att(1006,554).
att(231,284).
att(957,1522).
att(282,202).
att(937,538).
att(295,158).
att(401,909).
att(447,1202).
att(398,836).
att(1000,586).
att(246,43).
att(373,882).
att(403,911).
att(981,722).
att(953,1249).
att(407,916).
att(394,866).
att(940,578).
att(1001,618).
att(1012,1444).
att(727,804).
att(937,572).
att(1006,608).
att(721,1027).
att(447,1084).
att(295,207).
att(971,1242).
att(722,788).
att(1019,1469).
att(273,55).
att(937,611).
att(1001,656).
att(285,113).
att(452,1074).
att(1015,1385).
att(946,614).
att(401,862).
att(1033,1441).
att(455,1068).
att(403,862).
att(1004,652).
att(1001,672).
att(931,616).
att(455,1125).
att(731,867).
att(565,459).
att(571,456).
att(998,1421).
att(403,806).
att(1006,687).
att(373,869).
att(1004,677).
att(374,862).
att(1016,1444).
att(239,55).
att(971,1467).
att(971,1444).
att(234,68).
att(241,55).
att(248,111).
att(394,1088).
att(495,860).
att(953,1389).
att(275,290).
att(955,1316).
att(937,706).
att(275,297).
att(394,1020).
att(394,1017).
att(239,64).
att(726,910).
att(394,968).
att(407,954).
att(931,702).
att(955,1398).
att(246,45).
att(971,1384).
att(282,294).
att(401,1017).
att(279,287).
att(961,1314).
att(1000,724).
att(946,715).
att(234,34).
att(373,967).
att(1006,730).
att(288,284).
att(244,65).
att(239,15).
att(278,148).
att(953,1321).
att(953,1326).
att(233,9).
att(275,195).
att(279,157).
att(376,898).
att(285,148).
att(963,1354).
att(233,6).
att(1033,1523).
att(234,2).
att(239,36).
att(398,918).
att(931,723).
att(394,904).
att(728,1035).
att(142,922).
att(1198,1411).
att(558,1116).
att(1195,1413).
att(565,966).
att(886,651).
att(1015,333).
att(442,68).
att(565,964).
att(442,72).
att(565,968).
att(1012,336).
att(605,681).
att(1033,375).
att(549,1123).
att(452,53).
att(594,675).
att(288,766).
att(1007,441).
att(1166,1466).
att(447,68).
att(1007,457).
att(552,1123).
att(288,783).
att(1007,448).
att(149,923).
att(1187,1342).
att(152,925).
att(598,676).
att(439,14).
att(543,962).
att(1201,1314).
att(295,776).
att(603,700).
att(606,526).
att(1166,1384).
att(1166,1389).
att(412,13).
att(324,160).
att(598,702).
att(558,1034).
att(546,1034).
att(334,281).
att(1076,1482).
att(439,30).
att(337,284).
att(1211,1328).
att(876,542).
att(571,885).
att(1016,336).
att(571,879).
att(594,715).
att(1016,333).
att(455,14).
att(1094,524).
att(1104,534).
att(549,1023).
att(412,30).
att(1094,531).
att(1195,1242).
att(1092,526).
att(334,139).
att(337,158).
att(1073,1512).
att(1083,1475).
att(140,804).
att(891,561).
att(878,548).
att(1067,1482).
att(886,480).
att(607,576).
att(552,889).
att(1187,1262).
att(455,40).
att(571,914).
att(571,924).
att(1063,1500).
att(606,586).
att(442,191).
att(1100,572).
att(445,202).
att(998,488).
att(1130,1316).
att(607,611).
att(1096,538).
att(998,464).
att(1161,1360).
att(1094,566).
att(288,863).
att(398,3).
att(1187,1511).
att(1022,461).
att(1208,1497).
att(1022,480).
att(445,90).
att(1187,1426).
att(607,654).
att(1214,1497).
att(403,7).
att(298,863).
att(412,151).
att(606,652).
att(278,821).
att(458,197).
att(1163,1249).
att(278,831).
att(458,207).
att(565,1036).
att(1092,613).
att(1015,402).
att(285,831).
att(549,1215).
att(998,402).
att(145,1027).
att(1166,1502).
att(145,1035).
att(455,91).
att(1025,496).
att(606,683).
att(606,679).
att(606,675).
att(1007,516).
att(1195,1425).
att(998,395).
att(285,823).
att(1092,654).
att(1100,675).
att(897,680).
att(607,704).
att(149,1024).
att(607,706).
att(410,90).
att(1033,511).
att(298,834).
att(298,833).
att(1067,1320).
att(483,1029).
att(354,160).
att(888,320).
att(485,1008).
att(1121,1520).
att(321,12).
att(897,323).
att(897,339).
att(606,713).
att(314,20).
att(340,70).
att(303,12).
att(471,1008).
att(1114,1498).
att(354,195).
att(1067,1343).
att(460,1026).
att(1070,1342).
att(359,154).
att(1126,1521).
att(465,1034).
att(1106,721).
att(487,892).
att(1096,710).
att(1111,1478).
att(606,730).
att(1110,559).
att(330,40).
att(467,1029).
att(367,158).
att(489,836).
att(1124,1482).
att(1124,1480).
att(361,197).
att(1080,1342).
att(324,8).
att(483,907).
att(1104,724).
att(324,2).
att(340,36).
att(1109,566).
att(467,902).
att(1094,731).
att(483,850).
att(1098,727).
att(485,838).
att(1128,1500).
att(515,1199).
att(479,858).
att(1115,1513).
att(353,85).
att(485,1165).
att(563,846).
att(1078,1512).
att(321,83).
att(556,911).
att(327,85).
att(449,1).
att(1083,1495).
att(1208,1262).
att(1080,1512).
att(455,6).
att(145,826).
att(1061,1430).
att(1109,648).
att(1051,611).
att(552,918).
att(1080,1478).
att(303,148).
att(888,562).
att(340,199).
att(1042,614).
att(1109,658).
att(460,1215).
att(479,1112).
att(1107,672).
att(321,107).
att(1067,1466).
att(897,494).
att(485,1074).
att(543,838).
att(894,516).
att(1045,622).
att(146,823).
att(460,1199).
att(1080,1442).
att(146,819).
att(330,107).
att(1076,1466).
att(142,752).
att(487,1087).
att(340,87).
att(479,1037).
att(878,518).
att(467,1209).
att(1073,1363).
att(891,402).
att(558,869).
att(1078,1471).
att(1067,1384).
att(894,393).
att(884,446).
att(1073,1391).
att(563,806).
att(891,395).
att(1076,1384).
att(1110,709).
att(565,787).
att(1110,710).
att(321,113).
att(340,101).
att(1063,1369).
att(1067,1467).
att(549,860).
att(1063,1318).
att(1107,713).
att(479,1020).
att(1063,1326).
att(1067,1411).
att(487,967).
att(1073,1421).
att(334,58).
att(146,770).
att(1073,1400).
att(1045,683).
att(152,780).
att(487,964).
att(543,787).
att(340,51).
att(1049,712).
att(876,323).
att(145,739).
att(337,53).
att(1124,482).
att(357,829).
att(958,685).
att(363,755).
att(359,834).
att(234,1032).
att(495,197).
att(1296,1430).
att(663,566).
att(1307,1442).
att(371,804).
att(1298,1423).
att(371,801).
att(1111,510).
att(1115,486).
att(363,831).
att(361,823).
att(958,583).
att(957,577).
att(497,101).
att(963,685).
att(1303,1471).
att(664,566).
att(359,752).
att(492,91).
att(1269,1429).
att(509,58).
att(513,97).
att(495,85).
att(1128,496).
att(1121,375).
att(1113,400).
att(369,821).
att(495,78).
att(666,658).
att(497,90).
att(666,657).
att(237,905).
att(365,760).
att(963,573).
att(961,610).
att(1115,434).
att(237,900).
att(354,762).
att(958,651).
att(354,734).
att(359,778).
att(668,654).
att(513,55).
att(668,660).
att(357,770).
att(971,705).
att(953,575).
att(1271,1456).
att(663,652).
att(670,677).
att(953,583).
att(663,658).
att(666,675).
att(666,674).
att(1303,1456).
att(233,839).
att(957,537).
att(497,64).
att(669,701).
att(513,70).
att(1153,1520).
att(957,523).
att(664,652).
att(239,917).
att(969,610).
att(234,839).
att(664,658).
att(244,890).
att(1305,1421).
att(958,521).
att(495,63).
att(953,615).
att(363,733).
att(231,915).
att(471,60).
att(340,732).
att(340,739).
att(1070,317).
att(361,923).
att(1078,435).
att(465,63).
att(641,533).
att(1073,317).
att(327,737).
att(487,70).
att(1121,649).
att(369,903).
att(330,738).
att(363,910).
att(327,734).
att(1117,540).
att(471,66).
att(1078,320).
att(513,292).
att(1115,535).
att(646,553).
att(487,15).
att(1296,1519).
att(334,733).
att(1080,317).
att(361,851).
att(367,910).
att(371,912).
att(1067,339).
att(371,910).
att(1298,1521).
att(1221,1411).
att(636,541).
att(487,17).
att(661,715).
att(1221,1400).
att(636,555).
att(467,26).
att(467,40).
att(642,586).
att(509,191).
att(1217,1314).
att(467,32).
att(1267,1354).
att(485,30).
att(1121,567).
att(517,148).
att(1303,1517).
att(465,15).
att(664,723).
att(1303,1519).
att(513,197).
att(1124,542).
att(1216,1335).
att(1268,1478).
att(1221,1254).
att(517,203).
att(641,618).
att(483,2).
att(517,191).
att(369,861).
att(644,622).
att(1296,1512).
att(465,36).
att(495,157).
att(642,650).
att(1111,482).
att(1271,1477).
att(275,890).
att(634,625).
att(394,60).
att(248,752).
att(1149,1384).
att(957,435).
att(277,880).
att(285,1032).
att(237,760).
att(288,1024).
att(405,111).
att(234,768).
att(394,113).
att(275,973).
att(1157,1425).
att(627,614).
att(1149,1467).
att(248,833).
att(1149,1444).
att(279,880).
att(394,66).
att(624,614).
att(407,65).
att(231,736).
att(277,910).
att(295,1030).
att(244,760).
att(394,65).
att(235,766).
att(958,313).
att(998,649).
att(1033,680).
att(1157,1444).
att(246,753).
att(248,760).
att(1019,685).
att(288,880).
att(971,393).
att(442,281).
att(279,910).
att(248,732).
att(963,336).
att(644,701).
att(963,333).
att(1153,1324).
att(1204,1522).
att(405,66).
att(1007,617).
att(998,536).
att(237,762).
att(636,701).
att(1130,1371).
att(647,526).
att(405,65).
att(624,675).
att(1204,1480).
att(447,151).
att(244,734).
att(1130,1398).
att(642,724).
att(603,528).
att(288,841).
att(1149,1312).
att(998,561).
att(957,562).
att(507,34).
att(1151,1493).
att(634,719).
att(237,853).
att(233,863).
att(638,721).
att(369,736).
att(239,845).
att(367,738).
att(605,557).
att(627,721).
att(1151,1519).
att(237,868).
att(640,723).
att(394,191).
att(957,464).
att(1151,1512).
att(1298,1256).
att(601,588).
att(509,6).
att(396,189).
att(398,202).
att(509,9).
att(963,562).
att(957,488).
att(958,481).
att(244,845).
att(244,841).
att(1303,1314).
att(376,284).
att(407,139).
att(376,251).
att(601,616).
att(961,464).
att(965,464).
att(592,586).
att(598,566).
att(244,875).
att(965,481).
att(515,2).
att(1307,1262).
att(376,154).
att(231,810).
att(585,572).
att(495,36).
att(517,1).
att(1157,1480).
att(955,406).
att(959,506).
att(1149,1466).
att(998,688).
att(237,828).
att(233,752).
att(237,826).
att(401,80).
att(1161,1423).
att(1161,1430).
att(1015,692).
att(405,89).
att(492,6).
att(598,630).
att(585,611).
att(239,826).
att(1163,1424).
att(237,823).
att(969,488).
att(585,616).
att(953,518).
att(449,849).
att(1332,1520).
att(563,148).
att(1275,559).
att(1204,545).
att(886,1451).
att(1337,1515).
att(445,874).
att(1187,560).
att(1131,333).
att(373,733).
att(442,809).
att(897,1449).
att(565,201).
att(1201,488).
att(1285,611).
att(439,788).
att(1201,464).
att(447,812).
att(878,1451).
att(876,1388).
att(546,139).
att(549,158).
att(568,207).
att(950,650).
att(1285,630).
att(558,251).
att(447,801).
att(455,857).
att(1345,1497).
att(571,195).
att(878,1470).
att(1007,1158).
att(1273,616).
att(1198,516).
att(1273,613).
att(1275,622).
att(543,189).
att(565,85).
att(1198,508).
att(1208,484).
att(549,202).
att(565,78).
att(1345,1442).
att(552,207).
att(1166,562).
att(884,1323).
att(894,1406).
att(563,113).
att(948,710).
att(1205,518).
att(948,709).
att(947,709).
att(327,973).
att(1061,680).
att(455,834).
att(1362,1450).
att(876,1315).
att(1076,705).
att(452,829).
att(1362,1444).
att(1187,397).
att(1275,674).
att(458,834).
att(1007,1082).
att(571,113).
att(439,1027).
att(1273,683).
att(1285,702).
att(1288,531).
att(445,1030).
att(1022,1401).
att(442,1021).
att(1287,520).
att(1007,1399).
att(1033,1388).
att(998,1325).
att(1161,516).
att(1016,1388).
att(1285,716).
att(442,880).
att(1201,610).
att(1211,680).
att(374,833).
att(1187,579).
att(1163,402).
att(1007,1310).
att(445,899).
att(447,900).
att(971,1064).
att(1229,538).
att(1163,395).
att(1187,612).
att(998,1344).
att(1187,609).
att(1022,1331).
att(394,738).
att(452,893).
att(442,919).
att(1151,326).
att(1285,729).
att(1007,1336).
att(447,917).
att(1187,619).
att(1130,406).
att(1015,1255).
att(1161,444).
att(1233,550).
att(1155,336).
att(455,890).
att(401,750).
att(1015,1266).
att(374,752).
att(1131,406).
att(998,1255).
att(1198,535).
att(376,733).
att(1012,1270).
att(1229,580).
att(1007,1293).
att(1022,1263).
att(376,762).
att(458,922).
att(571,251).
att(1015,1301).
att(1166,589).
att(1015,1297).
att(1224,566).
att(1231,588).
att(374,780).
att(998,1301).
att(1231,586).
att(1345,1514).
att(891,1148).
att(888,1145).
att(1216,1493).
att(888,1152).
att(485,189).
att(1076,464).
att(886,1190).
att(1233,622).
att(334,867).
att(571,7).
att(1251,1494).
att(314,810).
att(549,40).
att(465,157).
att(467,158).
att(1080,466).
att(1224,630).
att(479,111).
att(891,1189).
att(334,809).
att(321,823).
att(324,833).
att(331,798).
att(337,798).
att(1061,494).
att(1267,1440).
att(1292,675).
att(1083,480).
att(1267,1424).
att(884,1064).
att(1258,1498).
att(1224,648).
att(471,78).
att(321,757).
att(888,1060).
att(467,101).
att(479,60).
att(1117,684).
att(340,752).
att(353,883).
att(354,901).
att(1080,510).
att(1217,1440).
att(1231,674).
att(1073,397).
att(1061,399).
att(314,760).
att(1338,1256).
att(1258,1430).
att(897,1075).
att(483,60).
att(321,774).
att(1237,524).
att(340,766).
att(334,760).
att(1080,397).
att(1126,684).
att(1128,685).
att(1237,528).
att(1070,434).
att(334,755).
att(1221,1456).
att(487,56).
att(1073,434).
att(369,1035).
att(489,53).
att(1241,534).
att(1258,1444).
att(340,760).
att(327,772).
att(1229,720).
att(1078,705).
att(1244,555).
att(886,1352).
att(1083,684).
att(1073,577).
att(1235,541).
att(1337,1448).
att(1204,438).
att(1224,713).
att(886,1361).
att(881,1313).
att(314,890).
att(330,880).
att(1067,680).
att(447,783).
att(439,739).
att(1080,579).
att(331,905).
att(1080,573).
att(1171,538).
att(1070,619).
att(1211,451).
att(324,910).
att(327,922).
att(894,1352).
att(1235,588).
att(886,1253).
att(337,890).
att(894,1349).
att(1211,454).
att(1353,1371).
att(1070,587).
att(549,53).
att(1187,320).
att(340,896).
att(571,72).
att(1239,588).
att(556,113).
att(1080,619).
att(558,72).
att(1353,1324).
att(1235,616).
att(334,919).
att(334,917).
att(886,1270).
att(1334,1421).
att(327,841).
att(455,762).
att(1195,336).
att(340,908).
att(1195,333).
att(455,739).
att(1337,1415).
att(471,287).
att(1216,1517).
att(556,12).
att(1171,611).
att(549,32).
att(881,1160).
att(1063,484).
att(1267,1480).
att(1332,1328).
att(334,847).
att(324,874).
att(1217,1517).
att(1332,1314).
att(565,28).
att(467,770).
att(1039,709).
att(1117,1361).
att(1046,720).
att(465,750).
att(1269,678).
att(515,896).
att(509,910).
att(990,534).
att(483,778).
att(1261,457).
att(1307,573).
att(1261,451).
att(1058,538).
att(495,1030).
att(1217,395).
att(1221,397).
att(1298,573).
att(497,1021).
att(1296,610).
att(1271,705).
att(1044,712).
att(980,531).
att(1056,555).
att(1039,721).
att(1044,714).
att(513,912).
att(515,922).
att(1050,727).
att(495,900).
att(1119,1255).
att(1126,1361).
att(465,768).
att(983,534).
att(1041,731).
att(490,925).
att(507,872).
att(1126,1260).
att(1121,1299).
att(983,541).
att(1303,631).
att(1124,1270).
att(955,1388).
att(1269,532).
att(1117,1145).
att(996,616).
att(1296,562).
att(1056,660).
att(479,807).
att(1114,1388).
att(471,853).
att(894,146).
att(891,140).
att(471,845).
att(1121,1470).
att(1056,672).
att(1221,536).
att(980,657).
att(1078,1152).
att(483,810).
att(1070,1210).
att(1121,1377).
att(483,798).
att(1058,706).
att(1217,561).
att(489,804).
att(489,801).
att(990,702).
att(1115,1447).
att(1221,562).
att(1216,488).
att(471,812).
att(987,702).
att(1067,1066).
att(1073,1066).
att(1261,511).
att(485,833).
att(1216,481).
att(1070,1072).
att(1126,1377).
att(1058,720).
att(465,788).
att(465,804).
att(483,761).
att(1251,457).
att(1261,375).
att(1251,448).
att(1305,678).
att(485,760).
att(1251,444).
att(1005,553).
att(1056,727).
att(1219,496).
att(517,1032).
att(1296,705).
att(1248,400).
att(939,538).
att(465,826).
att(1221,514).
att(977,717).
att(1303,320).
att(996,722).
att(955,1308).
att(928,520).
att(965,1218).
att(403,921).
att(999,566).
att(971,1358).
att(945,554).
att(993,724).
att(373,899).
att(942,544).
att(519,738).
att(1149,655).
att(407,919).
att(977,725).
att(1015,1453).
att(376,841).
att(407,867).
att(1130,617).
att(963,1306).
att(1015,1451).
att(945,574).
att(945,569).
att(969,1255).
att(374,922).
att(394,855).
att(930,566).
att(376,922).
att(1151,488).
att(1022,1455).
att(999,652).
att(1007,1457).
att(1155,486).
att(1163,561).
att(1019,1390).
att(939,660).
att(945,648).
att(401,804).
att(401,801).
att(1015,1393).
att(998,1416).
att(1025,1390).
att(376,875).
att(1131,567).
att(407,809).
att(1007,1386).
att(1163,488).
att(969,1453).
att(513,812).
att(957,1406).
att(1303,482).
att(515,812).
att(1269,561).
att(509,823).
att(1303,545).
att(930,683).
att(1296,464).
att(939,711).
att(957,1323).
att(1303,508).
att(497,829).
att(1153,685).
att(936,707).
att(1115,1066).
att(945,704).
att(958,1323).
att(999,721).
att(513,826).
att(492,798).
att(965,1420).
att(1003,716).
att(1128,1190).
att(1271,481).
att(1003,720).
att(1271,486).
att(953,1418).
att(957,1352).
att(928,707).
att(1151,610).
att(1271,399).
att(971,1418).
att(953,1310).
att(1285,526).
att(515,752).
att(1269,514).
att(398,899).
att(394,1032).
att(1003,730).
att(939,727).
att(497,770).
att(928,720).
att(1303,438).
att(1279,538).
att(1271,434).
att(963,1361).
att(1273,531).
att(942,725).
att(1159,610).
att(1303,434).
att(971,1315).
att(394,905).
att(955,1336).
att(1149,579).
att(1149,1060).
att(1163,1065).
att(1022,442).
att(1151,1060).
att(604,679).
att(604,676).
att(1130,1162).
att(1155,1082).
att(1131,1152).
att(1007,445).
att(998,330).
att(1130,1152).
att(1007,354).
att(590,654).
att(1015,369).
att(568,973).
att(565,1035).
att(1161,1062).
att(998,369).
att(584,683).
att(590,672).
att(591,702).
att(1332,685).
att(1330,678).
att(1012,241).
att(1208,1319).
att(1019,363).
att(1099,530).
att(1198,1347).
att(998,248).
att(584,702).
att(1007,363).
att(571,899).
att(1214,1319).
att(571,890).
att(1103,530).
att(1016,241).
att(1101,553).
att(571,845).
att(1012,273).
att(1332,610).
att(886,460).
att(584,713).
att(1015,277).
att(1187,1220).
att(876,487).
att(1337,575).
att(1097,530).
att(878,543).
att(897,571).
att(876,465).
att(1362,617).
att(565,912).
att(558,1032).
att(1090,530).
att(1103,559).
att(998,279).
att(1093,555).
att(1157,1358).
att(597,730).
att(963,235).
att(597,729).
att(1025,558).
att(1097,550).
att(958,277).
att(1155,1260).
att(1010,563).
att(1157,1315).
att(581,724).
att(953,248).
att(953,244).
att(958,278).
att(1151,1308).
att(1093,580).
att(953,129).
att(590,731).
att(1089,555).
att(1101,625).
att(1153,1295).
att(1161,1257).
att(998,515).
att(1131,1336).
att(1157,1306).
att(1091,630).
att(1022,515).
att(1103,648).
att(1093,648).
att(965,142).
att(1089,611).
att(998,394).
att(1033,489).
att(1155,1154).
att(1157,1150).
att(1208,1457).
att(1151,1203).
att(1187,1372).
att(1130,1308).
att(1187,1377).
att(1015,439).
att(1103,675).
att(1149,1160).
att(1093,679).
att(1261,703).
att(884,365).
att(1353,406).
att(1338,506).
att(894,331).
att(543,833).
att(1070,1319).
att(1093,701).
att(1067,1422).
att(1070,1393).
att(1090,681).
att(1251,685).
att(546,821).
att(1362,406).
att(571,735).
att(571,733).
att(877,285).
att(1076,1333).
att(894,365).
att(1219,685).
att(568,774).
att(886,233).
att(1103,719).
att(543,752).
att(1258,680).
att(876,241).
att(1099,723).
att(546,755).
att(876,239).
att(1099,724).
att(1070,1263).
att(1251,537).
att(881,295).
att(1353,333).
att(1095,715).
att(1217,579).
att(1043,526).
att(1090,713).
att(1362,333).
att(1086,1352).
att(1219,610).
att(1221,587).
att(886,298).
att(1258,579).
att(1038,522).
att(487,912).
att(886,278).
att(881,137).
att(1330,333).
att(1041,554).
att(878,142).
att(1063,1158).
att(1258,536).
att(1039,559).
att(891,277).
att(1073,1306).
att(558,733).
att(1080,1263).
att(1076,1304).
att(1052,586).
att(876,140).
att(465,912).
att(1067,1257).
att(465,910).
att(1041,576).
att(546,733).
att(1041,574).
att(1208,1220).
att(552,845).
att(1063,1472).
att(1338,655).
att(897,462).
att(894,487).
att(876,513).
att(886,509).
att(1050,614).
att(998,140).
att(1166,1358).
att(1166,1355).
att(1016,140).
att(1073,1455).
att(1330,536).
att(1353,567).
att(1048,660).
att(1022,149).
att(1359,545).
att(886,373).
att(894,513).
att(1076,1453).
att(1019,152).
att(1204,1150).
att(1076,1470).
att(1334,536).
att(1007,152).
att(556,921).
att(1195,1304).
att(1208,1156).
att(571,823).
att(1208,1152).
att(1073,1372).
att(546,857).
att(546,867).
att(552,870).
att(1038,659).
att(1041,676).
att(1033,137).
att(1214,1150).
att(1338,523).
att(888,492).
att(1048,708).
att(571,753).
att(1070,1401).
att(556,804).
att(546,809).
att(886,331).
att(1198,1064).
att(563,831).
att(1356,518).
att(1083,1375).
att(1067,1375).
att(1050,709).
att(1208,1190).
att(1337,481).
att(1195,1210).
att(1050,710).
att(1300,1453).
att(1080,288).
att(1124,487).
att(1073,155).
att(1086,285).
att(1115,467).
att(1080,155).
att(1251,1186).
att(1217,1270).
att(1124,515).
att(1115,497).
att(1298,1418).
att(1267,1065).
att(1121,445).
att(1128,373).
att(1267,1200).
att(1216,1213).
att(1303,1412).
att(1303,1420).
att(1217,1189).
att(1121,303).
att(1219,1190).
att(1070,337).
att(876,876).
att(1219,1377).
att(1063,354).
att(1080,452).
att(1330,1194).
att(886,1010).
att(1332,1190).
att(1338,1156).
att(643,524).
att(1258,1377).
att(1221,1372).
att(891,1016).
att(1067,353).
att(1063,248).
att(1063,246).
att(1216,1396).
att(1078,331).
att(881,881).
att(1070,359).
att(1216,1412).
att(1337,1069).
att(1251,1260).
att(633,550).
att(888,888).
att(891,886).
att(1217,1329).
att(1080,361).
att(1121,558).
att(629,526).
att(1080,357).
att(1070,237).
att(1119,549).
att(894,876).
att(894,884).
att(1073,233).
att(894,894).
att(635,566).
att(1248,1352).
att(1216,1358).
att(1067,275).
att(1078,235).
att(1121,460).
att(1063,129).
att(1070,288).
att(1121,479).
att(1073,277).
att(1080,233).
att(626,586).
att(1076,277).
att(1305,1156).
att(955,447).
att(1157,1470).
att(1153,1390).
att(629,572).
att(971,513).
att(1124,142).
att(961,439).
att(1303,1213).
att(965,410).
att(958,334).
att(1300,1082).
att(957,340).
att(629,611).
att(1155,1422).
att(1163,1370).
att(1307,1197).
att(635,675).
att(633,683).
att(1271,1060).
att(958,367).
att(1161,1396).
att(1163,1401).
att(969,439).
att(953,327).
att(626,677).
att(635,702).
att(1271,1210).
att(953,334).
att(971,439).
att(963,359).
att(998,565).
att(957,234).
att(626,709).
att(1271,1082).
att(957,552).
att(1300,1344).
att(626,715).
att(1303,1406).
att(957,465).
att(1296,1255).
att(629,712).
att(1303,1355).
att(1114,273).
att(1300,1266).
att(1268,1325).
att(957,487).
att(1309,1352).
att(593,566).
att(1115,365).
att(632,722).
att(1121,233).
att(1121,231).
att(597,582).
att(957,517).
att(958,519).
att(1111,298).
att(959,549).
att(959,543).
att(1296,1145).
att(581,586).
att(1115,146).
att(1124,273).
att(965,490).
att(590,578).
att(1153,1470).
att(1305,1306).
att(971,487).
att(1121,152).
att(584,611).
att(1128,277).
att(593,648).
att(955,495).
att(1126,278).
att(963,888).
att(998,1163).
att(1163,369).
att(1130,321).
att(1204,552).
att(1149,371).
att(1131,321).
att(1007,1305).
att(971,1033).
att(1157,239).
att(1019,1153).
att(1187,483).
att(1149,142).
att(1010,1086).
att(1157,273).
att(1025,1205).
att(1163,285).
att(1163,279).
att(1157,142).
att(1161,137).
att(1012,1114).
att(1166,487).
att(1033,1195).
att(1130,285).
att(957,1124).
att(1153,373).
att(1269,285).
att(963,1126).
att(955,955).
att(1131,495).
att(957,957).
att(1163,394).
att(958,958).
att(1010,1248).
att(1010,1264).
att(959,959).
att(1130,396).
att(1130,403).
att(1010,1309).
att(1015,1269).
att(1015,1268).
att(969,961).
att(1015,1300).
att(891,1163).
att(891,1159).
att(1195,273).
att(1070,483).
att(1345,1301).
att(881,1211).
att(1195,282).
att(1083,563).
att(884,1201).
att(1211,241).
att(1076,487).
att(1204,295).
att(1208,233).
att(1353,1336).
att(1166,371).
att(1187,298).
att(1080,483).
att(1198,146).
att(1353,1301).
att(1251,1472).
att(1251,1451).
att(886,1078).
att(1211,282).
att(1076,513).
att(1166,239).
att(1362,1301).
att(876,1076).
att(1067,467).
att(1362,1308).
att(1353,1162).
att(1258,1470).
att(1076,374).
att(1356,1154).
att(1211,140).
att(886,1113).
att(897,1067).
att(1083,517).
att(1195,163).
att(1251,1445).
att(1362,1145).
att(1338,1220).
att(1337,1306).
att(1362,1162).
att(1353,1194).
att(876,971).
att(1221,1457).
att(1219,1470).
att(894,1119).
att(1362,1194).
att(1221,1451).
att(1019,1128).
att(1208,373).
att(1007,955).
att(1353,1388).
att(1022,1117).
att(741,1343).
att(1019,1113).
att(1166,495).
att(740,1328).
att(1211,398).
att(1334,1470).
att(1007,1121).
att(1214,396).
att(998,961).
att(1356,1393).
att(1166,447).
att(1012,1016).
att(1208,458).
att(1208,455).
att(1015,1012).
att(1211,445).
att(1337,1377).
att(1187,337).
att(1015,998).
att(1198,357).
att(894,1216).
att(891,1217).
att(1016,1016).
att(1015,891).
att(998,886).
att(1166,445).
att(877,1309).
att(1214,314).
att(1187,357).
att(1345,1323).
att(1353,1393).
att(1025,1010).
att(998,891).
att(894,1268).
att(888,1296).
att(1353,1352).
att(1076,543).
att(894,1303).
att(741,1395).
att(876,1157).
att(1019,877).
att(1337,1323).
att(1063,1019).
att(1251,303).
att(1261,445).
att(1119,1359).
att(741,1469).
att(1251,324).
att(894,52).
att(1076,971).
att(1121,1362).
att(1083,1126).
att(897,44).
att(1067,1124).
att(897,61).
att(1117,1267).
att(1078,961).
att(746,1414).
att(746,1413).
att(1113,1309).
att(746,1417).
att(1251,354).
att(1126,1338).
att(1121,1251).
att(1267,334).
att(749,1417).
att(742,1513).
att(1067,897).
att(746,1440).
att(1124,1264).
att(741,1475).
att(742,1478).
att(1126,1248).
att(1221,337).
att(1305,549).
att(1115,1155).
att(1217,369).
att(746,1448).
att(1115,1309).
att(744,1520).
att(1338,359).
att(1264,563).
att(742,1523).
att(747,1474).
att(1076,1149).
att(1332,363).
att(749,1474).
att(1248,563).
att(897,143).
att(1353,285).
att(878,77).
att(1061,1061).
att(743,1478).
att(894,193).
att(1076,1195).
att(886,86).
att(1359,282).
att(745,1474).
att(1359,295).
att(1267,479).
att(1063,1121).
att(1217,471).
att(1251,403).
att(1067,1067).
att(884,106).
att(1070,1073).
att(894,75).
att(1073,1073).
att(1267,509).
att(886,94).
att(1076,1061).
att(1221,483).
att(1076,1076).
att(1216,517).
att(1216,515).
att(1078,1078).
att(891,94).
att(1261,398).
att(891,98).
att(1080,1070).
att(1217,515).
att(1080,1080).
att(1073,1111).
att(1221,507).
att(897,96).
att(957,1303).
att(1115,1010).
att(957,1268).
att(963,1264).
att(1113,877).
att(957,1309).
att(1117,1022).
att(1298,359).
att(959,1338).
att(1126,963).
att(1271,452).
att(1121,1007).
att(1115,877).
att(1307,359).
att(1128,1010).
att(1269,369).
att(1151,492).
att(957,1086).
att(1130,563).
att(1305,277).
att(1307,298).
att(1309,285).
att(971,1149).
att(1267,145).
att(1124,1155).
att(1264,285).
att(1121,1211).
att(1126,1151).
att(1121,1208).
att(1115,1161).
att(1111,1111).
att(1221,155).
att(1300,405).
att(1114,1114).
att(1261,140).
att(1296,492).
att(1271,467).
att(955,1362).
att(1115,1117).
att(1115,1115).
att(1307,376).
att(957,1359).
att(1216,146).
att(1119,1119).
att(957,1216).
att(1114,1016).
att(1269,394).
att(1114,1012).
att(1111,959).
att(1149,1076).
att(1151,1078).
att(1007,413).
att(1007,409).
att(963,86).
att(1163,1201).
att(958,95).
att(1015,342).
att(955,50).
att(998,366).
att(1149,961).
att(961,52).
att(1015,242).
att(1204,1359).
att(1157,971).
att(1022,236).
att(1022,247).
att(1159,961).
att(1187,1221).
att(1022,242).
att(1153,1025).
att(1007,242).
att(998,276).
att(1033,362).
att(1033,360).
att(1163,961).
att(1214,1345).
att(1303,961).
att(963,243).
att(1303,957).
att(1126,57).
att(955,208).
att(1151,1296).
att(1271,1010).
att(1153,1309).
att(1268,969).
att(958,153).
att(1130,1353).
att(953,289).
att(1157,1334).
att(1309,1010).
att(1131,1362).
att(1131,1356).
att(1271,877).
att(1149,1149).
att(963,147).
att(1151,1151).
att(1269,1016).
att(1163,1269).
att(958,196).
att(969,296).
att(1153,1153).
att(1271,1022).
att(1163,1300).
att(1157,1149).
att(1151,1205).
att(1015,408).
att(1159,1159).
att(1130,1305).
att(1161,1161).
att(971,156).
att(1330,519).
att(1356,374).
att(891,302).
att(1353,403).
att(1166,1076).
att(1356,396).
att(891,328).
att(1204,1119).
att(1362,403).
att(1022,96).
att(891,408).
att(1353,442).
att(1345,314).
att(891,366).
att(1076,1334).
att(1073,1345).
att(1201,969).
att(1022,48).
att(1359,439).
att(1211,1128).
att(1337,407).
att(877,208).
att(1063,1307).
att(1078,1356).
att(1198,1010).
att(891,232).
att(1208,969).
att(1362,303).
att(1076,1258).
att(876,274).
att(1080,1221).
att(1330,330).
att(894,291).
att(1086,1264).
att(894,274).
att(1211,1016).
att(1083,1264).
att(1204,881).
att(1151,888).
att(1208,1219).
att(1198,1271).
att(741,508).
att(740,511).
att(1149,876).
att(748,399).
att(745,494).
att(1015,164).
att(1163,1012).
att(1163,1010).
att(746,454).
att(1359,552).
att(1022,161).
att(746,448).
att(1208,1307).
att(1157,878).
att(1015,190).
att(998,190).
att(747,444).
att(1195,1195).
att(1012,77).
att(886,409).
att(749,482).
att(1195,1161).
att(1166,1296).
att(1007,194).
att(998,86).
att(1007,204).
att(748,494).
att(1016,77).
att(891,413).
att(746,511).
att(1187,1111).
att(894,440).
att(1015,98).
att(1211,1211).
att(998,98).
att(1187,1070).
att(1337,485).
att(1362,519).
att(1061,188).
att(1073,147).
att(746,536).
att(1217,1217).
att(886,862).
att(1219,1248).
att(1076,159).
att(1219,1219).
att(749,523).
att(1061,156).
att(1248,1309).
att(897,837).
att(1221,1258).
att(1221,1221).
att(1173,681).
att(1063,92).
att(1235,700).
att(884,800).
att(741,535).
att(891,866).
att(1070,192).
att(1217,1300).
att(1239,700).
att(1244,713).
att(1221,1307).
att(1192,520).
att(1063,110).
att(1221,1187).
att(891,787).
att(1177,702).
att(1251,1063).
att(1181,533).
att(1245,727).
att(1173,713).
att(1111,453).
att(1237,729).
att(1171,720).
att(1119,338).
att(1080,82).
att(1119,332).
att(1251,1121).
att(1216,1198).
att(1264,1086).
att(744,579).
att(1070,322).
att(1195,100).
att(877,882).
att(1214,102).
att(891,956).
att(894,970).
att(897,960).
att(894,964).
att(1166,198).
att(1067,456).
att(1063,232).
att(881,889).
att(1181,618).
att(1251,1334).
att(1214,106).
att(749,692).
att(891,904).
att(1338,1111).
att(1251,1258).
att(1181,656).
att(1330,1114).
att(891,882).
att(1353,958).
att(1251,1251).
att(894,882).
att(897,902).
att(1076,247).
att(1166,108).
att(1337,1128).
att(1353,1025).
att(1261,1219).
att(1067,274).
att(1338,959).
att(1258,1258).
att(894,916).
att(1332,969).
att(1179,677).
att(1076,296).
att(1083,236).
att(1264,1248).
att(877,846).
att(1248,1264).
att(1303,1151).
att(1296,1201).
att(1303,1157).
att(1114,77).
att(1216,884).
att(1268,1268).
att(1121,204).
att(1124,143).
att(1217,891).
att(1271,1300).
att(1217,877).
att(1303,1198).
att(1136,709).
att(1269,1163).
att(965,459).
att(1307,1201).
att(1269,1159).
att(1271,1161).
att(955,358).
att(1307,1078).
att(1126,86).
att(971,408).
att(1124,79).
att(1271,1198).
att(1296,1078).
att(1121,110).
att(1309,1086).
att(957,243).
att(969,332).
att(1124,106).
att(1117,48).
att(957,249).
att(1303,1113).
att(1115,44).
att(1126,104).
att(1117,47).
att(1309,1113).
att(1126,100).
att(1216,1086).
att(1261,1114).
att(1221,1073).
att(1221,1070).
att(1221,1080).
att(1267,1117).
att(1124,343).
att(1216,1124).
att(1248,1010).
att(1305,1330).
att(1217,1124).
att(1307,1338).
att(1219,1128).
att(1121,242).
att(1216,971).
att(1296,1296).
att(1216,961).
att(1298,1298).
att(1267,1022).
att(1121,276).
att(1296,1151).
att(1269,1217).
att(1124,299).
att(1217,998).
att(1307,1307).
att(1111,147).
att(1303,1216).
att(971,1031).
att(1268,94).
att(1163,342).
att(969,1031).
att(1131,325).
att(1269,98).
att(957,852).
att(1155,299).
att(1161,238).
att(955,862).
att(1163,296).
att(957,859).
att(958,869).
att(953,790).
att(1019,1081).
att(957,811).
att(1022,1037).
att(1163,143).
att(1149,159).
att(1163,153).
att(1163,164).
att(959,1077).
att(1111,797).
att(953,1037).
att(965,1074).
att(1121,871).
att(1126,848).
att(963,1077).
att(1124,840).
att(953,1074).
att(961,1116).
att(1303,200).
att(1128,806).
att(963,1125).
att(1126,871).
att(957,1008).
att(1151,408).
att(1269,190).
att(1269,198).
att(1303,106).
att(955,882).
att(1131,411).
att(1130,456).
att(1130,411).
att(965,1008).
att(884,1165).
att(1010,846).
att(1353,1264).
att(1033,902).
att(1025,914).
att(1334,1334).
att(1166,362).
att(891,1196).
att(891,1212).
att(1016,840).
att(1198,161).
att(891,1164).
att(1033,844).
att(1012,862).
att(1208,296).
att(897,1209).
att(886,1068).
att(998,866).
att(1007,848).
att(1015,866).
att(1016,862).
att(1330,1305).
att(1063,456).
att(1010,806).
att(740,1257).
att(1012,787).
att(877,1129).
att(1362,1153).
att(746,1190).
att(747,1210).
att(741,1150).
att(1073,443).
att(886,967).
att(894,1129).
att(1073,453).
att(1208,206).
att(1022,790).
att(1362,1205).
att(876,967).
att(1359,1201).
att(1063,409).
att(1337,1159).
att(959,797).
att(1015,967).
att(998,967).
att(971,862).
att(1149,100).
att(1201,332).
att(1015,1020).
att(1022,966).
att(1204,332).
att(1033,1120).
att(998,1020).
att(1019,1034).
att(1131,95).
att(1163,47).
att(1195,360).
att(1016,1017).
att(1163,54).
att(1345,1345).
att(1153,57).
att(1149,44).
att(1153,50).
att(741,1375).
att(743,1325).
att(1007,913).
att(1211,368).
att(1157,52).
att(1356,1356).
att(1166,301).
att(1159,52).
att(1362,1330).
att(1359,1359).
att(1166,328).
att(1007,895).
att(1025,882).
att(1362,1362).
att(59,1366).
att(748,1377).
att(1353,84).
att(59,1391).
att(59,1385).
att(891,60).
att(1076,964).
att(894,51).
att(884,64).
att(1083,1129).
att(744,1470).
att(878,56).
att(1063,879).
att(1216,459).
att(1345,61).
att(1338,82).
att(50,1324).
att(747,1396).
att(1216,440).
att(886,16).
att(884,14).
att(1359,108).
att(749,1418).
att(1073,1011).
att(1337,86).
att(876,15).
att(744,1377).
att(57,1328).
att(894,19).
att(1261,360).
att(1217,302).
att(1353,50).
att(1261,368).
att(61,1320).
att(1219,335).
att(1073,898).
att(1217,328).
att(1061,902).
att(1061,837).
att(1061,836).
att(54,1262).
att(1217,370).
att(1251,276).
att(1070,907).
att(1217,366).
att(1217,343).
att(1216,358).
att(48,1335).
att(1073,913).
att(54,1249).
att(1332,57).
att(1086,882).
att(748,1451).
att(1007,4).
att(881,207).
att(878,189).
att(61,1478).
att(106,1348).
att(1022,28).
att(886,191).
att(1362,208).
att(1022,42).
att(95,1265).
att(1195,902).
att(46,1513).
att(888,294).
att(47,1502).
att(876,201).
att(1070,1209).
att(47,1450).
att(1332,208).
att(886,89).
att(1019,22).
att(894,189).
att(894,199).
att(876,80).
att(50,1497).
att(47,1391).
att(1063,1118).
att(47,1385).
att(50,1469).
att(1198,873).
att(61,1442).
att(61,1426).
att(877,113).
att(1067,1209).
att(104,1256).
att(1061,1087).
att(881,62).
att(891,113).
att(1070,1125).
att(59,1466).
att(894,105).
att(54,1385).
att(894,113).
att(891,99).
att(54,1366).
att(59,1450).
att(894,101).
att(886,58).
att(1073,1112).
att(1268,408).
att(1267,47).
att(1267,54).
att(1307,335).
att(1261,108).
att(1217,74).
att(1217,77).
att(1269,301).
att(1119,889).
att(1124,1017).
att(1126,1023).
att(1269,302).
att(1128,1026).
att(1121,898).
att(957,1209).
att(1303,249).
att(1219,57).
att(1309,208).
att(1269,366).
att(1269,343).
att(1115,850).
att(1303,291).
att(1305,286).
att(1305,283).
att(1298,150).
att(1300,153).
att(1126,913).
att(1269,242).
att(1271,243).
att(1216,249).
att(1073,848).
att(1070,852).
att(1216,240).
att(48,1265).
att(1251,204).
att(1216,291).
att(1078,842).
att(1070,871).
att(1267,161).
att(1073,856).
att(1219,299).
att(1073,864).
att(1217,276).
att(1111,1077).
att(1115,1209).
att(1115,1206).
att(1219,276).
att(1267,164).
att(1221,192).
att(1086,806).
att(1300,443).
att(1251,81).
att(1070,797).
att(1221,147).
att(1305,413).
att(1303,440).
att(1080,797).
att(1300,338).
att(1121,960).
att(1267,92).
att(88,1425).
att(88,1423).
att(206,1259).
att(1307,838).
att(206,1256).
att(204,1252).
att(1124,2).
att(74,1450).
att(1163,1164).
att(963,89).
att(1126,2).
att(1309,846).
att(84,1448).
att(1271,873).
att(1309,806).
att(957,51).
att(92,1440).
att(1163,1037).
att(1271,846).
att(75,1466).
att(1130,1202).
att(1151,972).
att(1303,811).
att(1161,1123).
att(1303,806).
att(957,70).
att(1130,1084).
att(1269,866).
att(74,1413).
att(1307,803).
att(953,17).
att(1131,954).
att(1149,1017).
att(955,12).
att(957,19).
att(1157,956).
att(1163,970).
att(963,69).
att(1015,287).
att(92,1366).
att(1269,787).
att(75,1411).
att(965,68).
att(1269,813).
att(1155,1026).
att(81,1520).
att(1303,964).
att(1303,962).
att(196,1415).
att(1111,16).
att(79,1520).
att(1126,58).
att(958,281).
att(1271,1129).
att(1217,790).
att(196,1328).
att(958,139).
att(1126,72).
att(1305,1013).
att(1128,72).
att(1121,21).
att(1303,889).
att(741,275).
att(959,154).
att(1121,22).
att(953,189).
att(1121,4).
att(1115,26).
att(744,273).
att(74,1513).
att(1119,40).
att(204,1316).
att(204,1328).
att(748,140).
att(1121,28).
att(84,1520).
att(1269,1013).
att(196,1265).
att(955,85).
att(959,189).
att(198,1249).
att(75,1495).
att(204,1350).
att(206,1351).
att(1119,8).
att(740,282).
att(74,1425).
att(75,1500).
att(77,1498).
att(953,197).
att(1271,902).
att(1121,5).
att(1307,913).
att(746,246).
att(1012,49).
att(742,365).
att(1208,1068).
att(102,1363).
att(1157,862).
att(1166,1165).
att(749,248).
att(1012,55).
att(1033,80).
att(1163,862).
att(998,60).
att(1161,864).
att(1131,787).
att(1016,49).
att(98,1421).
att(741,234).
att(1359,453).
att(95,1415).
att(54,1520).
att(106,1417).
att(1198,1029).
att(1353,341).
att(746,324).
att(742,439).
att(95,1346).
att(1334,409).
att(1208,962).
att(1019,66).
att(749,324).
att(876,292).
att(1353,411).
att(1015,14).
att(1362,328).
att(1362,341).
att(54,1480).
att(881,157).
att(1007,28).
att(749,231).
att(1208,1031).
att(96,1314).
att(1208,1011).
att(1359,370).
att(877,148).
att(1187,898).
att(102,1480).
att(959,16).
att(1157,1034).
att(88,1312).
att(86,1328).
att(94,1478).
att(1015,114).
att(1007,251).
att(1025,284).
att(1153,885).
att(963,16).
att(96,1520).
att(1015,148).
att(749,405).
att(1022,287).
att(98,1517).
att(953,20).
att(965,13).
att(1149,1031).
att(1163,1020).
att(100,1498).
att(1019,162).
att(1157,892).
att(957,6).
att(1153,914).
att(86,1354).
att(79,1265).
att(95,1504).
att(741,497).
att(1022,139).
att(1022,157).
att(971,15).
att(104,1517).
att(74,1249).
att(1163,904).
att(1019,195).
att(1198,1209).
att(1198,1206).
att(102,1442).
att(102,1426).
att(747,460).
att(959,2).
att(1022,191).
att(1007,195).
att(1130,879).
att(1010,113).
att(1198,1074).
att(998,113).
att(740,558).
att(104,1512).
att(998,99).
att(1130,911).
att(104,1498).
att(1007,93).
att(998,107).
att(744,462).
att(1080,250).
att(274,1242).
att(1330,1013).
att(1332,1031).
att(147,1521).
att(894,843).
att(141,1480).
att(52,464).
att(747,549).
att(1063,93).
att(884,801).
att(161,1492).
att(138,1494).
att(291,1314).
att(1362,911).
att(749,543).
att(1204,8).
att(1362,914).
att(1166,3).
att(57,486).
att(57,484).
att(153,1429).
att(891,788).
att(1083,203).
att(156,1430).
att(1353,840).
att(48,461).
att(886,834).
att(894,812).
att(1362,840).
att(280,1256).
att(876,826).
att(1211,3).
att(138,1442).
att(886,821).
att(876,833).
att(159,1425).
att(1216,1209).
att(878,752).
att(876,768).
att(1337,873).
att(161,1440).
att(1330,840).
att(59,514).
att(1261,1087).
att(894,819).
att(894,831).
att(1073,103).
att(1219,1215).
att(1073,101).
att(1267,1037).
att(44,399).
att(1076,97).
att(1221,1206).
att(54,690).
att(1166,80).
att(283,1448).
att(881,1030).
att(1208,76).
att(1211,90).
att(1022,821).
att(44,705).
att(102,391).
att(876,973).
att(1187,111).
att(1033,801).
att(104,484).
att(274,1473).
att(1015,754).
att(110,511).
att(106,393).
att(891,1018).
att(1338,1077).
att(95,313).
att(276,1421).
att(1198,53).
att(1019,756).
att(1015,783).
att(1022,757).
att(1019,753).
att(881,973).
att(1166,85).
att(47,589).
att(274,1384).
att(1025,757).
att(1025,756).
att(1362,1129).
att(100,333).
att(891,905).
att(1205,60).
att(1033,750).
att(1345,1011).
att(57,610).
att(291,1383).
att(1187,16).
att(1025,735).
att(108,454).
att(1198,67).
att(884,917).
att(876,925).
att(110,457).
att(110,451).
att(98,448).
att(1195,63).
att(46,655).
att(104,400).
att(57,685).
att(1211,55).
att(280,1363).
att(1345,887).
att(1067,290).
att(878,843).
att(1070,250).
att(1063,160).
att(1208,73).
att(54,536).
att(1070,287).
att(1205,66).
att(886,839).
att(96,323).
att(878,922).
att(1061,294).
att(138,1523).
att(1201,14).
att(198,1502).
att(1221,907).
att(159,1360).
att(1117,197).
att(1216,889).
att(138,1246).
att(1113,113).
att(1124,189).
att(1124,197).
att(204,1494).
att(1298,1077).
att(192,1471).
att(1126,191).
att(1121,83).
att(1264,846).
att(1080,6).
att(1115,99).
att(1298,1123).
att(190,1391).
att(1111,53).
att(1124,89).
att(204,1424).
att(198,1450).
att(1271,1165).
att(1121,107).
att(193,1383).
att(1114,55).
att(1271,1209).
att(1303,1122).
att(192,1400).
att(1221,803).
att(1258,793).
att(198,1389).
att(206,1446).
att(1119,62).
att(1126,113).
att(1121,45).
att(888,757).
att(1063,71).
att(1251,968).
att(46,323).
att(159,1466).
att(52,438).
att(59,400).
att(894,758).
att(1221,1068).
att(897,759).
att(61,391).
att(1086,113).
att(897,735).
att(1258,967).
att(1217,1116).
att(891,780).
att(1070,69).
att(193,1517).
att(891,774).
att(1216,1122).
att(1251,1026).
att(1251,1023).
att(1258,956).
att(888,766).
att(1073,67).
att(54,323).
att(161,1391).
att(1267,954).
att(164,1391).
att(193,1482).
att(143,1335).
att(1248,882).
att(1067,15).
att(1113,148).
att(1221,1011).
att(196,1515).
att(891,732).
att(161,1415).
att(891,739).
att(1217,968).
att(159,1421).
att(1251,895).
att(61,323).
att(1219,967).
att(1121,251).
att(48,323).
att(1076,17).
att(1076,15).
att(164,1421).
att(1067,38).
att(1221,887).
att(1267,906).
att(1067,26).
att(1217,1013).
att(188,1474).
att(1217,1020).
att(192,1478).
att(138,1360).
att(1076,36).
att(1219,1023).
att(1271,53).
att(190,336).
att(190,333).
att(198,454).
att(198,451).
att(1438,677).
att(1300,65).
att(969,1027).
att(1119,776).
att(958,917).
att(1305,55).
att(198,446).
att(1305,53).
att(79,583).
att(1428,657).
att(75,610).
att(206,393).
att(79,536).
att(1271,65).
att(79,523).
att(1128,733).
att(198,323).
att(1117,736).
att(242,1518).
att(957,854).
att(232,1520).
att(1428,676).
att(204,457).
att(343,1384).
att(1119,764).
att(1431,706).
att(1303,19).
att(953,867).
att(370,1314).
att(360,1346).
att(1307,16).
att(232,1474).
att(270,531).
att(971,912).
att(1432,717).
att(75,535).
att(206,329).
att(358,1322).
att(1126,733).
att(206,323).
att(971,917).
att(958,857).
att(1300,30).
att(1432,720).
att(1149,201).
att(1296,9).
att(265,538).
att(1131,139).
att(249,1482).
att(1153,195).
att(1303,30).
att(1433,718).
att(86,562).
att(1428,713).
att(1305,32).
att(362,1242).
att(958,809).
att(249,1484).
att(238,1474).
att(1131,281).
att(77,542).
att(1305,158).
att(259,553).
att(192,461).
att(265,566).
att(322,1249).
att(1128,857).
att(1434,724).
att(193,486).
att(370,1493).
att(1216,18).
att(265,572).
att(335,1346).
att(198,562).
att(1216,19).
att(193,481).
att(1126,847).
att(1216,14).
att(1251,4).
att(1251,3).
att(1114,804).
att(1439,614).
att(322,1354).
att(1309,148).
att(358,1474).
att(265,620).
att(1113,823).
att(362,1441).
att(1269,165).
att(364,1443).
att(268,614).
att(302,1335).
att(1269,114).
att(193,518).
att(301,1346).
att(1111,814).
att(1128,865).
att(1271,148).
att(259,616).
att(1217,28).
att(1439,658).
att(79,705).
att(1303,87).
att(265,648).
att(1271,89).
att(263,616).
att(342,1502).
att(957,1032).
att(302,1249).
att(188,494).
att(1126,798).
att(270,658).
att(261,611).
att(270,659).
att(1300,99).
att(193,393).
att(301,1249).
att(1307,91).
att(1296,91).
att(343,1513).
att(1439,687).
att(742,961).
att(1128,755).
att(194,399).
att(368,1444).
att(86,685).
att(1111,778).
att(1121,772).
att(958,901).
att(1305,107).
att(961,1027).
att(198,375).
att(1124,823).
att(748,1012).
att(188,399).
att(194,496).
att(194,494).
att(953,1028).
att(259,687).
att(257,687).
att(82,323).
att(742,1195).
att(270,702).
att(745,1061).
att(265,711).
att(245,1419).
att(95,521).
att(1439,714).
att(94,523).
att(1151,14).
att(242,1314).
att(1015,855).
att(75,326).
att(106,589).
att(1130,55).
att(1187,284).
att(236,1415).
att(1439,717).
att(998,853).
att(276,1520).
att(286,1474).
att(1208,251).
att(100,542).
att(95,480).
att(998,788).
att(245,1321).
att(741,1067).
att(220,520).
att(245,1318).
att(247,1312).
att(1019,841).
att(226,520).
att(268,712).
att(1208,300).
att(1015,861).
att(280,1518).
att(740,1211).
att(1015,868).
att(98,536).
att(232,1348).
att(1187,154).
att(104,651).
att(254,709).
att(271,538).
att(998,861).
att(222,538).
att(257,714).
att(969,739).
att(270,723).
att(291,1493).
att(743,1268).
att(1166,157).
att(218,522).
att(212,531).
att(1151,6).
att(746,1130).
att(1151,9).
att(218,524).
att(1157,36).
att(746,1131).
att(1204,197).
att(261,720).
att(1153,7).
att(299,1474).
att(740,1261).
att(1012,804).
att(1130,12).
att(749,1131).
att(1161,32).
att(271,566).
att(222,566).
att(1155,9).
att(743,1159).
att(742,1159).
att(299,1500).
att(1211,202).
att(245,1252).
att(245,1262).
att(741,1271).
att(749,1204).
att(216,553).
att(271,620).
att(214,569).
att(291,1475).
att(1015,823).
att(214,578).
att(1187,91).
att(274,1441).
att(214,574).
att(226,611).
att(218,578).
att(232,1426).
att(226,625).
att(232,1430).
att(1155,91).
att(1161,197).
att(242,1440).
att(224,625).
att(343,1360).
att(1155,89).
att(1131,78).
att(212,620).
att(959,833).
att(1161,90).
att(240,1466).
att(242,1444).
att(247,1425).
att(86,496).
att(955,757).
att(95,678).
att(224,650).
att(95,685).
att(272,687).
att(1015,1021).
att(1015,1018).
att(238,1430).
att(82,466).
att(75,516).
att(1268,2).
att(953,772).
att(955,783).
att(108,688).
att(98,610).
att(81,448).
att(218,654).
att(108,703).
att(272,704).
att(1157,97).
att(998,903).
att(232,1363).
att(272,710).
att(1015,905).
att(1025,973).
att(271,711).
att(953,760).
att(75,393).
att(95,579).
att(1155,49).
att(1007,1028).
att(1019,890).
att(953,734).
att(748,1334).
att(77,336).
att(98,653).
att(218,672).
att(220,707).
att(971,780).
att(955,735).
att(226,707).
att(242,1419).
att(749,1356).
att(271,715).
att(1153,66).
att(749,1362).
att(272,721).
att(1022,896).
att(75,446).
att(236,1391).
att(222,712).
att(998,910).
att(236,1385).
att(1163,60).
att(1163,58).
att(222,715).
att(1487,586).
att(1338,189).
att(453,1423).
att(1503,723).
att(291,482).
att(1198,829).
att(296,464).
att(1208,810).
att(44,1422).
att(299,486).
att(1362,91).
att(296,488).
att(1214,810).
att(1479,566).
att(1362,83).
att(1486,616).
att(50,1319).
att(1479,572).
att(1337,99).
att(440,1384).
att(280,393).
att(1214,759).
att(456,1469).
att(1356,111).
att(59,1401).
att(1198,760).
att(1488,611).
att(299,494).
att(1488,630).
att(286,399).
att(1187,761).
att(291,464).
att(440,1471).
att(46,1323).
att(46,1315).
att(1481,630).
att(141,688).
att(1070,905).
att(50,1344).
att(164,690).
att(1332,113).
att(1356,60).
att(1070,880).
att(1205,757).
att(413,1448).
att(1086,1032).
att(411,1469).
att(61,1323).
att(411,1450).
att(1198,770).
att(411,1448).
att(47,1331).
att(104,1082).
att(1211,755).
att(46,1352).
att(1204,776).
att(291,446).
att(150,655).
att(291,444).
att(1067,912).
att(1345,17).
att(283,336).
att(450,1417).
att(1214,732).
att(1362,12).
att(1356,66).
att(59,1355).
att(1330,56).
att(1483,660).
att(1201,739).
att(1208,766).
att(296,438).
att(1481,676).
att(411,1371).
att(450,1369).
att(48,1344).
att(1481,679).
att(48,1361).
att(1479,679).
att(1334,49).
att(46,1218).
att(243,444).
att(1198,925).
att(1131,766).
att(106,1355).
att(1489,700).
att(240,320).
att(1157,768).
att(1488,702).
att(293,612).
att(247,446).
att(1208,883).
att(95,1247).
att(249,435).
att(236,448).
att(1163,783).
att(1130,757).
att(1153,735).
att(1214,890).
att(243,326).
att(1485,701).
att(98,1306).
att(456,1514).
att(1465,544).
att(1131,735).
att(1481,713).
att(1487,724).
att(102,1295).
att(110,1257).
att(1345,300).
att(1460,538).
att(95,1306).
att(291,589).
att(1486,722).
att(293,536).
att(409,1520).
att(1452,526).
att(1458,522).
att(1345,197).
att(54,1451).
att(1463,572).
att(1488,729).
att(440,1484).
att(299,537).
att(1204,870).
att(299,523).
att(96,1301).
att(1214,841).
att(1187,875).
att(1460,572).
att(293,548).
att(408,1493).
att(1195,801).
att(456,1497).
att(286,466).
att(98,1189).
att(1201,788).
att(1461,566).
att(1359,197).
att(1359,207).
att(52,1453).
att(283,542).
att(96,1150).
att(96,1160).
att(1251,56).
att(1117,1028).
att(1251,45).
att(1465,648).
att(193,610).
att(159,518).
att(1216,87).
att(301,1425).
att(192,612).
att(164,514).
att(188,680).
att(1465,658).
att(1073,761).
att(1121,1028).
att(59,1072).
att(190,684).
att(190,682).
att(1454,614).
att(138,404).
att(188,705).
att(156,399).
att(1124,973).
att(192,619).
att(1452,614).
att(196,575).
att(1063,734).
att(200,589).
att(301,1467).
att(301,1450).
att(1067,768).
att(200,610).
att(1080,757).
att(1128,1027).
att(196,685).
att(1463,706).
att(193,539).
att(1070,732).
att(1251,12).
att(161,448).
att(1078,766).
att(1458,659).
att(328,1322).
att(362,1523).
att(1251,21).
att(1465,709).
att(1117,917).
att(194,589).
att(206,610).
att(161,446).
att(153,313).
att(1217,60).
att(364,1517).
att(1217,58).
att(196,589).
att(196,583).
att(1128,899).
att(335,1314).
att(190,561).
att(196,536).
att(1111,863).
att(328,1360).
att(1307,251).
att(301,1417).
att(193,548).
att(335,1328).
att(1251,43).
att(1465,718).
att(1461,706).
att(364,1492).
att(1124,912).
att(291,320).
att(46,1150).
att(1248,148).
att(161,651).
att(164,628).
att(1465,726).
att(409,1421).
att(1465,724).
att(1353,12).
att(1465,725).
att(1166,764).
att(1063,865).
att(1338,69).
att(54,1301).
att(341,1515).
att(1073,853).
att(1332,72).
att(411,1398).
att(299,326).
att(1458,712).
att(48,1263).
att(1428,528).
att(450,1348).
att(1338,16).
att(1362,22).
att(1216,292).
att(408,1314).
att(1462,725).
att(54,1160).
att(1070,863).
att(1431,553).
att(328,1512).
att(50,1145).
att(54,1145).
att(341,1476).
att(1264,148).
att(161,540).
att(1428,547).
att(1452,725).
att(322,1492).
att(1359,30).
att(141,542).
att(50,1186).
att(1078,874).
att(1261,202).
att(46,1062).
att(1435,613).
att(1338,32).
att(1076,812).
att(1076,788).
att(1221,165).
att(1359,8).
att(1063,756).
att(143,400).
att(159,464).
att(48,1065).
att(1086,823).
att(147,506).
att(1086,831).
att(156,494).
att(1080,814).
att(57,1190).
att(328,1473).
att(328,1467).
att(1070,834).
att(54,1062).
att(161,480).
att(302,1511).
att(322,1443).
att(304,1498).
att(81,1472).
att(204,1260).
att(81,1445).
att(196,1297).
att(342,649).
att(364,551).
att(1271,917).
att(343,655).
att(206,1250).
att(304,333).
att(84,1451).
att(198,1150).
att(364,461).
att(342,532).
att(1298,814).
att(204,1293).
att(1268,839).
att(342,536).
att(1307,875).
att(193,1213).
att(358,562).
att(194,1270).
att(343,537).
att(86,1377).
att(745,44).
att(188,1060).
att(1309,831).
att(92,1455).
att(740,110).
att(362,494).
att(1298,833).
att(206,1160).
att(204,1148).
att(370,488).
att(743,94).
att(206,1144).
att(1269,861).
att(1307,788).
att(194,1060).
att(360,375).
att(88,1399).
att(368,511).
att(1153,1032).
att(232,680).
att(82,1392).
att(204,1190).
att(1221,829).
att(164,1065).
att(1216,798).
att(335,516).
att(749,102).
att(1217,804).
att(206,1364).
att(1300,1027).
att(302,464).
att(190,1401).
att(196,1377).
att(332,464).
att(138,1069).
att(156,1060).
att(1264,831).
att(1221,759).
att(1221,761).
att(1216,826).
att(1309,1032).
att(1307,1009).
att(1217,835).
att(1251,772).
att(372,678).
att(194,1422).
att(164,1062).
att(747,110).
att(1217,823).
att(1217,821).
att(746,161).
att(364,631).
att(749,150).
att(1269,1021).
att(193,1255).
att(744,276).
att(302,402).
att(338,438).
att(194,1323).
att(1217,754).
att(741,141).
att(746,204).
att(745,188).
att(740,156).
att(1217,780).
att(1271,893).
att(1153,810).
att(245,567).
att(1163,861).
att(236,551).
att(84,1194).
att(746,276).
att(1163,823).
att(238,494).
att(243,482).
att(81,1082).
att(746,280).
att(1157,801).
att(92,1160).
att(104,1457).
att(94,1418).
att(249,464).
att(232,511).
att(92,1145).
att(98,1370).
att(75,1213).
att(232,518).
att(249,481).
att(747,289).
att(747,286).
att(232,512).
att(1496,559).
att(1506,611).
att(106,1420).
att(1163,754).
att(98,1327).
att(1187,883).
att(1130,823).
att(1509,614).
att(1151,757).
att(1508,613).
att(238,399).
att(104,1377).
att(1153,753).
att(1153,756).
att(1201,1027).
att(1496,586).
att(82,1210).
att(1163,828).
att(104,1388).
att(1163,835).
att(95,1323).
att(276,688).
att(1131,753).
att(286,589).
att(98,1344).
att(1509,648).
att(1151,766).
att(1208,1027).
att(108,1327).
att(749,232).
att(1149,768).
att(1509,658).
att(1198,893).
att(1153,780).
att(102,1344).
att(1501,658).
att(1499,652).
att(274,610).
att(1501,660).
att(1507,679).
att(360,454).
att(1296,783).
att(1505,652).
att(1503,648).
att(1298,778).
att(240,610).
att(1303,758).
att(1507,706).
att(1269,831).
att(1163,1018).
att(1269,835).
att(1149,912).
att(1151,925).
att(748,409).
att(358,326).
att(747,453).
att(88,1333).
att(81,1260).
att(86,1361).
att(368,454).
att(746,450).
att(342,395).
att(749,443).
att(1268,752).
att(249,610).
att(1490,526).
att(242,649).
att(1501,711).
att(372,446).
att(1505,709).
att(1131,921).
att(240,539).
att(366,313).
att(81,1293).
att(1496,710).
att(1305,738).
att(1488,524).
att(1507,723).
att(1307,762).
att(1490,553).
att(1149,922).
att(74,1301).
att(75,1260).
att(245,536).
att(1487,553).
att(1481,534).
att(243,537).
att(79,1154).
att(86,1308).
att(242,542).
att(1505,721).
att(249,539).
att(1488,538).
att(75,1308).
att(1130,921).
att(98,231).
att(409,688).
att(98,248).
att(1337,880).
att(409,705).
att(1356,905).
att(459,610).
att(413,678).
att(289,1355).
att(459,589).
att(1337,1021).
att(1345,845).
att(57,563).
att(276,1306).
att(104,235).
att(440,535).
att(289,1218).
att(286,1260).
att(48,546).
att(1332,880).
att(1332,899).
att(276,1257).
att(47,471).
att(1362,921).
att(1362,919).
att(413,579).
att(411,617).
att(59,485).
att(59,465).
att(98,140).
att(110,282).
att(440,539).
att(48,479).
att(274,1306).
att(150,1470).
att(1345,810).
att(1359,870).
att(54,396).
att(1345,875).
att(110,140).
att(98,405).
att(104,509).
att(245,1299).
att(274,1451).
att(274,1453).
att(95,407).
att(106,374).
att(232,1060).
att(106,490).
att(243,1270).
att(96,396).
att(95,410).
att(238,1060).
att(289,1420).
att(283,1377).
att(249,1213).
att(293,1399).
att(291,1412).
att(98,369).
att(274,1315).
att(459,705).
att(104,455).
att(95,367).
att(1345,973).
att(249,1066).
att(50,285).
att(325,536).
att(147,1253).
att(1330,780).
att(1217,903).
att(161,1331).
att(301,577).
att(341,651).
att(1332,780).
att(161,1344).
att(164,1331).
att(302,579).
att(1217,896).
att(141,1257).
att(1334,780).
att(322,621).
att(1219,899).
att(1216,922).
att(1217,915).
att(143,1154).
att(1216,917).
att(1338,732).
att(1217,910).
att(302,649).
att(138,1297).
att(341,540).
att(190,1388).
att(322,478).
att(200,1453).
att(302,536).
att(138,1150).
att(141,1060).
att(332,488).
att(193,1406).
att(302,561).
att(1217,861).
att(1261,804).
att(1221,872).
att(341,481).
att(138,1207).
att(322,461).
att(291,1154).
att(453,466).
att(150,1388).
att(280,1203).
att(280,1197).
att(293,1154).
att(286,1210).
att(52,439).
att(161,1455).
att(459,464).
att(1362,804).
att(299,1152).
att(440,464).
att(408,488).
att(1337,821).
att(150,1418).
att(1338,814).
att(291,1213).
att(159,1377).
att(440,393).
att(286,1082).
att(453,516).
att(156,1422).
att(280,1210).
att(450,464).
att(289,1060).
att(413,466).
att(47,237).
att(335,703).
att(453,375).
att(1338,834).
att(456,400).
att(1251,883).
att(1261,1030).
att(1267,1028).
att(138,1310).
att(1264,1032).
att(1356,757).
att(46,371).
att(1248,1032).
att(147,1418).
att(299,1060).
att(322,684).
att(1267,1024).
att(138,1323).
att(143,1260).
att(159,1315).
att(301,685).
att(48,234).
att(1356,783).
att(47,285).
att(1345,732).
att(1359,776).
att(54,237).
att(304,688).
att(1362,783).
att(332,1203).
att(360,1422).
att(360,1420).
att(194,445).
att(418,1436).
att(192,314).
att(310,1285).
att(362,1422).
att(310,1281).
att(342,1453).
att(740,862).
att(743,859).
att(41,639).
att(415,1436).
att(342,1470).
att(198,447).
att(41,645).
att(193,340).
att(372,1377).
att(115,423).
att(415,1486).
att(193,353).
att(133,1438).
att(193,371).
att(358,1422).
att(206,458).
att(742,916).
att(25,1108).
att(414,1499).
att(745,836).
att(310,980).
att(358,1344).
att(24,1039).
att(420,1486).
att(745,844).
att(115,124).
att(744,836).
att(196,363).
att(81,558).
att(193,234).
att(133,1459).
att(422,1479).
att(372,1323).
att(135,1458).
att(198,363).
att(364,1352).
att(417,1503).
att(747,836).
att(308,1136).
att(309,1046).
att(366,1344).
att(420,1508).
att(740,844).
att(741,852).
att(362,1257).
att(117,128).
att(372,1355).
att(204,363).
att(364,1263).
att(74,465).
att(312,1038).
att(748,862).
att(312,1046).
att(343,1323).
att(141,273).
att(255,663).
att(198,558).
att(25,1185).
att(379,1507).
att(746,895).
att(417,177).
att(10,1105).
att(193,485).
att(740,1008).
att(741,1029).
att(744,1034).
att(935,742).
att(304,1327).
att(426,1481).
att(138,244).
att(748,902).
att(25,1171).
att(37,1043).
att(428,1505).
att(138,129).
att(746,913).
att(192,492).
att(309,1136).
att(37,1052).
att(29,1091).
att(25,1245).
att(301,1344).
att(741,892).
att(159,241).
att(256,670).
att(198,489).
att(310,1134).
att(941,747).
att(258,667).
att(941,748).
att(741,902).
att(161,231).
att(206,552).
att(745,902).
att(749,918).
att(341,1218).
att(426,1496).
att(747,918).
att(341,1247).
att(27,602).
att(29,590).
att(252,463).
att(37,1101).
att(746,966).
att(310,1175).
att(258,689).
att(926,743).
att(749,1011).
att(204,460).
att(198,495).
att(318,1134).
att(302,1266).
att(156,163).
att(41,1105).
att(262,696).
att(264,664).
att(315,1134).
att(315,1173).
att(325,1194).
att(424,266).
att(741,964).
att(414,1436).
att(133,261).
att(24,1294).
att(744,967).
att(27,629).
att(322,1160).
att(311,1294).
att(130,216).
att(315,1175).
att(194,490).
att(171,136).
att(747,1087).
att(81,367).
att(176,384).
att(240,1315).
att(240,1313).
att(119,1483).
att(125,1460).
att(356,1285).
att(232,1317).
att(232,1329).
att(372,1069).
att(747,1074).
att(249,1412).
att(172,185).
att(236,1344).
att(86,359).
att(305,1108).
att(123,1487).
att(245,1317).
att(355,993).
att(95,558).
att(228,431).
att(236,1329).
att(305,1095).
att(121,1506).
att(238,1257).
att(86,235).
att(102,485).
att(306,1105).
att(240,1218).
att(351,1095).
att(81,277).
att(249,1358).
att(306,1108).
att(356,980).
att(186,1488).
att(240,1255).
att(307,1093).
att(352,1039).
att(356,1056).
att(171,177).
att(88,241).
att(108,462).
att(348,1239).
att(106,485).
att(348,1235).
att(345,1175).
att(243,1260).
att(345,1173).
att(240,1308).
att(86,273).
att(166,222).
att(749,1212).
att(92,234).
att(232,1306).
att(81,129).
att(208,1352).
att(194,282).
att(366,1260).
att(1282,744).
att(192,155).
att(350,1179).
att(311,595).
att(123,185).
att(204,248).
att(1272,749).
att(82,549).
att(343,1352).
att(372,1247).
att(86,492).
att(84,519).
att(366,1297).
att(310,584).
att(310,597).
att(1276,747).
att(86,509).
att(123,216).
att(351,1171).
att(25,629).
att(319,1105).
att(315,1090).
att(358,1308).
att(315,1097).
att(188,163).
att(312,599).
att(372,1297).
att(92,479).
att(186,230).
att(120,1438).
att(310,633).
att(318,626).
att(350,1229).
att(366,1145).
att(342,1297).
att(236,1455).
att(342,1306).
att(119,1427).
att(186,212).
att(315,602).
att(342,1301).
att(82,490).
att(172,382).
att(366,1207).
att(370,1203).
att(319,639).
att(125,1432).
att(368,1190).
att(343,1150).
att(232,1420).
att(75,452).
att(108,1211).
att(213,423).
att(249,295).
att(166,1509).
att(211,144).
att(110,1211).
att(213,131).
att(171,1508).
att(348,1043).
att(242,145).
att(180,1486).
att(345,1090).
att(95,958).
att(291,515).
att(392,1038).
att(293,507).
att(221,128).
att(228,1508).
att(180,1501).
att(383,1134).
att(104,1208).
att(291,460).
att(383,1179).
att(249,146).
att(98,963).
att(104,1113).
att(345,597).
att(47,1264).
att(108,1128).
att(219,227).
att(409,1451).
att(213,212).
att(108,1114).
att(291,497).
att(110,1114).
att(223,230).
att(95,884).
att(385,1292).
att(104,963).
att(57,1334).
att(426,1237).
att(98,998).
att(100,1016).
att(459,1420).
att(61,1345).
att(381,1244).
att(411,1388).
att(104,1128).
att(280,455).
att(408,1453).
att(440,1396).
att(383,1294).
att(180,222).
att(349,602).
att(82,965).
att(345,1227).
att(306,639).
att(240,340).
att(351,629).
att(306,645).
att(356,590).
att(92,1124).
att(81,1007).
att(392,1185).
att(232,321).
att(308,639).
att(171,270).
att(95,1219).
att(348,1233).
att(84,1016).
att(245,303).
att(350,623).
att(345,1275).
att(75,881).
att(232,231).
att(345,1281).
att(387,1288).
att(350,645).
att(167,1438).
att(240,371).
att(245,327).
att(108,1261).
att(389,1224).
att(74,884).
att(95,1305).
att(98,1217).
att(349,623).
att(171,1435).
att(390,1229).
att(180,268).
att(172,1434).
att(174,1436).
att(102,1159).
att(217,436).
att(169,1454).
att(169,1459).
att(211,433).
att(228,257).
att(86,886).
att(178,1437).
att(240,239).
att(98,1268).
att(92,1022).
att(232,248).
att(387,1273).
att(286,460).
att(215,144).
att(219,384).
att(102,1205).
att(166,1501).
att(228,1461).
att(213,384).
att(299,563).
att(228,1438).
att(213,433).
att(289,485).
att(104,1307).
att(249,239).
att(94,1201).
att(274,487).
att(242,273).
att(280,543).
att(159,513).
att(338,1453).
att(35,390).
att(440,1203).
att(37,348).
att(150,374).
att(221,1499).
att(428,1050).
att(29,385).
att(138,374).
att(252,229).
att(341,1470).
att(411,1308).
att(164,495).
att(456,1150).
att(59,1076).
att(459,1154).
att(426,1038).
att(411,1299).
att(57,1128).
att(328,1393).
att(130,1139).
att(255,257).
att(381,581).
att(52,961).
att(453,1210).
att(52,969).
att(411,1162).
att(383,595).
att(440,1213).
att(426,1089).
att(133,1193).
att(411,1145).
att(262,216).
att(332,1453).
att(385,604).
att(46,878).
att(381,623).
att(11,178).
att(159,439).
att(328,1315).
att(411,1194).
att(383,626).
att(138,327).
att(413,1194).
att(385,639).
att(27,119).
att(304,1388).
att(37,119).
att(29,166).
att(262,1438).
att(255,1459).
att(37,127).
att(428,639).
att(256,1434).
att(23,23).
att(190,565).
att(161,334).
att(193,543).
att(301,1399).
att(39,127).
att(341,1323).
att(41,184).
att(322,1313).
att(25,25).
att(388,629).
att(443,1344).
att(276,241).
att(387,643).
att(291,340).
att(47,1157).
att(211,1433).
att(54,1307).
att(213,1427).
att(29,29).
att(389,645).
att(291,410).
att(50,1219).
att(215,1436).
att(383,948).
att(33,33).
att(35,11).
att(27,25).
att(262,384).
att(379,934).
att(47,1208).
att(274,273).
att(211,1464).
att(211,1465).
att(255,136).
att(106,878).
att(276,277).
att(223,1434).
att(989,748).
att(986,740).
att(274,239).
att(215,1464).
att(426,930).
att(27,305).
att(209,1503).
att(426,1003).
att(286,282).
att(992,745).
att(156,462).
att(992,744).
att(256,134).
att(29,349).
att(381,987).
att(29,318).
att(747,3).
att(411,1336).
att(161,568).
att(291,285).
att(211,1509).
att(379,1048).
att(408,1255).
att(29,390).
att(57,1201).
att(59,1166).
att(283,152).
att(256,144).
att(61,1214).
att(223,1487).
att(743,2).
att(54,1086).
att(274,152).
att(44,1061).
att(164,877).
att(159,1033).
att(253,1374).
att(318,423).
att(133,1098).
att(161,1022).
att(133,1100).
att(194,1261).
att(190,1268).
att(255,1365).
att(417,624).
att(742,64).
att(37,1489).
att(192,1205).
att(304,241).
att(741,17).
att(746,43).
att(325,273).
att(743,14).
att(311,118).
att(302,369).
att(206,1268).
att(372,546).
att(360,558).
att(312,128).
att(417,661).
att(255,1397).
att(269,1341).
att(264,1381).
att(746,45).
att(304,273).
att(115,931).
att(192,1073).
att(192,1070).
att(368,485).
att(206,1159).
att(204,1153).
att(748,49).
att(311,229).
att(748,56).
att(190,1166).
att(130,640).
att(343,563).
att(358,462).
att(304,140).
att(310,212).
att(190,1124).
att(742,63).
att(362,401).
att(360,398).
att(193,1119).
att(198,1076).
att(360,490).
att(130,664).
att(48,95).
att(426,669).
att(29,212).
att(44,44).
att(11,261).
att(453,137).
att(47,54).
att(746,93).
att(11,271).
att(430,665).
att(54,96).
att(409,277).
att(409,273).
att(48,92).
att(156,1061).
att(301,490).
att(130,937).
att(141,961).
att(37,224).
att(417,1109).
att(29,259).
att(138,953).
att(159,1076).
att(301,513).
att(192,1345).
att(301,495).
att(50,50).
att(328,410).
att(383,472).
att(302,515).
att(740,202).
att(385,468).
att(385,469).
att(133,1014).
att(54,47).
att(35,226).
att(61,96).
att(192,1221).
att(424,1109).
att(196,1337).
att(746,151).
att(147,959).
att(381,499).
att(747,158).
att(414,1106).
att(24,384).
att(143,1016).
att(325,330).
att(745,294).
att(59,54).
att(161,1117).
att(749,160).
att(159,1114).
att(143,1012).
att(301,396).
att(749,162).
att(35,265).
att(61,61).
att(426,473).
att(37,1434).
att(192,1271).
att(325,367).
att(23,416).
att(322,361).
att(29,1460).
att(190,1305).
att(150,1012).
att(193,1303).
att(31,1483).
att(204,1334).
att(310,382).
att(206,1359).
att(39,1435).
att(341,334).
att(422,1098).
att(133,1047).
att(301,447).
att(193,1309).
att(417,598).
att(343,234).
att(115,665).
att(351,128).
att(362,273).
att(127,634).
att(75,1159).
att(171,1006).
att(308,271).
att(245,460).
att(79,1061).
att(123,665).
att(167,940).
att(81,1063).
att(364,149).
att(88,1211).
att(119,689).
att(242,513).
att(372,277).
att(82,1161).
att(171,937).
att(208,563).
att(180,1000).
att(343,140).
att(249,490).
att(169,1014).
att(82,1211).
att(127,689).
att(308,261).
att(372,152).
att(245,376).
att(121,474).
att(350,261).
att(75,957).
att(242,410).
att(167,1055).
att(232,412).
att(249,374).
att(356,212).
att(102,1345).
att(127,470).
att(308,1433).
att(356,271).
att(95,1337).
att(127,477).
att(171,1109).
att(25,1436).
att(366,396).
att(79,1334).
att(190,969).
att(358,439).
att(198,1128).
att(123,997).
att(360,445).
att(193,957).
att(342,515).
att(302,140).
att(343,515).
att(305,384).
att(24,1452).
att(24,1461).
att(115,1094).
att(81,1219).
att(74,1219).
att(81,1251).
att(198,965).
att(424,499).
att(372,442).
att(309,1460).
att(190,891).
att(81,1305).
att(192,888).
att(86,1219).
att(364,361).
att(311,1459).
att(193,878).
att(312,1458).
att(319,1436).
att(130,498).
att(358,331).
att(310,1483).
att(84,1305).
att(305,118).
att(358,235).
att(123,592).
att(196,884).
att(24,1507).
att(360,241).
att(204,1007).
att(372,367).
att(356,433).
att(372,363).
att(200,884).
att(74,1151).
att(75,1303).
att(215,1000).
att(387,229).
att(167,694).
att(280,1345).
att(176,665).
att(243,1113).
att(104,335).
att(348,216).
att(104,304).
att(236,1022).
att(211,994).
att(211,1057).
att(169,699).
att(171,476).
att(276,1258).
att(283,1330).
att(180,698).
att(104,276).
att(387,270).
att(283,1305).
att(98,164).
att(217,1049).
att(96,141).
att(249,876).
att(247,1033).
att(223,994).
att(240,894).
att(104,243).
att(172,501).
att(208,877).
att(283,1161).
att(453,549).
att(243,888).
att(291,1296).
att(95,84).
att(291,1303).
att(106,156).
att(209,1102).
att(228,476).
att(178,498).
att(389,1436).
att(104,299).
att(443,543).
att(280,1307).
att(291,1216).
att(343,877).
att(123,491).
att(180,1110).
att(305,1460).
att(79,188).
att(351,1454).
att(166,1096).
att(169,1049).
att(242,1159).
att(74,200).
att(208,1264).
att(172,1098).
att(308,1465).
att(82,188).
att(75,75).
att(345,419).
att(245,1155).
att(345,132).
att(355,1464).
att(169,1106).
att(228,1040).
att(351,1460).
att(242,1211).
att(348,416).
att(81,81).
att(95,409).
att(348,122).
att(100,304).
att(96,408).
att(307,1509).
att(228,1102).
att(240,1076).
att(95,341).
att(88,77).
att(74,106).
att(75,46).
att(75,52).
att(346,170).
att(94,370).
att(352,1505).
att(245,1063).
att(178,646).
att(390,118).
att(98,302).
att(92,92).
att(46,143).
att(426,272).
att(379,1439).
att(10,947).
att(143,1309).
att(11,1281).
att(50,276).
att(408,439).
att(147,1338).
att(223,693).
att(11,1292).
att(456,314).
att(11,1287).
att(383,254).
att(54,289).
att(141,1258).
att(440,340).
att(217,463).
att(48,236).
att(10,934).
att(57,296).
att(35,1287).
att(37,1227).
att(48,141).
att(54,159).
att(255,607).
att(417,437).
att(143,1149).
att(256,1110).
att(50,141).
att(161,1267).
att(33,1275).
att(33,1285).
att(164,1248).
att(35,1281).
att(335,563).
att(10,985).
att(440,285).
att(424,437).
att(37,950).
att(47,79).
att(328,465).
att(260,1106).
att(413,367).
att(260,1102).
att(379,1452).
att(325,519).
att(417,124).
att(29,980).
att(256,592).
att(440,146).
att(443,142).
att(159,1149).
att(256,647).
att(414,182).
att(253,596).
att(378,1490).
att(456,285).
att(302,565).
att(385,1481).
att(426,1452).
att(138,1214).
att(385,419).
att(98,86).
att(426,380).
att(453,462).
att(50,456).
att(209,627).
att(392,1458).
att(108,194).
att(211,605).
att(377,128).
att(381,419).
att(389,1481).
att(110,194).
att(740,760).
att(108,188).
att(215,592).
att(390,1460).
att(430,429).
att(274,1195).
att(440,467).
att(345,1483).
att(348,1487).
att(225,1106).
att(52,332).
att(385,124).
att(209,664).
att(96,96).
att(219,601).
att(11,1139).
att(52,338).
att(98,98).
att(61,443).
att(54,328).
att(223,592).
att(430,134).
att(743,732).
att(274,1076).
att(104,100).
att(57,335).
att(211,663).
att(385,227).
att(388,1506).
att(104,104).
att(211,670).
att(255,1006).
att(98,52).
att(102,61).
att(430,126).
att(749,760).
att(223,636).
att(59,328).
att(411,495).
att(225,627).
att(46,343).
att(440,374).
att(219,663).
att(33,1237).
att(379,216).
att(426,179).
att(276,1016).
att(35,1192).
att(749,737).
att(291,1113).
att(430,216).
att(223,661).
att(411,407).
att(289,969).
att(225,664).
att(33,1175).
att(274,961).
att(440,449).
att(219,664).
att(746,772).
att(141,96).
att(332,1201).
att(23,933).
att(186,356).
att(308,792).
att(115,378).
att(121,346).
att(335,1201).
att(143,106).
att(192,322).
att(305,808).
att(302,1163).
att(338,1201).
att(117,390).
att(351,769).
att(190,409).
att(164,198).
att(322,1166).
att(307,832).
att(196,341).
att(308,785).
att(356,782).
att(740,804).
att(749,759).
att(161,92).
att(193,358).
att(200,332).
att(198,328).
att(355,775).
att(138,106).
att(190,302).
att(315,1277).
att(186,345).
att(127,383).
att(742,917).
att(164,54).
att(360,1332).
att(121,135).
att(305,1146).
att(335,1128).
att(306,815).
att(117,117).
att(123,430).
att(744,910).
att(193,240).
att(364,1359).
att(301,1076).
att(119,119).
att(190,342).
att(194,304).
att(164,106).
att(120,120).
att(341,1128).
att(192,293).
att(360,1261).
att(349,1142).
att(360,1219).
att(192,276).
att(335,961).
att(115,176).
att(123,123).
att(355,786).
att(161,48).
att(372,1337).
att(200,247).
att(338,961).
att(372,1334).
att(184,418).
att(372,1332).
att(749,875).
att(315,982).
att(188,238).
att(194,368).
att(302,1114).
att(308,1132).
att(256,626).
att(264,593).
att(417,174).
att(50,924).
att(44,837).
att(37,989).
att(143,274).
att(749,910).
att(115,27).
att(24,1142).
att(253,637).
att(54,907).
att(161,364).
att(318,785).
att(341,1337).
att(415,184).
att(749,905).
att(133,133).
att(440,971).
att(262,629).
att(61,887).
att(119,31).
att(335,1219).
att(141,150).
att(46,860).
att(120,311).
att(159,238).
att(24,1174).
att(159,247).
att(115,29).
att(133,120).
att(310,1147).
att(749,915).
att(59,913).
att(748,910).
att(44,844).
att(267,645).
att(312,1137).
att(135,121).
att(411,955).
att(417,209).
att(130,178).
att(23,1222).
att(44,793).
att(159,274).
att(302,1217).
att(121,312).
att(121,309).
att(411,1016).
att(138,153).
att(184,41).
att(119,305).
att(164,280).
att(186,33).
att(186,315).
att(418,267).
att(143,77).
att(50,795).
att(749,880).
att(328,1166).
att(161,141).
att(311,1222).
att(115,356).
att(117,305).
att(161,161).
att(48,873).
att(138,198).
att(164,141).
att(130,209).
att(184,319).
att(307,767).
att(312,1228).
att(196,104).
att(190,59).
att(194,108).
att(198,106).
att(169,414).
att(84,325).
att(362,1114).
att(198,110).
att(392,769).
att(196,95).
att(358,1078).
att(92,443).
att(75,332).
att(349,927).
att(343,1114).
att(372,958).
att(198,57).
att(194,44).
att(196,57).
att(364,963).
att(352,974).
att(228,430).
att(392,805).
att(228,432).
att(356,935).
att(178,130).
att(348,818).
att(79,293).
att(390,1146).
att(180,186).
att(343,965).
att(79,276).
att(362,1016).
att(169,167).
att(204,50).
att(356,975).
att(388,827).
att(362,1012).
att(342,1124).
att(171,171).
att(390,818).
att(372,963).
att(75,247).
att(245,1258).
att(75,143).
att(211,311).
att(240,1303).
att(84,283).
att(176,176).
att(209,311).
att(74,159).
att(81,138).
att(209,319).
att(368,1012).
att(236,1267).
att(364,877).
att(343,971).
att(75,291).
att(308,1172).
att(358,1296).
att(123,172).
att(328,888).
att(192,147).
att(174,41).
att(186,115).
att(171,311).
att(349,1169).
att(190,198).
att(194,156).
att(188,188).
att(117,262).
att(174,319).
att(193,200).
att(188,156).
att(302,998).
att(302,1015).
att(304,1016).
att(356,1184).
att(356,1180).
att(193,193).
att(194,194).
att(350,1223).
att(301,888).
att(348,775).
att(350,1289).
att(167,387).
att(176,311).
att(301,876).
att(302,891).
att(228,24).
att(351,1228).
att(342,1269).
att(364,1166).
att(206,141).
att(121,252).
att(200,200).
att(308,935).
att(172,378).
att(84,413).
att(349,949).
att(390,782).
att(184,267).
att(169,387).
att(171,385).
att(74,328).
att(206,206).
att(225,418).
att(387,992).
att(388,974).
att(379,817).
att(86,846).
att(219,133).
att(378,818).
att(75,850).
att(88,836).
att(383,1143).
att(387,984).
att(215,184).
att(249,299).
att(243,150).
att(385,1182).
att(95,954).
att(260,41).
att(426,816).
att(92,858).
att(209,209).
att(426,1140).
att(428,815).
att(77,787).
att(238,188).
att(106,1074).
att(209,225).
att(210,210).
att(242,198).
att(381,1143).
att(240,193).
att(86,862).
att(210,174).
att(249,143).
att(249,150).
att(211,209).
att(262,25).
att(283,453).
att(232,102).
att(209,260).
att(289,408).
att(245,194).
att(286,453).
att(377,1291).
att(209,264).
att(213,213).
att(378,1223).
att(247,200).
att(86,813).
att(253,23).
att(253,309).
att(217,210).
att(267,319).
att(269,311).
att(98,1020).
att(291,440).
att(262,305).
att(379,1223).
att(283,304).
att(417,751).
att(98,1031).
att(262,351).
att(219,219).
att(236,104).
att(255,390).
att(245,92).
att(221,221).
att(283,325).
att(102,1011).
att(223,215).
att(245,81).
att(223,223).
att(92,800).
att(96,962).
att(385,1225).
att(432,1176).
att(174,210).
att(77,1017).
att(343,77).
att(808,744).
att(360,100).
att(360,110).
att(166,262).
att(166,256).
att(211,319).
att(81,1023).
att(86,956).
att(242,338).
att(81,1020).
att(362,110).
att(228,228).
att(342,190).
att(215,306).
att(789,745).
att(342,198).
att(174,267).
att(368,108).
att(379,779).
att(240,343).
att(389,1225).
att(213,351).
att(368,100).
att(75,1026).
att(178,264).
att(348,1276).
att(342,77).
att(180,269).
att(343,46).
att(387,1282).
att(219,390).
att(240,249).
att(1256,541).
att(245,368).
att(1265,531).
att(381,773).
att(209,432).
att(1265,524).
att(86,882).
att(247,370).
att(75,892).
att(372,57).
att(370,52).
att(245,243).
att(1259,534).
att(92,906).
att(379,825).
att(240,291).
att(245,245).
att(381,794).
att(347,974).
att(249,243).
att(240,274).
att(210,418).
att(342,46).
att(383,825).
att(88,909).
att(242,274).
att(249,249).
att(424,1182).
att(57,1081).
att(443,1205).
att(274,77).
att(418,1138).
att(255,225).
att(54,1127).
att(264,184).
att(293,156).
att(52,1116).
att(453,1161).
att(47,964).
att(456,1153).
att(133,815).
att(269,120).
att(413,1305).
att(153,408).
att(450,1201).
att(255,262).
att(50,960).
att(417,1289).
att(48,954).
att(252,252).
att(280,82).
att(456,1205).
att(258,174).
att(411,1131).
att(46,970).
att(417,1225).
att(280,102).
att(50,1034).
att(141,370).
att(256,256).
att(59,967).
att(258,258).
att(267,210).
att(138,341).
att(48,968).
att(164,459).
att(264,209).
att(264,260).
att(280,52).
att(775,745).
att(440,965).
att(47,913).
att(120,808).
att(291,94).
att(121,769).
att(153,366).
att(50,885).
att(44,902).
att(117,769).
att(267,267).
att(440,1124).
att(117,782).
att(61,1011).
att(269,269).
att(225,264).
att(426,1226).
att(98,904).
att(262,346).
att(262,390).
att(296,332).
att(417,802).
att(422,808).
att(260,428).
att(256,383).
att(440,1359).
att(47,1068).
att(96,836).
att(262,418).
att(291,249).
att(94,859).
att(274,141).
att(96,838).
att(291,243).
att(379,986).
att(100,840).
att(411,1330).
att(264,432).
att(54,1167).
att(420,784).
att(252,121).
att(110,918).
att(420,796).
att(411,1362).
att(415,825).
att(108,918).
att(133,792).
att(289,289).
att(130,786).
att(426,986).
att(274,188).
att(291,291).
att(418,815).
att(100,862).
att(98,859).
att(255,228).
att(98,866).
att(108,837).
att(108,840).
att(133,825).
att(274,156).
att(110,837).
att(440,1303).
att(413,1258).
att(262,120).
att(48,28).
att(127,1237).
att(153,904).
att(811,1322).
att(335,370).
att(115,1237).
att(24,130).
att(117,1171).
att(59,17).
att(813,1328).
att(156,902).
att(301,328).
att(312,422).
att(800,1312).
att(424,591).
att(312,135).
att(141,838).
att(186,1237).
att(192,1167).
att(418,639).
att(308,33).
att(418,645).
att(143,840).
att(1137,744).
att(115,1279).
att(1132,742).
att(143,846).
att(310,186).
att(420,645).
att(325,283).
att(341,247).
att(133,591).
att(59,34).
att(133,599).
att(164,882).
att(312,121).
att(1360,572).
att(424,645).
att(141,860).
att(1357,704).
att(322,141).
att(305,25).
att(138,860).
att(349,27).
att(143,860).
att(318,166).
att(1346,683).
att(24,228).
att(161,907).
att(133,645).
att(198,1202).
att(338,296).
att(119,942).
att(130,623).
att(186,1233).
att(1350,652).
att(192,1123).
att(305,305).
att(115,980).
att(305,306).
att(198,1081).
att(350,311).
att(193,1122).
att(159,836).
att(351,25).
att(25,262).
att(309,209).
att(188,1087).
att(186,1281).
att(153,859).
att(308,308).
att(312,309).
att(262,1460).
att(280,864).
att(408,296).
att(25,351).
att(291,846).
att(417,987).
att(440,200).
att(280,869).
att(1357,728).
att(309,309).
att(283,864).
att(1354,722).
att(1318,524).
att(1357,723).
att(24,311).
att(411,283).
att(41,174).
att(1350,708).
att(269,1438).
att(312,312).
att(319,41).
att(1348,709).
att(1357,716).
att(141,962).
att(255,1509).
att(440,75).
att(130,999).
att(283,787).
att(143,964).
att(420,996).
att(143,970).
att(1343,707).
att(310,315).
att(318,311).
att(1346,701).
att(1350,683).
att(1350,687).
att(319,319).
att(328,301).
att(417,1091).
att(291,811).
att(141,1034).
att(130,1058).
att(258,1496).
att(322,322).
att(120,1179).
att(1318,574).
att(418,1108).
att(150,956).
att(453,82).
att(811,1387).
att(1324,611).
att(24,379).
att(260,1505).
att(260,1499).
att(341,409).
att(41,267).
att(328,328).
att(319,306).
att(1326,576).
att(1342,722).
att(147,1123).
att(790,1417).
att(309,383).
att(50,20).
att(1320,538).
att(46,34).
att(138,887).
att(332,338).
att(1326,574).
att(459,44).
att(332,332).
att(338,332).
att(453,110).
att(159,964).
att(1316,553).
att(310,381).
att(143,892).
att(1322,586).
att(335,335).
att(328,362).
att(341,341).
att(349,117).
att(345,33).
att(1259,616).
att(1259,611).
att(167,1288).
att(200,916).
att(1246,569).
att(204,895).
att(166,1283).
att(1243,544).
att(342,366).
att(1246,572).
att(198,918).
att(342,342).
att(351,184).
att(186,602).
att(1252,555).
att(228,1245).
att(200,909).
att(204,885).
att(1262,588).
att(171,1005).
att(305,210).
att(1249,555).
att(1246,554).
att(184,639).
att(1246,538).
att(1265,557).
att(184,645).
att(166,939).
att(1265,555).
att(308,210).
att(308,215).
att(1262,550).
att(1254,531).
att(171,1003).
att(171,1058).
att(360,194).
att(366,153).
att(350,210).
att(180,999).
att(305,267).
att(348,355).
att(355,215).
att(190,787).
att(388,309).
att(344,344).
att(92,1212).
att(193,811).
att(82,1215).
att(307,264).
att(356,228).
att(178,1005).
att(372,153).
att(172,1048).
att(345,345).
att(242,408).
att(388,305).
att(194,787).
att(346,346).
att(232,409).
att(351,267).
att(166,1050).
att(204,869).
att(81,960).
att(356,223).
att(347,347).
att(178,996).
att(206,860).
att(347,346).
att(75,1116).
att(204,858).
att(200,800).
att(1254,580).
att(342,153).
att(348,348).
att(349,305).
att(1351,534).
att(1252,710).
att(318,256).
att(123,987).
att(325,84).
att(200,1120).
att(328,74).
att(350,319).
att(301,141).
att(311,269).
att(125,977).
att(1265,702).
att(125,990).
att(164,860).
att(307,346).
att(352,307).
att(127,985).
att(161,858).
att(171,1179).
att(190,1020).
att(1262,701).
att(115,1095).
att(190,1031).
att(1262,706).
att(123,1044).
att(117,1095).
att(167,1185).
att(123,1048).
att(372,413).
att(166,1134).
att(301,198).
att(166,1136).
att(328,108).
att(355,355).
att(822,748).
att(186,987).
att(302,190).
att(1254,662).
att(372,459).
att(196,1034).
att(115,590).
att(1354,586).
att(1357,574).
att(1357,569).
att(370,332).
att(1249,730).
att(301,74).
att(1246,728).
att(193,892).
att(198,1008).
att(119,602).
att(356,390).
att(206,962).
att(200,1008).
att(1350,529).
att(305,117).
att(117,629).
att(192,907).
att(1335,559).
att(335,57).
att(368,360).
att(123,602).
att(350,133).
att(167,1290).
att(332,52).
att(1249,721).
att(167,1245).
att(125,595).
att(184,1105).
att(186,1090).
att(1249,713).
att(192,913).
att(342,302).
att(370,370).
att(302,94).
att(358,370).
att(188,902).
att(338,52).
att(236,954).
att(343,806).
att(1414,687).
att(428,31).
att(1417,709).
att(392,121).
att(88,63).
att(389,174).
att(249,1122).
att(88,53).
att(223,947).
att(866,1520).
att(842,1314).
att(232,887).
att(1419,676).
att(377,344).
att(211,993).
att(850,1411).
att(381,305).
att(213,980).
att(245,968).
att(242,1017).
att(852,1411).
att(856,1523).
att(102,284).
att(86,73).
att(95,281).
att(236,968).
att(1419,658).
att(215,993).
att(95,251).
att(1400,672).
att(1414,720).
att(238,902).
att(387,269).
att(95,191).
att(243,1017).
att(377,377).
att(102,162).
att(79,34).
att(392,252).
att(866,1493).
att(27,782).
att(1413,721).
att(1228,744).
att(81,43).
att(86,16).
att(860,1520).
att(383,344).
att(1228,748).
att(11,782).
att(210,1108).
att(1226,742).
att(75,19).
att(223,1056).
att(869,1493).
att(232,844).
att(848,1351).
att(243,902).
att(426,389).
att(1366,547).
att(10,784).
att(379,379).
att(211,1103).
att(426,392).
att(245,895).
att(256,1136).
att(873,1478).
att(1385,528).
att(29,779).
att(858,1504).
att(81,5).
att(29,782).
att(31,763).
att(96,157).
att(98,114).
att(1366,528).
att(104,251).
att(260,1134).
att(253,1188).
att(260,1136).
att(842,1512).
att(909,1242).
att(180,1108).
att(1366,648).
att(206,30).
att(217,1136).
att(217,1183).
att(1389,611).
att(346,377).
att(360,918).
att(850,1477).
att(388,388).
att(1384,572).
att(1391,588).
att(193,6).
att(204,21).
att(920,1351).
att(171,1095).
att(389,389).
att(852,1477).
att(848,1514).
att(82,294).
att(914,1324).
att(180,1099).
att(1387,582).
att(223,1188).
att(358,842).
att(848,1497).
att(836,1430).
att(1363,611).
att(219,1183).
att(360,844).
att(219,1185).
att(368,918).
att(1385,572).
att(358,836).
att(844,1430).
att(837,1430).
att(204,43).
att(81,89).
att(389,385).
att(920,1259).
att(171,595).
att(223,1134).
att(907,1249).
att(82,158).
att(232,1212).
att(920,1243).
att(238,1087).
att(243,1215).
att(75,101).
att(167,643).
att(345,186).
att(852,1429).
att(842,1471).
att(389,417).
att(204,5).
att(209,1294).
att(221,1193).
att(242,1079).
att(213,1237).
att(1385,674).
att(82,202).
att(180,591).
att(1371,673).
att(219,1231).
att(219,1227).
att(219,1229).
att(240,1129).
att(228,632).
att(245,1068).
att(77,55).
att(79,63).
att(392,135).
att(390,120).
att(390,117).
att(1369,652).
att(348,178).
att(96,14).
att(869,1421).
att(47,165).
att(1324,683).
att(37,1169).
att(276,902).
att(417,389).
att(408,408).
att(450,332).
att(252,1038).
att(25,782).
att(98,14).
att(106,68).
att(264,999).
att(806,1517).
att(866,1314).
att(252,1046).
att(409,409).
att(420,306).
att(110,72).
att(378,269).
att(1328,660).
att(108,68).
att(411,456).
att(102,20).
att(420,319).
att(411,411).
att(1236,743).
att(1321,611).
att(289,1008).
att(135,312).
att(291,1023).
att(869,1328).
att(417,385).
att(37,1232).
att(94,2).
att(262,1108).
att(291,1029).
att(800,1493).
att(428,267).
att(1172,740).
att(459,370).
att(61,284).
att(1328,622).
att(24,779).
att(430,269).
att(33,1277).
att(54,165).
att(59,287).
att(106,13).
att(1172,747).
att(260,1039).
att(1312,652).
att(299,1023).
att(274,902).
att(1321,576).
att(274,837).
att(811,1484).
att(10,979).
att(280,920).
att(46,89).
att(414,414).
att(871,1346).
att(39,929).
att(291,882).
att(415,415).
att(39,1284).
att(856,1265).
att(1316,706).
att(24,792).
att(1318,704).
att(318,769).
att(135,344).
att(440,247).
att(1398,522).
att(267,1108).
att(856,1242).
att(856,1254).
att(262,1095).
att(1312,712).
att(1326,704).
att(262,599).
att(450,299).
att(450,296).
att(280,848).
att(800,1441).
att(1395,520).
att(153,1196).
att(283,840).
att(309,827).
att(871,1262).
att(420,420).
att(54,78).
att(138,1165).
att(790,1430).
att(318,765).
att(415,418).
att(422,422).
att(110,3).
att(311,825).
att(422,135).
att(315,763).
att(35,789).
att(95,99).
att(262,1171).
att(848,1256).
att(864,1423).
att(289,1165).
att(1318,728).
att(221,1093).
att(378,120).
att(428,428).
att(86,2).
att(381,430).
att(1400,572).
att(258,1134).
att(1415,566).
att(215,581).
att(252,1245).
att(96,197).
att(385,417).
att(33,824).
att(858,1424).
att(293,1167).
att(1320,720).
att(243,846).
att(211,626).
att(280,1068).
att(1395,572).
att(379,123).
att(213,623).
att(262,1294).
att(1326,723).
att(1415,557).
att(289,1074).
att(110,90).
att(242,859).
att(223,599).
att(225,595).
att(869,1500).
att(1321,706).
att(225,593).
att(95,68).
att(1414,611).
att(1398,673).
att(262,952).
att(440,440).
att(1417,660).
att(379,228).
att(286,1123).
att(236,790).
att(29,1147).
att(41,815).
att(208,846).
att(795,1516).
att(208,806).
att(450,450).
att(417,350).
att(453,453).
att(256,948).
att(856,1421).
att(296,1116).
att(459,408).
att(1180,744).
att(1415,608).
att(274,964).
att(274,962).
att(422,312).
att(858,1415).
att(856,1413).
att(299,1129).
att(604,174).
att(885,1469).
att(934,1223).
att(48,821).
att(450,846).
att(629,351).
att(645,41).
att(590,264).
att(1430,580).
att(328,1084).
att(335,1199).
att(639,319).
att(803,510).
att(811,486).
att(793,399).
att(623,305).
att(54,828).
att(61,810).
att(1450,730).
att(942,1168).
att(795,391).
att(328,1074).
att(1467,727).
att(1473,715).
att(54,823).
att(637,23).
att(790,494).
att(50,756).
att(141,49).
att(892,1466).
att(322,1112).
att(892,1467).
att(645,319).
att(790,441).
att(302,1164).
att(904,1429).
att(806,400).
att(50,753).
att(895,1469).
att(301,1165).
att(335,1081).
att(59,831).
att(59,828).
att(453,864).
att(942,1230).
att(797,510).
att(892,1430).
att(797,506).
att(341,1074).
att(595,269).
att(945,1223).
att(302,1202).
att(999,1223).
att(645,306).
att(800,446).
att(1424,652).
att(637,388).
att(332,1116).
att(1441,614).
att(928,926).
att(411,795).
att(983,802).
att(985,796).
att(928,929).
att(150,55).
att(623,377).
att(987,767).
att(939,1282).
att(939,1289).
att(161,111).
att(1426,616).
att(47,764).
att(301,1074).
att(143,68).
att(635,350).
att(456,795).
att(61,759).
att(797,393).
att(54,780).
att(1058,767).
att(1424,616).
att(892,1421).
att(192,250).
att(928,974).
att(985,784).
att(61,764).
att(987,794).
att(885,1320).
att(895,1419).
att(885,1316).
att(48,764).
att(153,65).
att(1443,557).
att(787,336).
att(635,345).
att(787,333).
att(1466,726).
att(942,932).
att(161,58).
att(626,383).
att(1430,614).
att(52,739).
att(945,926).
att(942,1002).
att(409,793).
att(1443,538).
att(1285,935).
att(1424,706).
att(604,389).
att(280,73).
att(590,415).
att(866,333).
att(936,789).
att(96,764).
att(887,1514).
att(408,1116).
att(939,765).
att(456,956).
att(54,910).
att(950,1274).
att(797,573).
att(950,1282).
att(930,789).
att(939,777).
att(1003,773).
att(459,962).
att(873,446).
att(811,631).
att(413,1013).
att(1020,1314).
att(143,157).
att(599,432).
att(898,1521).
att(104,732).
att(459,1031).
att(411,960).
att(54,853).
att(286,17).
att(950,941).
att(871,316).
att(156,294).
att(1003,796).
att(882,1517).
att(860,323).
att(1285,982).
att(1426,648).
att(604,385).
att(790,523).
att(1034,1421).
att(141,189).
att(604,418).
att(291,19).
att(604,133).
att(50,875).
att(409,1034).
att(1031,1314).
att(811,539).
att(280,32).
att(811,537).
att(453,902).
att(1511,528).
att(291,15).
att(411,1017).
att(456,879).
att(59,845).
att(286,40).
att(584,117).
att(950,992).
att(54,872).
att(889,1522).
att(283,32).
att(898,1493).
att(138,157).
att(885,1480).
att(413,1017).
att(296,14).
att(44,874).
att(286,32).
att(456,885).
att(629,25).
att(1425,712).
att(1005,1146).
att(1442,706).
att(590,225).
att(293,34).
att(1504,531).
att(59,868).
att(887,1426).
att(150,189).
att(443,838).
att(1494,524).
att(902,1474).
att(584,209).
att(811,548).
att(885,1442).
att(1020,1249).
att(879,1497).
att(456,914).
att(892,1482).
att(296,30).
att(790,482).
att(604,125).
att(322,806).
att(1389,713).
att(1469,526).
att(190,58).
att(342,1164).
att(368,1074).
att(335,869).
att(924,1442).
att(924,1426).
att(637,253).
att(362,1120).
att(1371,714).
att(907,1467).
att(1369,721).
att(190,66).
att(911,1415).
att(304,787).
att(366,1116).
att(911,1398).
att(1052,775).
att(977,944).
att(1044,805).
att(1039,763).
att(1046,767).
att(980,927).
att(1384,677).
att(635,264).
att(906,1415).
att(301,873).
att(1041,773).
att(1369,709).
att(914,1469).
att(1389,683).
att(302,862).
att(907,1391).
att(1038,808).
att(645,267).
att(985,979).
att(1043,822).
att(1456,625).
att(913,1314).
att(990,944).
att(1039,824).
att(198,64).
att(1046,782).
att(1056,1274).
att(74,292).
att(193,19).
att(302,787).
att(200,64).
att(372,954).
att(983,995).
att(1050,792).
att(1389,730).
att(366,1031).
att(914,1316).
att(368,1008).
att(1044,1141).
att(86,251).
att(844,1474).
att(1046,827).
att(906,1354).
att(342,967).
att(1389,721).
att(74,151).
att(342,966).
att(192,158).
att(147,16).
att(332,1031).
att(143,36).
att(57,739).
att(335,1034).
att(335,1031).
att(892,1320).
att(920,1522).
att(161,66).
att(813,336).
att(1005,926).
att(57,733).
att(879,1316).
att(629,120).
att(643,428).
att(911,1498).
att(632,178).
att(906,1504).
att(1456,660).
att(635,120).
att(623,184).
att(1003,976).
att(301,1008).
att(983,1132).
att(302,1013).
att(1473,572).
att(1471,586).
att(632,209).
att(1058,1146).
att(639,174).
att(204,160).
att(1444,715).
att(635,166).
att(918,1498).
att(990,1142).
att(193,87).
att(204,151).
att(898,1262).
att(980,1182).
att(980,1184).
att(159,36).
att(909,1498).
att(983,1168).
att(164,34).
att(1473,675).
att(190,111).
att(360,1081).
att(366,1196).
att(633,217).
att(916,1425).
att(193,112).
att(198,85).
att(204,202).
att(977,1230).
att(623,262).
att(623,269).
att(635,211).
att(977,1286).
att(1450,679).
att(1056,1137).
att(198,78).
att(924,1497).
att(1467,675).
att(328,860).
att(643,169).
att(193,113).
att(301,916).
att(983,1223).
att(629,262).
att(206,207).
att(1103,781).
att(842,562).
att(1046,1276).
att(1097,763).
att(1097,794).
att(366,14).
att(972,1519).
att(1484,658).
att(358,30).
att(954,1476).
att(1477,614).
att(838,523).
att(1477,625).
att(1120,1348).
att(1122,1335).
att(370,14).
att(92,919).
att(232,160).
att(970,1478).
att(358,6).
att(1476,608).
att(968,1482).
att(79,801).
att(245,151).
att(77,804).
att(1048,949).
att(1089,824).
att(954,1504).
att(240,201).
att(360,3).
att(1038,989).
att(236,160).
att(1475,588).
att(967,1520).
att(1480,720).
att(92,807).
att(84,804).
att(240,91).
att(1089,816).
att(1127,1242).
att(368,3).
att(852,466).
att(74,826).
att(88,801).
att(837,494).
att(838,482).
att(243,89).
att(1105,815).
att(866,688).
att(95,880).
att(98,1018).
att(1097,1133).
att(1475,681).
att(850,508).
att(866,684).
att(1091,1182).
att(1101,818).
att(852,508).
att(81,756).
att(242,105).
att(966,1473).
att(79,752).
att(1090,1133).
att(1103,815).
att(1095,1137).
att(836,399).
att(838,518).
att(956,1444).
att(960,1426).
att(92,809).
att(1043,1184).
att(1475,729).
att(1127,1430).
att(372,90).
att(1477,719).
att(1484,726).
att(920,506).
att(1484,724).
att(1492,717).
att(913,393).
att(1122,1467).
att(81,1035).
att(358,91).
att(909,494).
att(1515,531).
att(907,514).
att(1476,716).
att(206,752).
att(360,55).
att(362,63).
att(1475,713).
att(918,375).
att(342,85).
att(1122,1383).
att(1477,709).
att(1048,1141).
att(852,705).
att(1122,1387).
att(75,1027).
att(1518,534).
att(193,768).
att(840,688).
att(1515,613).
att(848,577).
att(75,908).
att(909,333).
att(918,457).
att(852,589).
att(1112,1400).
att(81,910).
att(192,762).
att(1108,1138).
att(368,55).
att(1041,1240).
att(86,899).
att(913,320).
att(1516,572).
att(75,893).
att(343,113).
att(914,400).
att(372,58).
att(342,111).
att(372,56).
att(906,323).
att(238,294).
att(1044,949).
att(1515,578).
att(1095,782).
att(918,333).
att(1089,771).
att(1492,725).
att(1088,1363).
att(206,778).
att(848,573).
att(1519,586).
att(920,329).
att(595,825).
att(1099,932).
att(1099,929).
att(1512,586).
att(440,1199).
att(1011,1442).
att(245,42).
att(970,1335).
att(1101,941).
att(871,562).
att(1504,613).
att(1504,608).
att(240,8).
att(102,810).
att(100,804).
att(95,809).
att(274,201).
att(602,763).
att(862,542).
att(954,1265).
att(98,835).
att(869,484).
att(793,705).
att(47,973).
att(274,97).
att(1441,727).
att(1101,984).
att(597,1147).
att(871,484).
att(1494,576).
att(453,1215).
att(1511,553).
att(98,828).
att(1494,574).
att(245,4).
att(591,830).
att(860,464).
att(1093,986).
att(108,804).
att(1504,578).
att(440,1206).
att(602,824).
att(1017,1498).
att(1513,648).
att(1020,1473).
att(276,56).
att(1495,681).
att(50,1032).
att(96,757).
att(1029,1429).
att(866,402).
att(98,754).
att(453,1074).
att(1023,1471).
att(1511,657).
att(47,883).
att(104,821).
att(871,496).
att(98,757).
att(283,107).
att(593,815).
att(584,1132).
att(1026,1471).
att(871,510).
att(459,1074).
att(790,680).
att(95,732).
att(453,1123).
att(280,53).
att(95,738).
att(604,1182).
att(1513,614).
att(1029,1456).
att(94,732).
att(864,444).
att(47,910).
att(57,1027).
att(59,973).
att(106,760).
att(1020,1384).
att(411,1071).
att(102,783).
att(286,53).
att(456,1129).
att(1020,1444).
att(1011,1363).
att(790,579).
att(968,1450).
att(869,703).
att(74,733).
att(864,589).
att(842,435).
att(108,1030).
att(96,973).
att(249,112).
att(1504,716).
att(240,51).
att(856,579).
att(247,105).
att(970,1466).
att(1090,1234).
att(242,55).
att(838,393).
att(249,113).
att(852,399).
att(236,70).
att(1500,715).
att(240,70).
att(842,326).
att(1091,1226).
att(108,901).
att(243,55).
att(1101,1170).
att(966,1419).
att(1511,674).
att(1502,702).
att(1500,710).
att(208,113).
att(967,1444).
att(96,905).
att(242,68).
att(869,685).
att(860,610).
att(954,1415).
att(92,764).
att(98,855).
att(249,18).
att(1477,559).
att(1511,730).
att(848,316).
att(1101,1232).
att(590,805).
att(964,1312).
att(1101,1228).
att(1484,586).
att(1090,1277).
att(1089,951).
att(240,15).
att(289,294).
att(249,67).
att(104,901).
att(584,767).
att(1103,1289).
att(1480,572).
att(954,1328).
att(1011,1514).
att(242,15).
att(1498,727).
att(274,292).
att(1097,1277).
att(871,523).
att(604,751).
att(968,1314).
att(604,767).
att(236,42).
att(104,847).
att(858,480).
att(1034,1520).
att(1494,728).
att(972,1322).
att(1008,1474).
att(856,548).
att(1504,731).
att(92,737).
att(1497,720).
att(960,1324).
att(1103,949).
att(249,19).
att(1498,715).
att(954,1354).
att(1476,524).
att(604,987).
att(1164,1444).
att(440,68).
att(1011,323).
att(999,306).
att(299,766).
att(948,256).
att(898,577).
att(902,705).
att(806,1352).
att(1212,1371).
att(1164,1448).
att(1013,336).
att(164,1032).
att(1026,444).
att(453,53).
att(1206,1456).
att(885,536).
att(934,415).
att(1020,333).
att(1185,808).
att(440,19).
att(581,581).
att(632,1171).
att(291,770).
att(591,1105).
att(1020,329).
att(1202,1322).
att(280,733).
att(280,732).
att(584,584).
att(623,1171).
att(1164,1366).
att(623,1185).
att(1026,336).
att(1212,1413).
att(1031,438).
att(626,1136).
att(811,1349).
att(459,68).
att(1003,390).
att(790,1266).
att(1183,789).
att(413,56).
att(626,1179).
att(800,1333).
att(1193,773).
att(1183,808).
att(790,1218).
att(590,590).
att(597,602).
att(147,839).
att(164,845).
att(1202,1346).
att(898,523).
att(150,843).
att(450,13).
att(811,1260).
att(895,537).
att(440,26).
att(593,593).
att(813,1253).
att(1034,336).
att(1181,805).
att(635,1134).
att(159,912).
att(635,1179).
att(595,595).
att(790,1306).
att(800,1218).
att(595,599).
att(597,584).
att(296,739).
att(879,536).
att(1005,130).
att(928,166).
att(936,117).
att(599,599).
att(1181,817).
att(633,1231).
att(939,117).
att(1074,1513).
att(141,788).
att(1164,1314).
att(623,1229).
att(453,32).
att(1068,1478).
att(161,847).
att(408,14).
att(453,40).
att(795,1186).
att(1037,1518).
att(1087,1474).
att(143,804).
att(602,602).
att(341,139).
att(164,853).
att(1079,1521).
att(161,845).
att(302,287).
att(999,414).
att(1279,119).
att(1013,466).
att(1202,1502).
att(291,854).
att(1101,581).
att(928,11).
att(1212,1474).
att(599,1245).
att(280,857).
att(950,119).
att(1029,537).
att(1103,581).
att(1090,633).
att(1095,629).
att(456,148).
att(584,1229).
att(860,1301).
att(790,1468).
att(453,202).
att(793,1422).
att(858,1062).
att(948,120).
att(1101,632).
att(1206,1513).
att(274,826).
att(1215,1500).
att(871,1156).
att(936,39).
att(280,791).
att(591,952).
att(936,35).
att(1281,186).
att(1026,486).
att(274,812).
att(860,1150).
att(1105,639).
att(1199,1500).
att(604,1224).
att(952,184).
att(1105,645).
att(803,1418).
att(1285,219).
att(291,812).
att(590,985).
att(1209,1423).
att(790,1319).
att(871,1197).
att(864,1060).
att(1202,1466).
att(869,1190).
att(1023,518).
att(1212,1426).
att(1031,464).
att(1212,1424).
att(443,111).
att(869,1203).
att(864,1082).
att(1023,494).
att(1212,1429).
att(939,31).
att(459,90).
att(871,1190).
att(950,178).
att(1167,1504).
att(813,1388).
att(871,1203).
att(602,1283).
att(790,1422).
att(952,174).
att(790,1399).
att(811,1396).
att(945,305).
att(440,51).
att(1279,262).
att(274,780).
att(1209,1456).
att(811,1420).
att(280,755).
att(443,60).
att(581,1052).
att(928,390).
att(291,826).
att(138,973).
att(930,307).
att(411,83).
att(939,318).
att(952,210).
att(790,1329).
att(942,306).
att(1206,1423).
att(1206,1430).
att(985,415).
att(645,1108).
att(985,418).
att(985,420).
att(1241,802).
att(1118,1516).
att(1171,786).
att(362,294).
att(980,417).
att(626,581).
att(147,732).
att(623,599).
att(635,1052).
att(1056,344).
att(635,1108).
att(193,849).
att(993,378).
att(924,589).
att(1188,1276).
att(164,783).
att(1175,824).
att(1188,1274).
att(341,70).
att(904,438).
att(987,414).
att(623,623).
att(1235,820).
att(977,117).
att(332,14).
att(990,415).
att(635,595).
att(623,645).
att(980,115).
att(911,567).
att(635,1099).
att(328,36).
att(1183,989).
att(629,629).
att(913,570).
att(1058,378).
att(904,313).
att(1239,822).
att(338,14).
att(996,415).
att(1058,130).
att(1071,1265).
att(1118,1513).
att(1177,1182).
att(639,645).
att(987,117).
att(1044,31).
att(633,633).
att(1518,725).
att(635,626).
att(913,466).
att(977,174).
att(1081,1346).
att(990,125).
att(1515,716).
att(1122,1500).
att(194,857).
att(1514,720).
att(1193,974).
att(1244,786).
att(1522,725).
att(1056,415).
att(1088,1514).
att(193,812).
att(328,6).
att(1173,1147).
att(1088,1522).
att(1244,830).
att(1079,1314).
att(1175,1133).
att(338,30).
att(906,480).
att(639,639).
att(1177,1138).
att(909,511).
att(1123,1513).
att(1079,1259).
att(1044,312).
att(1118,1424).
att(1523,677).
att(1522,717).
att(980,213).
att(1120,1425).
att(342,148).
att(1237,1147).
att(362,80).
att(980,176).
att(1239,1137).
att(342,160).
att(1084,1249).
att(1036,1351).
att(342,114).
att(1088,1478).
att(643,643).
att(918,481).
att(1244,1146).
att(1068,1262).
att(1043,25).
att(1112,1443).
att(892,488).
att(1179,1137).
att(411,22).
att(639,952).
att(1167,1254).
att(632,1005).
att(632,999).
att(1084,1502).
att(143,823).
att(328,78).
att(1036,1493).
att(408,30).
att(302,114).
att(980,29).
att(1523,727).
att(626,947).
att(1185,1137).
att(138,809).
att(626,948).
att(643,1290).
att(934,210).
att(983,23).
att(1037,1493).
att(889,545).
att(643,1294).
att(892,518).
att(190,1018).
att(892,494).
att(909,705).
att(193,1032).
att(977,307).
att(143,760).
att(632,1058).
att(800,1064).
att(325,107).
att(1515,722).
att(159,801).
att(980,318).
att(889,466).
att(983,305).
att(983,306).
att(892,393).
att(1188,1238).
att(936,262).
att(1071,1371).
att(1181,1225).
att(987,305).
att(192,883).
att(811,1085).
att(198,1030).
att(325,49).
att(1181,1291).
att(147,752).
att(990,311).
att(1192,1176).
att(907,682).
att(301,85).
att(1084,1471).
att(882,400).
att(1071,1444).
att(980,356).
att(164,826).
att(1185,1228).
att(993,355).
att(1179,1222).
att(1188,1170).
att(138,734).
att(147,778).
att(999,267).
att(304,49).
att(639,1108).
att(1071,1398).
att(1241,782).
att(204,1030).
att(301,105).
att(1177,802).
att(633,1046).
att(1084,1369).
att(198,900).
att(633,1108).
att(302,107).
att(907,579).
att(328,64).
att(623,1108).
att(1037,1446).
att(193,908).
att(1005,262).
att(1084,1389).
att(190,900).
att(194,1030).
att(206,1009).
att(1079,1446).
att(1175,794).
att(164,760).
att(1188,1223).
att(1052,418).
att(914,1186).
att(1237,975).
att(1235,989).
att(1229,815).
att(1224,1132).
att(852,1392).
att(1038,121).
att(844,1422).
att(837,1422).
att(848,1457).
att(364,831).
att(342,861).
att(370,788).
att(1235,984).
att(236,1024).
att(840,1327).
att(1097,29).
att(916,1064).
att(964,705).
att(1118,391).
att(1048,123).
att(1294,825).
att(1120,399).
att(1122,400).
att(1127,518).
att(1245,992).
att(920,1064).
att(838,1418).
att(1287,1133).
att(967,705).
att(1116,438).
att(1097,315).
att(964,579).
att(1041,178).
att(1088,494).
att(368,755).
att(954,589).
att(966,610).
att(240,896).
att(956,579).
att(249,1027).
att(1103,31).
att(1231,1238).
att(1122,435).
att(1090,315).
att(1103,319).
att(1123,454).
att(1123,451).
att(850,1347).
att(1099,310).
att(850,1352).
att(970,589).
att(1099,315).
att(1273,767).
att(836,1257).
att(1290,1176).
att(232,921).
att(1043,262).
att(1052,215).
att(232,915).
att(1103,311).
att(837,1257).
att(1043,264).
att(1095,305).
att(1095,351).
att(1127,583).
att(985,267).
att(1071,333).
att(1171,1222).
att(1056,215).
att(924,1325).
att(1088,680).
att(342,1035).
att(1173,1234).
att(358,905).
att(983,262).
att(909,1333).
att(1058,178).
att(1116,610).
att(983,269).
att(1241,1170).
att(301,755).
att(987,260).
att(1231,775).
att(911,1270).
att(1235,1232).
att(343,912).
att(911,1299).
att(990,267).
att(368,925).
att(911,1308).
att(918,1218).
att(907,1218).
att(920,1250).
att(335,733).
att(342,903).
att(1056,223).
att(301,774).
att(1041,351).
att(1122,539).
att(1245,1176).
att(1224,781).
att(342,880).
att(1044,378).
att(1120,542).
att(1118,567).
att(916,1304).
att(907,1145).
att(372,867).
att(911,1152).
att(1046,388).
att(1287,777).
att(366,839).
att(1112,551).
att(1112,545).
att(1048,355).
att(1239,1284).
att(1108,306).
att(1229,782).
att(909,1270).
att(1245,1228).
att(1245,1291).
att(1235,1276).
att(1036,329).
att(1043,381).
att(850,1447).
att(1231,827).
att(1235,941).
att(1039,414).
att(1233,827).
att(1237,938).
att(1227,827).
att(1039,428).
att(920,1150).
att(1239,927).
att(1244,1278).
att(913,1203).
att(1239,941).
att(920,1160).
att(1038,422).
att(913,1197).
att(1050,383).
att(907,1150).
att(1112,478).
att(1235,926).
att(924,1295).
att(1235,927).
att(276,880).
att(232,780).
att(862,1327).
att(964,393).
att(1273,1180).
att(240,758).
att(860,1393).
att(950,1143).
att(858,1329).
att(952,815).
att(1095,174).
att(1285,1234).
att(1029,692).
att(249,766).
att(956,336).
att(1099,180).
att(1093,217).
att(240,768).
att(1273,1236).
att(1090,213).
att(1008,589).
att(584,25).
att(856,1333).
att(581,319).
att(1275,1234).
att(950,1184).
att(952,1138).
att(595,311).
att(966,446).
att(864,1260).
att(947,1176).
att(962,336).
att(962,333).
att(873,1333).
att(968,446).
att(591,306).
att(591,319).
att(950,1169).
att(970,444).
att(245,780).
att(1103,211).
att(1095,269).
att(966,329).
att(1202,1480).
att(871,1250).
att(859,1154).
att(593,306).
att(866,1297).
att(1283,949).
att(972,320).
att(1105,267).
att(299,925).
att(1095,390).
att(1227,1276).
att(1097,345).
att(1099,308).
att(852,1218).
att(240,854).
att(366,732).
att(343,764).
att(1091,389).
att(1279,779).
att(1294,1222).
att(842,1308).
att(968,653).
att(1041,264).
att(368,733).
att(954,521).
att(1050,256).
att(245,910).
att(956,536).
att(967,579).
att(1275,775).
att(1088,448).
att(962,548).
att(967,536).
att(1288,1282).
att(1091,385).
att(1288,1278).
att(970,523).
att(1091,381).
att(238,874).
att(1101,348).
att(1281,763).
att(1279,782).
att(1108,267).
att(342,732).
att(840,1270).
att(1095,377).
att(1283,763).
att(1233,933).
att(871,1457).
att(837,1060).
att(859,1418).
att(962,482).
att(862,1388).
att(947,789).
att(848,1144).
att(866,1370).
att(243,865).
att(848,1152).
att(964,464).
att(972,562).
att(838,1154).
att(1231,995).
att(1275,832).
att(1283,824).
att(956,399).
att(1097,186).
att(1273,1132).
att(970,482).
att(1091,125).
att(848,1190).
att(871,1392).
att(948,785).
att(948,824).
att(968,488).
att(864,1420).
att(1290,984).
att(240,819).
att(245,807).
att(1095,120).
att(1090,186).
att(232,833).
att(836,1060).
att(1287,974).
att(249,812).
att(858,1401).
att(811,460).
att(1029,1218).
att(381,1405).
att(1199,562).
att(381,1407).
att(790,396).
att(1023,1308).
att(811,487).
att(1209,535).
att(1023,1270).
att(39,670).
att(862,140).
att(866,140).
att(409,910).
att(432,1381).
att(440,854).
att(35,634).
att(456,845).
att(811,492).
att(895,1445).
att(23,991).
att(11,476).
att(895,1468).
att(813,509).
att(426,1394).
att(1023,1152).
att(10,470).
att(895,1377).
att(11,493).
att(11,505).
att(1209,481).
att(895,1390).
att(310,1057).
att(895,1386).
att(443,833).
att(889,1453).
att(409,874).
att(1202,511).
att(1164,561).
att(311,1055).
att(440,758).
att(322,1024).
att(309,1110).
att(443,752).
att(1164,488).
att(443,757).
att(1199,399).
att(24,1102).
att(1215,516).
att(35,477).
att(1023,1396).
att(10,1092).
att(1011,1319).
att(37,994).
att(37,991).
att(37,1055).
att(1008,1399).
att(866,330).
att(964,1064).
att(1034,1377).
att(1017,1388).
att(966,1064).
att(1011,1393).
att(1008,1420).
att(1196,692).
att(459,1027).
att(862,241).
att(440,908).
att(803,549).
att(1020,1355).
att(37,1104).
att(29,598).
att(379,1341).
att(871,359).
att(1165,680).
att(11,640).
att(806,563).
att(408,1027).
att(869,363).
att(1164,682).
att(1212,589).
att(456,890).
att(35,1096).
att(1206,680).
att(1206,692).
att(1029,1352).
att(379,1381).
att(440,843).
att(1199,537).
att(1011,1295).
att(860,277).
att(29,636).
att(860,273).
att(1199,523).
att(1165,589).
att(1029,1347).
att(1023,1260).
att(1020,1255).
att(409,880).
att(871,233).
att(793,462).
att(1008,1257).
att(1215,655).
att(24,476).
att(24,473).
att(1074,488).
att(895,1158).
att(911,1390).
att(302,855).
att(1074,481).
att(1068,570).
att(904,1301).
att(904,1297).
att(304,804).
att(889,1203).
att(909,1422).
att(1068,510).
att(322,823).
att(892,1203).
att(1081,488).
att(350,1014).
att(1077,510).
att(1036,570).
att(1077,506).
att(307,1045).
att(898,1210).
att(307,1109).
att(338,788).
att(898,1203).
att(1079,510).
att(889,1062).
att(360,1030).
att(1071,400).
att(349,1107).
att(350,1042).
att(1037,511).
att(892,1064).
att(918,1420).
att(892,1060).
att(1120,705).
att(1036,488).
att(1036,482).
att(909,1399).
att(322,776).
att(911,1336).
att(918,1323).
att(1036,506).
att(328,774).
att(302,831).
att(907,1323).
att(25,600).
att(1074,589).
att(1196,438).
att(1029,1060).
att(335,1027).
att(1077,573).
att(318,1096).
att(1029,1066).
att(328,900).
att(443,783).
att(338,1027).
att(902,1422).
att(322,973).
att(456,753).
att(459,760).
att(892,1358).
att(1199,336).
att(335,899).
att(1209,444).
att(1164,402).
att(335,901).
att(1206,434).
att(302,1021).
att(341,901).
att(1212,441).
att(1081,685).
att(417,1368).
att(790,248).
att(1215,444).
att(413,738).
att(322,851).
att(24,663).
att(301,900).
att(415,1409).
att(885,1295).
att(1037,589).
att(806,285).
att(456,735).
att(787,273).
att(902,1257).
att(913,1457).
att(895,1293).
att(803,142).
att(1071,521).
att(424,1409).
att(787,140).
att(813,278).
att(797,298).
att(813,277).
att(1037,653).
att(308,931).
att(879,1306).
att(904,1266).
att(387,1054).
att(1122,1358).
att(1122,1355).
att(347,1042).
att(308,504).
att(924,314).
att(347,1109).
att(1088,1420).
att(1118,1266).
att(387,1053).
att(346,1098).
att(911,285).
att(844,462).
att(1129,1352).
att(838,543).
att(392,1055).
att(906,278).
att(1088,1329).
att(1088,1325).
att(1112,1263).
att(348,600).
att(348,601).
att(1118,1306).
att(842,492).
att(1120,1304).
att(920,295).
att(852,467).
att(848,543).
att(348,596).
att(348,603).
att(348,642).
att(850,490).
att(169,1373).
att(344,661).
att(918,163).
att(842,396).
att(964,1470).
att(1118,1154).
att(850,497).
att(389,598).
att(954,1451).
att(911,403).
att(1071,1162).
att(1118,1468).
att(305,646).
att(350,594).
att(913,376).
att(911,407).
att(895,145).
att(1068,1308).
att(308,627).
att(305,667).
att(350,624).
att(1068,1197).
att(1120,1392).
att(907,376).
att(356,598).
att(127,1376).
att(902,163).
att(916,490).
att(127,1374).
att(907,396).
att(305,661).
att(305,696).
att(1118,1422).
att(911,303).
att(1118,1420).
att(1123,1392).
att(123,1403).
att(355,646).
att(920,439).
att(125,1409).
att(127,1402).
att(920,458).
att(1081,1190).
att(308,689).
att(1037,1148).
att(1036,1144).
att(1118,1329).
att(387,940).
att(351,463).
att(1127,1399).
att(1125,1418).
att(186,1403).
att(1122,1325).
att(352,697).
att(1087,1060).
att(348,981).
att(840,273).
att(871,543).
att(838,277).
att(848,233).
att(11,423).
att(29,431).
att(11,425).
att(866,471).
att(964,1255).
att(858,479).
att(1013,1470).
att(33,132).
att(848,298).
att(962,1306).
att(864,490).
att(858,396).
att(29,423).
att(209,1381).
att(428,1102).
att(873,485).
att(844,163).
att(837,163).
att(869,558).
att(858,515).
att(37,416).
att(377,661).
att(967,1306).
att(29,126).
att(213,1376).
att(209,1409).
att(848,142).
att(852,146).
att(430,600).
att(866,394).
att(35,423).
att(35,425).
att(852,137).
att(972,1308).
att(871,373).
att(956,1060).
att(10,216).
att(1029,1447).
att(858,324).
att(11,226).
att(210,1409).
att(1034,1451).
att(430,646).
att(1026,1388).
att(866,439).
att(383,670).
att(385,664).
att(33,168).
att(954,1194).
att(426,638).
att(217,1409).
att(346,661).
att(967,1470).
att(1088,1154).
att(1120,1210).
att(180,1376).
att(172,1403).
att(956,1377).
att(348,671).
att(174,1409).
att(848,455).
att(962,1418).
att(956,1327).
att(392,661).
att(960,1377).
att(178,1404).
att(852,452).
att(966,1416).
att(180,1407).
att(348,693).
att(348,696).
att(968,1416).
att(426,1006).
att(1123,1062).
att(1127,1069).
att(967,1377).
att(387,694).
att(385,1047).
att(864,549).
att(377,1098).
att(960,1344).
att(10,429).
att(852,357).
att(970,1327).
att(348,498).
att(385,1051).
att(629,1138).
att(795,1219).
att(1011,314).
att(803,1338).
att(1199,1396).
att(1206,1447).
att(1167,1451).
att(1209,1396).
att(806,1264).
att(1164,1370).
att(1031,439).
att(806,1248).
att(790,1261).
att(866,1015).
att(1215,1422).
att(1013,241).
att(623,1223).
att(803,1298).
att(1164,1401).
att(885,571).
att(635,1133).
att(806,1309).
att(629,1222).
att(645,1138).
att(1206,1347).
att(1199,1260).
att(1017,241).
att(813,1268).
att(1164,1329).
att(11,1379).
att(1164,1325).
att(1029,357).
att(882,563).
att(879,571).
att(643,1236).
att(629,782).
att(871,1307).
att(956,277).
att(595,1222).
att(595,1228).
att(1029,563).
att(599,1228).
att(629,808).
att(1026,462).
att(962,273).
att(970,241).
att(866,1201).
att(964,273).
att(604,1225).
att(626,769).
att(970,234).
att(858,1117).
att(591,935).
att(1029,479).
att(1008,490).
att(1011,490).
att(604,935).
att(967,152).
att(1209,1447).
att(632,818).
att(1020,490).
att(597,982).
att(1079,1418).
att(1164,1207).
att(1209,1066).
att(1074,1323).
att(813,963).
att(1037,1364).
att(787,1012).
att(1079,1364).
att(787,1016).
att(1087,1422).
att(797,878).
att(1074,1355).
att(895,354).
att(1068,1325).
att(1165,1060).
att(1037,1416).
att(882,285).
att(1068,1250).
att(895,233).
att(811,878).
att(811,894).
att(885,277).
att(1077,1220).
att(918,462).
att(1071,1270).
att(918,485).
att(911,519).
att(1071,1299).
att(1087,1257).
att(309,1381).
att(632,926).
att(895,460).
att(1017,273).
att(11,1405).
att(1209,1260).
att(635,1230).
att(1023,285).
att(1196,1266).
att(889,552).
att(629,989).
att(1017,140).
att(633,933).
att(1202,1160).
att(635,929).
att(27,1402).
att(806,1086).
att(1165,1218).
att(637,933).
att(35,1379).
att(790,955).
att(803,1111).
att(623,989).
att(1068,1457).
att(635,944).
att(41,1409).
att(879,373).
att(1202,1190).
att(898,376).
att(35,1404).
att(637,995).
att(892,439).
att(1199,1082).
att(811,1115).
att(904,405).
att(887,314).
att(898,439).
att(813,1126).
att(1196,1207).
att(1079,1453).
att(305,1341).
att(1123,485).
att(918,1211).
att(1122,513).
att(1077,142).
att(1037,145).
att(1118,398).
att(1118,396).
att(906,1126).
att(924,1214).
att(1118,412).
att(1116,439).
att(306,1409).
att(911,955).
att(913,969).
att(351,1405).
att(1088,490).
att(352,1374).
att(352,1382).
att(305,1405).
att(350,1368).
att(909,1033).
att(911,1019).
att(916,961).
att(918,1332).
att(1079,458).
att(879,1010).
att(318,1405).
att(920,1338).
att(885,1019).
att(1081,439).
att(811,46).
att(1068,455).
att(1079,374).
att(1068,359).
att(911,1309).
att(924,1356).
att(1036,439).
att(1077,359).
att(1036,458).
att(885,877).
att(895,1007).
att(913,1296).
att(879,1025).
att(1037,439).
att(924,1345).
att(1068,233).
att(911,1130).
att(1081,363).
att(913,1151).
att(914,1264).
att(914,1258).
att(1112,568).
att(898,878).
att(911,1166).
att(914,1153).
att(1120,489).
att(1071,273).
att(1122,467).
att(914,1309).
att(1118,556).
att(970,513).
att(389,1368).
att(840,1114).
att(1123,137).
att(966,398).
att(1088,282).
att(390,1341).
att(954,407).
att(348,1380).
att(388,1381).
att(866,1334).
att(852,1115).
att(954,442).
att(387,1382).
att(871,1332).
att(968,410).
att(840,1016).
att(866,1264).
att(27,997).
att(846,1010).
att(37,937).
att(31,997).
att(966,365).
att(907,877).
att(846,1248).
att(918,1016).
att(842,1296).
att(911,877).
att(964,543).
att(1118,248).
att(842,1151).
att(850,1300).
att(846,1264).
att(1088,324).
att(1088,231).
att(966,465).
att(848,1151).
att(964,465).
att(850,1155).
att(960,571).
att(956,462).
att(842,1078).
att(1123,282).
att(848,1208).
att(970,465).
att(966,513).
att(970,487).
att(1088,248).
att(858,196).
att(864,141).
att(1141,422).
att(927,1244).
att(964,876).
att(964,884).
att(873,296).
att(968,1012).
att(866,164).
att(1029,1271).
att(790,443).
att(815,174).
att(1206,563).
att(871,150).
att(1023,1151).
att(795,443).
att(1133,33).
att(795,456).
att(1146,120).
att(1284,626).
att(951,602).
att(1141,172).
att(816,217).
att(859,94).
att(1180,10).
att(864,82).
att(1142,174).
att(1215,462).
att(926,1005).
att(1182,41).
att(1184,31).
att(858,48).
att(815,267).
att(800,338).
att(790,360).
att(927,977).
att(816,256).
att(859,52).
att(1212,490).
att(862,100).
att(751,751).
att(1146,176).
att(1206,467).
att(1206,462).
att(941,1005).
att(944,942).
att(837,44).
att(871,408).
att(1143,319).
att(836,44).
att(785,256).
att(822,219).
att(866,302).
att(871,453).
att(852,82).
att(949,1283).
att(858,322).
att(1147,27).
att(1147,29).
att(1143,355).
att(954,958).
att(830,260).
att(856,372).
att(1146,25).
att(1274,996).
att(1142,305).
att(970,1086).
att(817,347).
att(869,408).
att(858,372).
att(862,304).
att(825,269).
att(1140,347).
att(933,1179).
att(970,1124).
att(1280,1043).
att(866,208).
att(1141,346).
att(1146,306).
att(832,258).
att(926,1139).
att(858,236).
att(960,1128).
att(858,247).
att(1147,356).
att(1277,1097).
att(1013,1305).
att(941,1188).
att(1277,602).
att(960,1025).
att(1140,428).
att(968,961).
att(816,418).
att(929,1136).
att(1026,1264).
att(1034,1334).
att(856,276).
att(935,639).
att(892,1157).
att(1002,629).
att(777,1146).
att(1068,558).
att(1029,877).
att(887,1214).
att(941,643).
att(771,1191).
att(982,1279).
att(1199,163).
att(889,1204).
att(882,1086).
att(1170,23).
att(1168,305).
att(892,1201).
att(779,1174).
att(1191,178).
att(1168,319).
att(782,1146).
att(979,952).
att(1087,462).
att(979,947).
att(781,1138).
att(1079,552).
att(1138,210).
att(781,1182).
att(1079,543).
att(879,1214).
att(767,1223).
att(1071,403).
att(1206,163).
att(976,985).
att(1084,513).
att(979,985).
att(779,1176).
att(751,1286).
att(1169,305).
att(895,1063).
att(1169,351).
att(1182,225).
att(795,50).
att(803,94).
att(811,75).
att(1238,311).
att(1215,142).
att(787,100).
att(1238,309).
att(995,934).
att(813,77).
att(1037,485).
att(777,1289).
att(976,1041).
att(1084,373).
att(913,1332).
att(1074,410).
att(1169,390).
att(1182,264).
att(765,777).
att(771,951).
att(1068,373).
att(794,782).
att(885,1356).
att(790,232).
att(935,996).
att(767,767).
att(769,769).
att(887,1345).
att(1202,447).
att(1206,497).
att(1206,490).
att(773,773).
att(1164,394).
att(811,370).
att(1209,452).
att(1135,389).
att(771,763).
att(1137,377).
att(1008,965).
att(1034,1114).
att(941,1046).
att(781,767).
att(932,1105).
att(1138,418).
att(773,830).
att(882,1309).
att(935,1105).
att(895,1251).
att(811,249).
att(976,1171).
att(1202,365).
att(793,156).
att(885,1309).
att(1165,439).
att(1031,961).
att(1212,324).
att(779,792).
att(782,782).
att(1165,410).
att(1206,410).
att(975,1244).
att(992,1185).
att(982,1171).
att(992,1245).
att(1206,357).
att(984,1290).
att(777,785).
att(938,584).
att(1071,546).
att(1180,415).
att(898,1268).
att(1020,884).
att(938,602).
att(1209,357).
att(779,817).
att(989,1185).
att(782,792).
att(898,1296).
att(898,1307).
att(789,1176).
att(911,208).
att(1168,262).
att(1226,319).
att(1079,1111).
att(1077,959).
att(1174,215).
att(1223,311).
att(808,1137).
att(1074,965).
att(1240,171).
att(906,236).
att(1170,269).
att(907,274).
att(1236,225).
att(1127,1334).
att(1238,253).
att(913,280).
att(1230,307).
att(1112,1248).
att(902,44).
att(1112,1264).
att(1226,346).
att(1226,389).
att(1238,269).
att(1122,1303).
att(1088,1345).
att(799,1222).
att(1037,971).
att(1129,1248).
att(1286,346).
att(1125,1298).
att(1079,881).
att(794,935).
att(924,289).
att(907,164).
att(786,786).
att(1122,1155).
att(1129,1309).
att(995,1046).
att(889,141).
att(892,159).
att(797,864).
att(1071,1130).
att(787,787).
att(800,859).
att(895,161).
att(792,792).
att(1172,390).
att(1212,878).
att(898,147).
att(794,794).
att(811,850).
att(1068,1307).
att(787,862).
att(1238,388).
att(797,797).
att(799,799).
att(895,204).
att(1169,119).
att(792,825).
att(779,992).
att(802,782).
att(805,805).
att(1074,1201).
att(1164,891).
att(805,808).
att(1068,1159).
att(796,784).
att(806,806).
att(984,643).
att(895,84).
att(1084,1166).
att(989,599).
att(1074,1061).
att(775,974).
att(811,811).
att(992,599).
att(1068,1208).
att(887,102).
att(909,362).
att(1232,39).
att(885,61).
att(1071,1114).
att(885,57).
att(892,96).
att(1222,311).
att(805,1137).
att(979,645).
att(1084,1076).
att(920,332).
att(1240,120).
att(1087,1061).
att(924,443).
att(1276,390).
att(1276,388).
att(837,156).
att(838,276).
att(954,1219).
att(1280,319).
att(825,1222).
att(956,1258).
att(848,296).
att(818,792).
att(1277,381).
att(967,1258).
att(1140,779).
att(1122,894).
att(1122,888).
att(1289,267).
att(1122,876).
att(817,796).
att(846,208).
att(1142,782).
att(818,825).
att(784,979).
att(1278,428).
att(1274,415).
att(1127,878).
att(844,188).
att(850,153).
att(836,188).
att(1146,782).
att(972,1296).
att(1147,779).
att(818,786).
att(956,1061).
att(822,975).
att(859,338).
att(1278,414).
att(820,989).
att(866,408).
att(816,816).
att(816,832).
att(1276,117).
att(825,989).
att(951,430).
att(818,818).
att(1123,1155).
att(909,88).
att(1226,417).
att(1116,1201).
att(802,935).
att(784,815).
att(1120,1195).
att(916,200).
att(1223,120).
att(909,77).
att(906,92).
att(920,206).
att(1291,377).
att(796,979).
att(789,974).
att(1036,884).
att(786,818).
att(906,46).
att(1112,1113).
att(827,827).
att(911,95).
att(808,989).
att(907,47).
att(820,1184).
att(1284,39).
att(837,238).
att(822,1137).
att(1277,310).
att(1272,25).
att(822,1184).
att(842,358).
att(1280,10).
att(1289,120).
att(1289,117).
att(918,110).
att(918,108).
att(832,816).
att(840,304).
att(906,48).
att(1225,210).
att(920,96).
att(820,1169).
att(1226,210).
att(914,50).
att(918,57).
att(1125,1111).
att(916,52).
att(842,238).
att(954,1337).
att(1122,961).
att(954,1332).
att(1274,23).
att(1122,969).
att(949,31).
att(924,96).
att(1232,215).
att(951,31).
att(846,806).
att(954,95).
att(1140,1285).
att(1272,1452).
att(1272,1459).
att(1280,1428).
att(956,100).
att(817,930).
att(817,942).
att(1282,1438).
att(954,86).
att(1276,1460).
att(860,1116).
att(933,416).
att(1272,1485).
att(960,96).
att(862,1017).
att(1274,1479).
att(1142,930).
att(1282,1454).
att(1142,942).
att(1034,409).
att(1147,1285).
att(1277,1488).
att(1140,980).
att(960,50).
att(1020,370).
att(972,44).
att(1280,1486).
att(816,1050).
att(1142,977).
att(1031,338).
att(951,1460).
att(941,421).
att(1143,993).
att(951,1463).
att(970,94).
att(1141,1044).
att(815,1105).
att(1023,238).
att(1212,1356).
att(1212,1334).
att(1013,283).
att(1202,1261).
att(1023,243).
att(1135,1139).
att(1202,1219).
att(1147,1056).
att(951,1491).
att(1143,1052).
att(970,46).
att(837,836).
att(784,1105).
att(848,898).
att(816,1134).
att(966,247).
att(852,882).
att(822,1095).
att(1140,1136).
att(1278,179).
att(866,1164).
att(830,1093).
att(840,840).
att(1280,187).
att(964,274).
att(836,844).
att(972,238).
att(844,836).
att(1286,1509).
att(827,1046).
att(869,1215).
att(838,862).
att(785,626).
att(846,846).
att(1272,259).
att(864,1074).
att(837,793).
att(840,862).
att(848,848).
att(850,837).
att(850,852).
att(850,850).
att(827,1095).
att(967,156).
att(1013,409).
att(1272,1437).
att(848,864).
att(1272,1435).
att(842,793).
att(850,864).
att(970,150).
att(850,873).
att(970,143).
att(1184,999).
att(1011,61).
att(995,427).
att(1206,1086).
att(1133,1056).
att(751,347).
att(926,1503).
att(1209,1086).
att(1206,1061).
att(979,384).
att(1135,1003).
att(1212,1061).
att(898,335).
att(790,1034).
att(941,1463).
att(773,352).
att(781,319).
att(995,134).
att(1071,1356).
att(769,344).
att(976,118).
att(751,377).
att(1135,1041).
att(904,332).
att(782,319).
att(1209,1113).
att(790,904).
att(773,347).
att(790,902).
att(1026,44).
att(773,428).
att(800,916).
att(1180,1038).
att(777,346).
att(777,390).
att(793,844).
att(779,378).
att(879,208).
att(811,882).
att(941,1506).
att(1184,1043).
att(771,430).
att(1182,1108).
att(882,208).
att(889,370).
att(1031,52).
att(1206,1022).
att(767,418).
att(1234,1183).
att(895,283).
att(803,838).
att(1191,1089).
att(892,274).
att(1168,1229).
att(779,414).
att(782,390).
att(1002,1506).
att(779,430).
att(1184,1095).
att(982,212).
att(1238,1179).
att(1240,1139).
att(1068,1219).
att(982,271).
att(860,844).
att(1206,1264).
att(1178,1185).
att(856,856).
att(1133,1173).
att(1029,247).
att(1164,1334).
att(858,858).
att(862,840).
att(1026,299).
att(871,920).
att(859,859).
att(800,1074).
att(815,639).
att(1141,581).
att(790,1118).
att(860,860).
att(1164,1248).
att(1164,1264).
att(1178,1245).
att(1142,629).
att(816,645).
att(811,1165).
att(862,862).
att(1164,1217).
att(866,862).
att(1135,1244).
att(1143,581).
att(866,859).
att(1013,77).
att(1133,1281).
att(1212,1159).
att(1146,623).
att(1013,84).
att(1013,82).
att(1029,161).
att(885,456).
att(813,1068).
att(926,1437).
att(806,1129).
att(871,871).
att(1215,1155).
att(873,873).
att(1011,96).
att(1017,77).
att(1180,1273).
att(892,409).
att(1164,1163).
att(1020,77).
att(803,962).
att(895,450).
att(1011,102).
att(1202,1078).
att(941,1427).
att(1191,1229).
att(1212,1204).
att(871,797).
att(811,1122).
att(1013,100).
att(1212,1211).
att(982,386).
att(873,800).
att(944,1432).
att(976,1503).
att(441,553).
att(777,269).
att(1234,1056).
att(916,1165).
att(782,262).
att(1074,150).
att(792,346).
att(892,838).
att(979,1508).
att(1222,1179).
att(898,848).
att(887,860).
att(1077,147).
att(1174,1044).
att(781,267).
att(913,1068).
att(1174,1052).
att(813,2).
att(329,717).
att(887,859).
att(898,842).
att(1234,1050).
att(333,727).
att(1084,159).
att(317,700).
att(1071,198).
att(313,710).
att(898,869).
att(1036,296).
att(920,1079).
att(805,392).
att(1240,1041).
att(902,836).
att(444,614).
att(1079,206).
att(1232,1235).
att(1168,639).
att(765,120).
att(911,972).
att(1122,459).
att(913,962).
att(448,648).
att(1240,1095).
att(1087,188).
att(906,954).
att(796,418).
att(906,966).
att(898,797).
att(1068,102).
att(1170,637).
att(914,956).
att(1037,74).
att(1226,1224).
att(792,120).
att(1123,453).
att(765,166).
att(1127,450).
att(1071,100).
att(1222,1294).
att(1036,206).
att(316,722).
att(1240,590).
att(805,135).
att(1228,1245).
att(1223,1294).
att(907,964).
att(1240,593).
att(1077,94).
att(1234,581).
att(1289,1245).
att(796,184).
att(1116,408).
att(790,12).
att(1178,602).
att(3,1328).
att(1206,82).
att(1135,632).
att(879,1011).
att(976,257).
att(1202,106).
att(448,708).
att(895,968).
att(7,1421).
att(790,13).
att(989,229).
att(887,1011).
att(779,420).
att(898,972).
att(779,130).
att(895,966).
att(454,683).
att(879,960).
att(1138,639).
att(982,270).
att(813,49).
att(879,967).
att(1167,95).
att(1191,629).
att(885,882).
att(974,1454).
att(4,1346).
att(976,1437).
att(1168,942).
att(7,1328).
att(1037,408).
att(811,68).
att(1084,328).
att(898,1031).
att(771,176).
att(895,1026).
att(5,1413).
att(1178,632).
att(796,10).
att(879,1034).
att(1240,1229).
att(887,887).
att(454,727).
att(767,225).
att(777,167).
att(976,1452).
att(404,538).
att(1236,1273).
att(1209,48).
att(779,209).
att(751,258).
att(1172,942).
att(1081,370).
att(892,892).
att(406,531).
att(904,1031).
att(1165,106).
att(811,18).
att(979,1435).
att(895,879).
att(1036,332).
att(1084,358).
att(6,1322).
att(781,174).
att(1240,1273).
att(904,1023).
att(773,221).
att(795,22).
att(404,531).
att(775,174).
att(444,709).
att(797,2).
att(767,264).
att(1236,934).
att(444,710).
att(1037,242).
att(1068,280).
att(1172,977).
att(765,344).
att(800,2).
att(911,1202).
att(765,346).
att(1071,283).
att(1077,286).
att(906,1212).
att(1169,987).
att(895,911).
att(1036,370).
att(805,312).
att(1164,59).
att(982,1488).
att(5,1350).
att(879,914).
att(898,913).
att(1087,238).
att(1164,47).
att(1240,1003).
att(904,904).
att(848,1068).
att(1225,604).
att(1226,1093).
att(820,430).
att(848,1036).
att(914,869).
att(1118,188).
att(1125,147).
att(1127,156).
att(1274,1188).
att(1276,1171).
att(1122,200).
att(1232,599).
att(1225,645).
att(1277,1233).
att(820,130).
att(1272,1224).
att(822,133).
att(1120,77).
att(1120,88).
att(924,860).
att(951,1139).
att(956,409).
att(951,1134).
att(1122,75).
att(840,1017).
att(968,408).
att(1277,1281).
att(784,174).
att(966,301).
att(316,550).
att(320,580).
att(323,572).
att(1272,1294).
att(1120,100).
att(970,459).
att(972,408).
att(825,120).
att(1232,632).
att(956,304).
att(960,456).
att(329,538).
att(1282,1290).
att(954,341).
att(820,119).
att(317,528).
att(1116,52).
att(848,1031).
att(1284,948).
att(964,370).
att(329,534).
att(850,1026).
att(954,372).
att(336,677).
att(802,125).
att(1087,44).
att(802,184).
att(317,616).
att(1074,44).
att(1084,110).
att(1289,1229).
att(911,885).
att(1116,338).
att(329,611).
att(1234,626).
att(313,613).
att(796,176).
att(914,885).
att(914,879).
att(1225,996).
att(1037,52).
att(1225,990).
att(317,588).
att(907,907).
att(323,611).
att(765,262).
att(822,25).
att(316,588).
att(909,909).
att(913,920).
att(1122,249).
att(794,221).
att(1122,243).
att(913,924).
att(924,1011).
att(326,586).
att(907,892).
att(906,907).
att(1036,96).
att(799,180).
att(906,916).
att(913,913).
att(827,309).
att(329,702).
att(906,858).
att(805,252).
att(794,264).
att(913,848).
att(1230,977).
att(1122,291).
att(918,918).
att(339,707).
att(799,215).
att(1088,360).
att(799,211).
att(339,711).
att(832,319).
att(786,430).
att(820,348).
att(1277,1134).
att(784,383).
att(820,387).
att(820,388).
att(850,1199).
att(1127,293).
att(1125,286).
att(1272,1139).
att(323,677).
att(836,1087).
att(913,871).
att(852,1209).
att(852,1206).
att(1122,143).
att(786,378).
att(799,267).
att(799,264).
att(924,924).
att(933,1222).
att(40,1480).
att(944,1172).
att(960,885).
att(967,1034).
att(18,1335).
att(938,1169).
att(968,1020).
att(508,625).
att(859,189).
att(17,1360).
att(21,1318).
att(34,1515).
att(506,616).
att(856,139).
att(34,1523).
att(38,1497).
att(967,902).
att(968,892).
att(938,1230).
att(956,836).
att(956,844).
att(972,902).
att(938,1234).
att(512,611).
att(496,622).
att(1002,1172).
att(860,157).
att(15,1360).
att(944,1230).
att(954,859).
att(38,1426).
att(1011,1074).
att(516,709).
att(972,836).
att(927,944).
att(962,838).
att(42,1511).
att(40,1423).
att(974,789).
att(1002,1230).
att(34,1504).
att(871,189).
att(848,2).
att(860,197).
att(28,1440).
att(933,933).
att(38,1469).
att(992,808).
att(38,1467).
att(1013,1123).
att(36,1466).
att(36,1473).
att(38,1456).
att(1020,1036).
att(935,935).
att(26,1456).
att(967,837).
att(984,830).
att(929,982).
att(1029,1196).
att(1029,1215).
att(938,938).
att(1002,932).
att(964,873).
att(941,941).
att(858,105).
att(972,842).
att(944,932).
att(982,786).
att(484,555).
att(966,1036).
att(1272,979).
att(20,1442).
att(933,827).
att(512,725).
att(12,1469).
att(466,538).
att(929,796).
att(949,949).
att(1129,846).
att(951,951).
att(461,544).
att(838,55).
att(13,1413).
att(1129,806).
att(842,60).
att(1123,864).
att(850,101).
att(12,1371).
att(1282,984).
att(18,1384).
att(1125,864).
att(511,679).
att(15,1473).
att(852,101).
att(941,820).
att(13,1369).
att(15,1467).
att(486,614).
att(956,1034).
att(960,960).
att(1125,797).
att(968,1116).
att(962,962).
att(966,964).
att(12,1398).
att(964,964).
att(956,967).
att(19,1456).
att(13,1417).
att(461,611).
att(480,557).
att(38,1514).
att(933,1238).
att(935,1138).
att(510,722).
att(927,1169).
att(850,70).
att(17,1320).
att(966,1020).
att(850,67).
att(466,580).
att(941,1137).
att(858,281).
att(932,1168).
att(852,64).
att(486,559).
att(852,67).
att(12,1316).
att(1199,299).
att(1209,208).
att(7,1497).
att(6,1512).
att(404,613).
att(976,1272).
att(986,1286).
att(1164,342).
att(989,1228).
att(435,724).
att(1215,243).
att(1212,238).
att(406,586).
att(992,1228).
att(43,1350).
att(1206,289).
att(7,1426).
att(397,553).
att(404,574).
att(974,974).
att(1199,150).
att(43,1252).
att(1165,238).
att(1023,836).
att(434,719).
att(9,1512).
att(871,9).
att(1013,864).
att(34,1254).
att(873,2).
att(982,935).
att(1026,840).
att(1215,299).
att(7,1469).
att(1206,153).
att(800,105).
att(1206,161).
att(6,1471).
att(898,1036).
att(976,979).
att(1202,194).
att(397,650).
att(979,979).
att(898,1068).
att(1212,150).
att(898,1081).
att(1202,198).
att(995,933).
att(397,616).
att(402,656).
att(790,66).
att(7,1363).
att(1071,411).
att(395,613).
att(1074,459).
att(1408,528).
att(395,618).
att(885,960).
att(989,989).
att(9,1471).
att(902,1087).
att(1202,88).
att(375,658).
att(992,992).
att(5,1469).
att(862,49).
att(869,113).
att(36,1384).
att(406,714).
att(1029,1087).
att(397,700).
att(856,63).
att(941,975).
att(979,784).
att(1410,555).
att(979,785).
att(1410,557).
att(1002,944).
att(43,1469).
att(1002,1002).
att(36,1467).
att(941,995).
att(375,715).
att(406,708).
att(1394,524).
att(964,793).
att(404,704).
att(858,17).
att(982,1180).
att(793,294).
att(1206,459).
att(856,13).
att(42,1391).
att(976,1135).
att(1011,1011).
att(1405,538).
att(34,1369).
att(979,818).
att(968,787).
att(1002,986).
att(393,677).
att(968,800).
att(404,687).
att(1008,962).
att(1394,554).
att(508,559).
att(982,1234).
att(36,1320).
att(1410,613).
att(1405,572).
att(869,72).
att(1026,1023).
att(979,1138).
att(1026,1017).
att(1397,578).
att(506,541).
att(871,73).
att(864,17).
att(992,1137).
att(1023,1023).
att(1202,362).
att(1397,574).
att(873,64).
att(866,14).
att(406,730).
att(1026,1026).
att(803,158).
att(3,1513).
att(1199,243).
att(984,1228).
att(976,1225).
att(1407,611).
att(28,1249).
att(976,1222).
att(402,727).
att(859,2).
att(795,197).
att(1029,1023).
att(496,555).
att(512,544).
att(1202,247).
att(514,538).
att(1405,614).
att(1020,892).
att(1405,611).
att(2,1478).
att(43,1324).
att(806,148).
att(864,40).
att(856,34).
att(1167,341).
att(391,706).
att(6,1519).
att(1071,960).
att(567,708).
att(564,704).
att(521,524).
att(521,522).
att(1164,866).
att(811,758).
att(1084,1120).
att(532,526).
att(1036,1079).
att(803,778).
att(58,1444).
att(879,56).
att(5,406).
att(1037,1079).
att(795,735).
att(1071,1017).
att(6,326).
att(567,677).
att(904,65).
att(1037,966).
att(69,1521).
att(811,768).
att(887,20).
att(1036,1125).
att(8,323).
att(803,732).
att(1074,1008).
att(895,72).
att(567,660).
att(5,441).
att(45,1321).
att(45,1316).
att(898,73).
att(889,17).
att(909,151).
att(570,725).
att(1068,898).
att(567,731).
att(1071,882).
att(1074,902).
att(72,1517).
att(562,724).
att(540,524).
att(560,719).
att(56,1421).
att(907,287).
att(906,157).
att(525,554).
att(1068,913).
att(879,7).
att(1071,911).
att(68,1513).
att(64,1513).
att(885,22).
att(527,531).
att(1084,892).
att(892,30).
att(885,7).
att(1037,1020).
att(70,1523).
att(920,157).
att(1206,904).
att(797,863).
att(803,863).
att(902,294).
att(1011,2).
att(1209,902).
att(532,654).
att(63,1523).
att(813,847).
att(525,630).
att(527,611).
att(532,656).
att(887,197).
att(1212,889).
att(1212,904).
att(45,1494).
att(1196,904).
att(51,1484).
att(1165,1008).
att(813,839).
att(525,608).
att(1215,836).
att(3,494).
att(537,580).
att(790,833).
att(109,1246).
att(521,608).
att(532,618).
att(8,464).
att(1071,1202).
att(527,578).
att(527,574).
att(1164,882).
att(561,727).
att(6,562).
att(813,863).
att(51,1500).
att(525,704).
att(539,675).
att(8,512).
att(521,702).
att(885,111).
att(1209,850).
att(803,834).
att(4,375).
att(1071,1071).
att(795,753).
att(795,759).
att(898,91).
att(1164,907).
att(795,757).
att(795,756).
att(889,207).
att(539,658).
att(525,676).
att(527,676).
att(813,814).
att(1206,873).
att(1071,1129).
att(3,457).
att(58,1471).
att(3,451).
att(1199,806).
att(535,625).
att(885,60).
att(521,683).
att(4,448).
att(63,1441).
att(811,819).
att(45,1371).
att(63,1425).
att(803,752).
att(1084,1084).
att(540,608).
att(797,834).
att(813,821).
att(540,616).
att(1087,1087).
att(916,70).
att(907,15).
att(1118,1008).
att(836,294).
att(911,12).
att(12,1515).
att(486,660).
att(1036,797).
att(17,1493).
att(480,622).
att(18,1484).
att(478,611).
att(920,16).
att(71,1360).
att(1088,887).
att(12,1502).
att(18,1512).
att(1120,909).
att(1120,918).
att(486,710).
att(70,1312).
att(461,717).
att(914,7).
att(956,1087).
att(484,701).
att(848,189).
att(21,1500).
att(1127,909).
att(73,1262).
att(480,672).
att(19,1482).
att(920,8).
att(1118,1212).
att(1087,837).
att(68,1430).
att(914,197).
att(560,553).
att(562,586).
att(564,574).
att(564,569).
att(909,80).
att(924,162).
att(65,1429).
att(895,7).
att(1084,918).
att(73,1512).
att(567,553).
att(1112,1202).
att(907,197).
att(71,1480).
att(895,4).
att(895,3).
att(1068,871).
att(481,721).
att(545,572).
att(73,1423).
att(73,1442).
att(567,526).
att(907,90).
att(920,76).
att(567,531).
att(545,679).
att(914,111).
att(909,63).
att(1118,1088).
att(1036,859).
att(911,49).
att(1081,869).
att(561,618).
att(542,677).
att(71,1429).
att(907,113).
att(570,611).
att(1074,793).
att(1037,787).
att(1118,967).
att(907,68).
att(914,56).
att(1036,873).
att(906,70).
att(85,1441).
att(944,390).
att(16,506).
att(1178,771).
att(954,99).
att(93,1500).
att(589,580).
att(968,201).
att(18,512).
att(848,798).
att(859,1027).
att(938,351).
att(1135,773).
att(938,349).
att(649,723).
att(926,378).
att(964,80).
att(970,197).
att(621,725).
att(207,1243).
att(653,715).
att(38,680).
att(956,56).
att(858,896).
att(1133,824).
att(1180,796).
att(1135,784).
att(848,833).
att(970,89).
att(615,723).
att(1132,830).
att(817,986).
att(575,531).
att(817,989).
att(852,819).
att(926,130).
att(631,725).
att(1140,992).
att(85,1389).
att(78,1413).
att(859,922).
att(575,658).
att(960,60).
att(866,903).
att(87,1383).
att(848,759).
att(842,783).
att(589,658).
att(87,1387).
att(85,1384).
att(860,973).
att(587,662).
att(589,648).
att(20,391).
att(932,117).
att(575,622).
att(36,688).
att(933,120).
att(575,608).
att(869,901).
att(1011,284).
att(36,655).
att(1011,300).
att(1133,1133).
att(938,119).
att(859,839).
att(929,127).
att(577,586).
att(856,922).
att(966,70).
att(1146,989).
att(21,454).
att(1182,815).
att(871,899).
att(1137,1137).
att(852,770).
att(1184,818).
att(28,649).
att(83,1371).
att(34,612).
att(12,320).
att(583,622).
att(1138,1138).
att(67,313).
att(583,716).
att(80,1523).
att(1140,1140).
att(842,925).
att(927,27).
att(852,893).
att(1280,135).
att(844,925).
att(612,662).
att(837,925).
att(846,1032).
att(587,700).
att(906,736).
att(1143,818).
att(15,610).
att(195,1363).
att(827,986).
att(913,739).
att(1143,1143).
att(1284,127).
att(1088,65).
att(191,1346).
att(197,1314).
att(87,1522).
att(191,1354).
att(944,41).
att(1278,174).
att(18,539).
att(927,25).
att(205,1395).
att(197,1320).
att(73,320).
att(817,1168).
att(1282,167).
att(966,292).
att(1282,169).
att(76,1518).
att(609,650).
att(1146,1146).
att(817,1176).
att(929,39).
att(587,674).
att(951,117).
att(1088,56).
att(924,783).
att(954,281).
att(1143,1138).
att(932,25).
att(1147,1147).
att(197,1360).
att(19,539).
att(87,1484).
att(954,191).
att(1272,262).
att(14,464).
att(1280,210).
att(18,562).
att(842,874).
att(18,548).
att(1116,30).
att(938,27).
att(690,550).
att(1142,1172).
att(21,527).
att(195,1324).
att(1122,26).
att(16,523).
att(682,528).
att(836,874).
att(960,251).
att(817,1286).
att(932,351).
att(80,1441).
att(202,1346).
att(19,562).
att(90,1474).
att(587,722).
att(960,195).
att(18,482).
att(199,1262).
att(18,464).
att(962,189).
att(91,1474).
att(840,804).
att(678,522).
att(609,700).
att(970,157).
att(690,526).
att(609,706).
att(205,1343).
att(1125,40).
att(951,217).
att(1118,2).
att(13,488).
att(817,1278).
att(1132,781).
att(932,347).
att(13,464).
att(78,1502).
att(966,201).
att(856,750).
att(860,752).
att(1234,763).
att(539,719).
att(107,1448).
att(615,538).
att(869,831).
att(1135,976).
att(32,457).
att(32,454).
att(795,901).
att(976,130).
att(1164,1164).
att(527,720).
att(535,702).
att(1,684).
att(43,516).
att(536,715).
att(1164,1202).
att(1137,992).
att(1202,1120).
att(539,710).
att(97,1466).
att(1215,1087).
att(1017,55).
att(109,1363).
att(28,329).
att(617,524).
att(109,1389).
att(537,709).
att(1029,113).
att(1164,1037).
att(873,760).
att(871,752).
att(1236,808).
att(979,420).
att(869,755).
att(1184,975).
att(1029,101).
att(28,438).
att(34,399).
att(3,589).
att(525,706).
att(540,672).
att(527,704).
att(1026,49).
att(1174,1141).
att(4,525).
att(803,922).
att(617,608).
att(800,917).
att(1234,816).
att(976,171).
att(1167,954).
att(36,333).
att(1168,1168).
att(42,441).
att(45,1520).
att(976,178).
att(1212,967).
att(1168,1172).
att(1199,1026).
att(38,339).
att(4,527).
att(1169,1169).
att(43,441).
att(871,766).
att(112,1383).
att(795,841).
att(813,901).
att(2,655).
att(540,731).
att(651,541).
att(882,148).
att(892,292).
att(790,874).
att(651,557).
att(1170,1170).
att(615,569).
att(1164,970).
att(1172,1168).
att(615,576).
att(109,1312).
att(1168,1286).
att(1172,1172).
att(1236,1180).
att(871,733).
att(1212,1011).
att(5,617).
att(871,739).
att(527,728).
att(898,300).
att(979,176).
att(621,557).
att(631,572).
att(811,908).
att(975,219).
att(1212,1034).
att(1029,67).
att(1174,1174).
att(525,728).
att(540,716).
att(982,213).
att(873,739).
att(628,566).
att(1215,1017).
att(51,1519).
att(1176,1176).
att(858,867).
att(101,1477).
att(78,1346).
att(860,845).
att(972,14).
att(860,843).
att(1011,162).
att(848,732).
att(929,209).
att(80,1348).
att(873,917).
att(964,17).
att(848,762).
att(97,1520).
att(975,25).
att(864,845).
att(1182,1182).
att(979,41).
att(78,1312).
att(653,630).
att(103,1502).
att(30,488).
att(78,1249).
att(982,356).
att(619,650).
att(28,481).
att(80,1242).
att(859,788).
att(42,540).
att(615,648).
att(938,223).
att(976,352).
att(1180,1236).
att(871,841).
att(1002,174).
att(1191,1178).
att(944,210).
att(1137,1228).
att(1137,1291).
att(619,625).
att(628,657).
att(856,872).
att(76,1351).
att(93,1328).
att(575,522).
att(109,1494).
att(112,1478).
att(1199,1215).
att(109,1504).
att(1178,1228).
att(935,264).
att(1196,1196).
att(984,387).
att(938,262).
att(40,466).
att(1020,201).
att(112,1484).
att(617,714).
att(862,804).
att(85,1249).
att(979,306).
att(615,713).
att(871,863).
att(32,511).
att(631,717).
att(860,874).
att(1011,111).
att(1209,1165).
att(1020,90).
att(986,344).
att(619,700).
att(617,708).
att(1135,926).
att(615,704).
att(1202,1084).
att(1209,1199).
att(976,381).
att(1013,107).
att(968,3).
att(1132,935).
att(1191,1228).
att(1023,89).
att(1202,1074).
att(1212,1212).
att(1172,782).
att(972,6).
att(982,385).
att(1215,1199).
att(26,508).
att(1008,90).
att(1174,805).
att(6,1301).
att(1081,251).
att(6,1308).
att(5,1293).
att(165,1520).
att(892,845).
att(4,1148).
att(7,1299).
att(162,1516).
att(1236,989).
att(157,1480).
att(55,542).
att(139,1476).
att(112,326).
att(902,925).
att(887,875).
att(1230,1142).
att(1068,251).
att(1212,13).
att(1230,1146).
att(1226,1182).
att(1199,6).
att(1206,40).
att(1228,1137).
att(6,1145).
att(53,486).
att(895,857).
att(49,542).
att(139,1504).
att(1084,151).
att(1209,26).
att(1202,9).
att(251,1328).
att(1077,189).
att(22,1186).
att(1071,83).
att(1225,1226).
att(5,1190).
att(1225,1291).
att(7,1186).
att(882,823).
att(3,1060).
att(882,831).
att(160,1513).
att(9,1152).
att(902,874).
att(63,542).
att(162,1513).
att(879,810).
att(158,1474).
att(45,511).
att(114,1493).
att(1,1197).
att(5,1158).
att(158,1480).
att(898,798).
att(1036,157).
att(1225,1225).
att(1286,1176).
att(1276,782).
att(157,1444).
att(892,833).
att(1079,76).
att(1,1085).
att(65,692).
att(885,755).
att(913,1009).
att(114,1502).
att(906,973).
att(1289,1176).
att(1223,1291).
att(906,1024).
att(986,217).
att(1011,760).
att(1008,752).
att(1234,1170).
att(1170,1223).
att(294,1430).
att(976,262).
att(1234,1234).
att(103,400).
att(1172,1230).
att(1011,759).
att(36,1064).
att(300,1426).
att(1034,804).
att(2,1418).
att(1031,788).
att(43,1186).
att(26,1066).
att(99,438).
att(1170,1274).
att(58,684).
att(1168,932).
att(292,1467).
att(9,1393).
att(287,1391).
att(1169,932).
att(1199,49).
att(1206,101).
att(1238,1276).
att(879,973).
att(1172,1286).
att(297,1466).
att(49,688).
att(887,890).
att(1209,101).
att(1209,99).
att(34,1069).
att(1174,951).
att(99,313).
att(292,1384).
att(1008,739).
att(885,910).
att(287,1421).
att(1196,65).
att(1222,825).
att(113,400).
att(1212,62).
att(1,1352).
att(1228,769).
att(1223,792).
att(1289,781).
att(898,883).
att(904,1021).
att(1071,281).
att(154,1521).
att(58,651).
att(51,539).
att(1232,827).
att(895,915).
att(1236,935).
att(1206,67).
att(1226,802).
att(112,434).
att(887,841).
att(139,1515).
att(1223,825).
att(1240,926).
att(1209,67).
att(1176,974).
att(56,579).
att(51,631).
att(1278,1138).
att(1123,158).
att(1125,154).
att(205,1475).
att(1272,1240).
att(207,1493).
att(73,570).
att(64,464).
att(162,1360).
att(682,572).
att(197,1480).
att(1129,148).
att(907,828).
att(1088,189).
att(1272,1222).
att(1274,1222).
att(1120,80).
att(913,834).
att(1274,1238).
att(69,506).
att(682,547).
att(66,482).
att(924,875).
att(842,1027).
att(72,516).
att(72,496).
att(205,1430).
att(201,1466).
att(201,1473).
att(682,657).
att(1036,8).
att(1277,1277).
att(67,434).
att(685,683).
att(914,756).
att(65,313).
att(1278,1278).
att(909,750).
att(1278,949).
att(914,755).
att(1118,60).
att(690,660).
att(692,654).
att(690,658).
att(684,622).
att(12,575).
att(918,760).
att(1282,1282).
att(690,657).
att(688,727).
att(1276,789).
att(1079,105).
att(56,399).
att(1277,763).
att(72,703).
att(69,573).
att(703,701).
att(913,883).
att(1272,782).
att(63,511).
att(158,1423).
att(1077,53).
att(45,444).
att(1036,76).
att(879,735).
att(1282,808).
att(160,1369).
att(889,776).
att(688,712).
att(1284,796).
att(1068,73).
att(1068,72).
att(898,762).
att(55,336).
att(73,577).
att(703,683).
att(911,919).
att(72,579).
att(906,923).
att(1036,105).
att(165,1385).
att(1084,63).
att(1230,944).
att(1077,69).
att(951,771).
att(165,1391).
att(906,915).
att(1232,989).
att(1068,16).
att(1068,20).
att(904,739).
att(1272,817).
att(160,1413).
att(1079,64).
att(1228,989).
att(1280,805).
att(1077,16).
att(49,333).
att(1036,62).
att(199,1475).
att(1118,160).
att(1286,986).
att(151,1348).
att(1289,992).
att(949,824).
att(56,333).
att(139,1346).
att(968,1028).
att(1088,752).
att(191,320).
att(18,1358).
att(20,1319).
att(91,705).
att(1118,780).
att(962,880).
att(14,1255).
att(956,910).
att(21,1317).
att(201,438).
att(12,1352).
att(970,1032).
att(1088,833).
att(972,1027).
att(13,1352).
att(85,685).
att(954,901).
att(201,446).
att(16,1253).
att(202,457).
att(202,454).
att(202,451).
att(1118,737).
att(19,1347).
att(197,323).
att(964,912).
att(1125,778).
att(21,1336).
att(202,375).
att(1127,750).
att(189,333).
att(207,438).
att(954,867).
att(87,535).
att(89,523).
att(17,1301).
att(87,539).
att(12,1270).
att(18,1308).
att(15,1255).
att(16,1220).
att(12,1301).
att(15,1257).
att(90,523).
att(85,562).
att(13,1203).
att(78,484).
att(830,1339).
att(14,1203).
att(17,1160).
att(21,1306).
att(66,1145).
att(792,1341).
att(189,548).
att(1127,843).
att(1112,831).
att(16,1392).
att(191,516).
att(1127,874).
att(1120,804).
att(1125,863).
att(66,1154).
att(70,1304).
att(189,482).
att(71,1207).
att(202,484).
att(1129,831).
att(72,1190).
att(73,1210).
att(799,1376).
att(64,1064).
att(19,1453).
att(1088,875).
att(189,518).
att(1122,829).
att(73,1203).
att(202,511).
att(70,1064).
att(16,1325).
att(197,399).
att(207,512).
att(966,1035).
att(15,1418).
att(38,1257).
att(109,615).
att(40,1260).
att(40,1218).
att(1202,251).
att(89,326).
att(91,435).
att(43,1336).
att(36,1333).
att(1034,880).
att(287,1482).
att(1011,875).
att(32,1150).
att(103,551).
att(109,527).
att(109,525).
att(97,523).
att(91,326).
att(1212,284).
att(91,320).
att(1026,843).
att(1034,925).
att(36,1150).
att(36,1160).
att(284,1497).
att(1,1457).
att(32,1210).
att(38,1150).
att(38,1160).
att(281,1478).
att(103,478).
att(1008,874).
att(34,1306).
att(1017,804).
att(284,1442).
att(1199,91).
att(40,1210).
att(1020,788).
att(1202,85).
att(1,1375).
att(112,562).
att(42,1160).
att(9,1453).
att(5,1445).
att(42,1145).
att(5,1472).
att(967,874).
att(78,511).
att(972,788).
att(824,1402).
att(830,1373).
att(43,1445).
att(85,481).
att(26,1392).
att(964,804).
att(43,1472).
att(21,1158).
att(40,1392).
att(83,567).
att(15,1160).
att(34,1470).
att(960,831).
att(80,399).
att(90,481).
att(40,1396).
att(43,1386).
att(827,1374).
att(76,518).
att(76,512).
att(970,804).
att(19,1082).
att(1011,890).
att(1020,1028).
att(78,451).
att(956,780).
att(970,826).
att(89,393).
att(20,1062).
att(827,1405).
att(1008,1027).
att(93,511).
att(28,1315).
att(99,692).
att(97,705).
att(85,454).
att(960,783).
att(90,399).
att(968,760).
att(38,1349).
att(85,435).
att(38,1347).
att(93,404).
att(93,375).
att(83,406).
att(107,678).
att(972,757).
att(26,1347).
att(777,1098).
att(6,439).
att(51,1412).
att(51,1420).
att(51,1418).
att(1132,1376).
att(1132,1382).
att(9,396).
att(8,445).
att(1164,861).
att(8,439).
att(250,551).
att(1199,823).
att(56,1470).
att(292,542).
att(1,447).
att(49,1388).
att(60,1393).
att(105,1064).
att(294,494).
att(58,1396).
att(7,314).
att(157,680).
att(779,627).
att(1182,1376).
att(782,600).
att(1182,1373).
att(771,644).
att(109,1062).
att(1209,819).
att(4,354).
att(1209,829).
att(281,496).
att(5,455).
att(290,391).
att(154,573).
att(1068,883).
att(1135,1394).
att(1135,1397).
att(1135,1410).
att(160,705).
att(781,627).
att(1164,831).
att(139,575).
att(1212,760).
att(1202,774).
att(9,331).
att(157,579).
att(6,331).
att(51,1313).
att(300,391).
att(1,353).
att(49,1327).
att(251,496).
att(3,282).
att(1167,780).
att(6,235).
att(777,670).
att(1081,880).
att(60,1344).
att(782,665).
att(1081,899).
att(3,273).
att(1167,750).
att(1081,901).
att(165,612).
att(1202,733).
att(1209,770).
att(1164,757).
att(794,946).
att(5,363).
att(1165,752).
att(794,1014).
att(22,277).
att(1036,1009).
att(1164,754).
att(114,684).
att(7,563).
att(1199,925).
att(1206,893).
att(1146,1405).
att(250,682).
att(43,354).
att(97,1358).
att(251,703).
att(773,1004).
att(28,145).
att(38,275).
att(1199,843).
att(101,1297).
att(1209,925).
att(5,558).
att(43,246).
att(42,231).
att(781,931).
att(1212,915).
att(112,1358).
att(3,462).
att(105,1333).
att(1,479).
att(103,1160).
att(109,1295).
att(1199,874).
att(45,1472).
att(1,495).
att(297,535).
att(779,1055).
att(45,1445).
att(250,619).
att(281,540).
att(97,1306).
att(111,1301).
att(281,521).
att(767,1102).
att(99,1207).
att(55,1388).
att(53,1392).
att(1132,1339).
att(43,152).
att(250,535).
att(1,376).
att(1202,812).
att(781,1047).
att(43,129).
att(97,1150).
att(6,492).
att(97,1160).
att(251,536).
att(72,1396).
att(1234,1340).
att(799,647).
att(191,685).
att(165,514).
att(1084,826).
att(191,703).
att(799,605).
att(792,661).
att(202,705).
att(139,313).
att(191,651).
att(1118,880).
att(1084,757).
att(1240,1365).
att(162,391).
att(1081,755).
att(70,1420).
att(191,579).
att(1077,778).
att(68,1218).
att(820,940).
att(158,454).
att(69,1220).
att(1068,762).
att(72,1352).
att(160,457).
att(1118,921).
att(808,661).
att(1240,1394).
att(808,667).
att(189,655).
att(1122,908).
att(71,1218).
att(785,1042).
att(1118,841).
att(808,463).
att(830,1014).
att(114,441).
att(789,472).
att(1084,733).
att(820,978).
att(779,470).
att(771,476).
att(9,235).
att(63,1333).
att(297,339).
att(1081,910).
att(58,1270).
att(802,991).
att(1079,845).
att(1068,857).
att(805,1055).
att(1074,874).
att(773,502).
att(767,504).
att(73,1457).
att(794,1100).
att(62,1156).
att(808,1049).
att(1087,874).
att(1037,791).
att(72,1377).
att(71,1386).
att(53,1062).
att(157,494).
att(1036,870).
att(114,561).
att(120,1223).
att(67,146).
att(120,1228).
att(18,517).
att(21,460).
att(123,1174).
att(18,492).
att(69,142).
att(119,1230).
att(127,1176).
att(171,773).
att(186,1234).
att(20,490).
att(197,1160).
att(71,129).
att(71,142).
att(197,1150).
att(12,403).
att(19,460).
att(195,1306).
att(73,142).
att(73,137).
att(178,782).
att(195,1186).
att(180,767).
att(93,1472).
att(76,1364).
att(93,1445).
att(21,376).
att(119,932).
att(119,927).
att(87,1412).
att(89,1396).
att(199,1085).
att(197,1062).
att(203,1197).
att(21,445).
att(93,1390).
att(12,303).
att(89,1418).
att(169,789).
att(186,1277).
att(125,1002).
att(127,929).
att(171,784).
att(201,1062).
att(201,1060).
att(12,321).
att(424,935).
att(125,802).
att(120,825).
att(71,442).
att(73,455).
att(201,1418).
att(117,808).
att(195,1390).
att(114,1148).
att(191,1396).
att(157,1062).
att(125,792).
att(189,1418).
att(67,357).
att(191,1361).
att(71,327).
att(201,1315).
att(165,1062).
att(165,1072).
att(70,410).
att(18,552).
att(115,1182).
att(73,359).
att(117,815).
att(203,1349).
att(123,1141).
att(184,815).
att(205,1358).
att(73,233).
att(42,509).
att(42,515).
att(97,1451).
att(169,1228).
att(91,1308).
att(36,513).
att(171,1272).
att(21,129).
att(76,1150).
att(93,1293).
att(180,1222).
att(38,449).
att(225,767).
att(90,1154).
att(87,1213).
att(169,1282).
att(93,1158).
att(211,781).
att(91,1152).
att(43,376).
att(83,1162).
att(228,1286).
att(36,374).
att(217,824).
att(1196,1021).
att(99,1325).
att(85,1064).
att(87,1085).
att(111,1393).
att(287,682).
att(221,773).
att(211,799).
att(89,1082).
att(171,976).
att(97,1418).
att(101,1352).
att(294,680).
att(211,815).
att(1202,900).
att(211,1143).
att(1209,1032).
att(294,705).
att(97,1315).
att(210,815).
att(1202,899).
att(281,684).
att(26,357).
att(32,549).
att(19,340).
att(180,825).
att(85,1315).
att(83,1317).
att(172,1141).
att(90,1420).
att(205,1075).
att(20,314).
att(169,825).
att(125,995).
att(207,1062).
att(228,789).
att(21,330).
att(171,1180).
att(85,1355).
att(172,1191).
att(176,818).
att(26,549).
att(228,784).
att(186,982).
att(28,565).
att(12,235).
att(80,1304).
att(171,1236).
att(15,277).
att(43,558).
att(42,565).
att(38,487).
att(228,817).
att(21,246).
att(26,467).
att(101,1447).
att(83,1299).
att(172,1291).
att(42,479).
att(169,1223).
att(28,490).
att(26,497).
att(171,1225).
att(166,1291).
att(36,465).
att(21,277).
att(34,489).
att(284,1344).
att(287,1331).
att(6,1296).
att(45,556).
att(287,1358).
att(36,884).
att(221,1278).
att(45,571).
att(22,1153).
att(221,1291).
att(221,1286).
att(42,1022).
att(1394,654).
att(253,792).
att(281,1323).
att(97,371).
att(43,1007).
att(5,1258).
att(1402,660).
att(53,460).
att(292,1358).
att(109,248).
att(7,1153).
att(42,886).
att(1404,706).
att(51,552).
att(97,239).
att(258,808).
att(2,1159).
att(105,365).
att(300,1344).
att(219,975).
att(294,1257).
att(1410,716).
att(97,140).
att(1380,534).
att(101,137).
att(255,1135).
att(221,986).
att(1397,706).
att(9,1151).
att(8,1204).
att(1,1166).
att(290,1302).
att(5,1155).
att(1408,723).
att(58,558).
att(258,832).
att(51,465).
att(281,1218).
att(1380,550).
att(262,1137).
att(5,1063).
att(297,1302).
att(1410,731).
att(107,140).
att(255,1240).
att(1405,720).
att(284,1150).
att(258,816).
att(113,285).
att(139,1470).
att(63,489).
att(1407,726).
att(99,396).
att(99,405).
att(290,1449).
att(287,1470).
att(1397,723).
att(1397,728).
att(221,830).
att(210,1138).
att(228,986).
att(105,489).
att(1394,731).
att(34,1195).
att(223,1143).
att(1365,554).
att(1380,616).
att(30,969).
att(101,410).
att(1379,625).
att(22,1334).
att(1378,582).
att(209,1222).
att(297,1449).
att(4,1353).
att(1378,586).
att(22,1356).
att(3,1219).
att(105,439).
att(8,1359).
att(211,1223).
att(1378,625).
att(42,1126).
att(112,374).
att(1378,620).
att(255,767).
att(287,1401).
att(250,1470).
att(3,1332).
att(1365,611).
att(1365,613).
att(26,965).
att(1373,652).
att(26,877).
att(109,324).
att(8,1261).
att(1376,648).
att(250,1377).
att(4,1305).
att(101,357).
att(107,330).
att(294,1422).
att(284,1319).
att(300,1420).
att(5,1332).
att(252,769).
att(290,1315).
att(292,1377).
att(56,241).
att(67,479).
att(49,273).
att(58,233).
att(64,489).
att(1368,675).
att(165,1331).
att(253,995).
att(154,1253).
att(49,241).
att(1374,710).
att(139,1247).
att(56,277).
att(269,989).
att(49,140).
att(158,1260).
att(1379,719).
att(58,273).
att(55,140).
att(67,467).
att(1365,706).
att(1340,555).
att(56,152).
att(1340,559).
att(160,1295).
att(64,401).
att(157,1160).
att(162,1295).
att(201,1451).
att(70,485).
att(68,410).
att(114,1145).
att(139,1064).
att(158,1160).
att(205,1449).
att(68,439).
att(64,410).
att(201,1388).
att(73,376).
att(1365,728).
att(165,1150).
att(63,163).
att(64,439).
att(1365,730).
att(255,1223).
att(60,396).
att(62,398).
att(300,1160).
att(4,955).
att(6,1078).
att(253,1238).
att(290,1186).
att(112,142).
att(264,1176).
att(256,1223).
att(22,1019).
att(4,1007).
att(4,1025).
att(287,1072).
att(5,1121).
att(773,1339).
att(2,969).
att(139,1420).
att(290,1075).
att(5,1007).
att(781,1376).
att(114,1370).
att(297,1075).
att(258,1228).
att(157,1327).
att(1340,701).
att(297,1085).
att(1,1010).
att(45,354).
att(63,445).
att(260,1278).
att(269,1223).
att(6,888).
att(58,363).
att(45,246).
att(253,933).
att(162,1319).
att(202,398).
att(1143,144).
att(72,1113).
att(1146,429).
att(1147,386).
att(1147,431).
att(817,182).
att(818,118).
att(64,961).
att(820,1489).
att(1278,638).
att(1140,185).
att(1140,183).
att(20,1345).
att(1141,185).
att(18,1216).
att(817,179).
att(16,1338).
att(1277,695).
att(13,1155).
att(199,353).
att(926,937).
att(64,884).
att(827,1509).
att(827,1506).
att(951,646).
att(933,978).
att(935,931).
att(1140,272).
att(1280,686).
att(71,878).
att(14,1201).
att(201,239).
att(73,888).
att(12,1130).
att(21,1305).
att(817,257).
att(1282,694).
att(817,259).
att(1276,475).
att(19,1216).
att(941,937).
att(1147,177).
att(1147,230).
att(820,224).
att(58,886).
att(64,1159).
att(1232,693).
att(1282,940).
att(203,563).
att(1228,463).
att(114,234).
att(148,285).
att(1278,988).
att(201,465).
att(785,1434).
att(154,298).
att(1289,468).
att(195,558).
att(207,552).
att(1280,1001).
att(201,487).
att(1232,463).
att(205,571).
att(1232,475).
att(1276,1042).
att(114,367).
att(165,237).
att(1282,1054).
att(67,1061).
att(199,517).
att(1289,499).
att(949,997).
att(201,513).
att(114,237).
att(818,384).
att(114,145).
att(1277,605).
att(67,1115).
att(1278,1106).
att(205,513).
att(205,497).
att(785,1487).
att(824,1483).
att(1274,596).
att(189,374).
att(816,436).
att(73,1078).
att(114,279).
att(165,152).
att(786,1490).
att(78,363).
att(1178,126).
att(83,321).
att(767,1179).
att(19,961).
att(26,1267).
att(26,1264).
att(1147,1481).
att(941,634).
att(1137,229).
att(1140,1499).
att(12,1019).
att(1133,212).
att(15,878).
att(103,568).
att(976,937).
att(1135,214).
att(976,1006).
att(18,884).
att(43,1251).
att(43,1267).
att(21,1007).
att(93,321).
att(109,543).
att(36,1149).
att(101,462).
att(40,1161).
att(984,1054).
att(984,1055).
att(1135,257).
att(782,1171).
att(926,498).
att(941,463).
att(93,367).
att(87,234).
att(933,475).
att(944,698).
att(101,497).
att(929,493).
att(976,1109).
att(38,1214).
att(97,465).
att(99,460).
att(995,978).
att(1272,500).
att(19,1157).
att(1141,270).
att(87,485).
att(19,1155).
att(929,1042).
att(929,997).
att(12,1205).
att(205,239).
att(1147,218).
att(18,1201).
att(941,981).
att(951,696).
att(926,1109).
att(1147,271).
att(201,277).
att(93,571).
att(80,401).
att(202,282).
att(85,495).
att(203,285).
att(205,275).
att(817,1452).
att(929,1047).
att(1142,1432).
att(21,1208).
att(929,1110).
att(93,460).
att(1147,265).
att(78,495).
att(1147,1439).
att(78,492).
att(78,490).
att(14,961).
att(16,1111).
att(14,969).
att(1146,1454).
att(1146,1460).
att(1135,431).
att(938,1107).
att(17,1114).
att(15,1076).
att(12,1114).
att(1143,1464).
att(1184,386).
att(93,519).
att(16,959).
att(927,636).
att(926,664).
att(85,445).
att(929,634).
att(1147,1452).
att(926,646).
att(12,958).
att(1143,1487).
att(28,100).
att(976,686).
att(3,335).
att(292,487).
att(97,1061).
att(782,1095).
att(989,667).
att(297,467).
att(7,456).
att(979,670).
att(992,661).
att(290,517).
att(112,1149).
att(40,82).
att(111,1205).
att(103,1086).
att(794,1244).
att(1240,177).
att(1234,168).
att(3,360).
att(6,338).
att(802,1171).
att(292,513).
att(979,470).
att(42,92).
att(250,471).
att(101,1115).
att(112,1198).
att(781,591).
att(250,483).
att(1,301).
att(775,581).
att(794,1292).
att(805,1245).
att(292,465).
att(1240,214).
att(43,81).
att(808,1245).
att(3,238).
att(976,500).
att(1234,268).
att(6,358).
att(782,623).
att(802,1229).
att(782,639).
att(976,503).
att(8,368).
att(42,95).
att(112,1076).
att(45,1353).
att(781,639).
att(281,407).
att(1240,257).
att(281,405).
att(1240,270).
att(986,472).
att(4,283).
att(1172,1460).
att(765,996).
att(45,1267).
att(251,373).
att(9,358).
att(765,999).
att(42,48).
att(109,953).
att(97,971).
att(281,410).
att(45,1251).
att(935,499).
att(83,955).
att(775,952).
att(36,247).
att(107,1334).
att(103,1264).
att(1135,1459).
att(32,299).
att(1170,427).
att(1191,1431).
att(80,1033).
att(976,607).
att(1132,1486).
att(989,1049).
att(87,957).
att(989,1055).
att(20,61).
att(42,364).
att(19,46).
att(26,238).
att(36,274).
att(83,1012).
att(777,934).
att(986,1098).
att(1178,1463).
att(107,1258).
att(1170,416).
att(76,884).
att(777,939).
att(1234,427).
att(1132,1503).
att(1132,1509).
att(40,286).
att(43,245).
att(107,1330).
att(1238,427).
att(93,953).
att(1178,1490).
att(1135,1503).
att(763,1134).
att(85,876).
att(1135,1509).
att(751,1093).
att(779,1044).
att(112,1216).
att(1169,168).
att(1191,1490).
att(1238,416).
att(40,156).
att(290,571).
att(87,881).
att(1238,134).
att(995,596).
att(28,159).
att(1174,185).
att(89,878).
att(113,1248).
att(1180,1503).
att(4,409).
att(976,664).
att(1234,128).
att(38,188).
att(32,82).
att(287,485).
att(281,558).
att(975,667).
att(1191,1491).
att(979,646).
att(975,666).
att(22,456).
att(1240,116).
att(26,200).
att(796,1136).
att(105,1268).
att(97,1157).
att(292,152).
att(51,1124).
att(784,948).
att(822,1290).
att(162,490).
att(292,142).
att(294,163).
att(1289,261).
att(4,48).
att(139,407).
att(22,50).
att(158,398).
att(58,1126).
att(151,412).
att(1277,382).
att(7,50).
att(1226,1436).
att(7,61).
att(160,396).
att(51,957).
att(1223,1459).
att(62,1119).
att(114,495).
att(785,947).
att(785,948).
att(824,1283).
att(799,635).
att(802,623).
att(72,1332).
att(784,985).
att(67,1248).
att(1284,437).
att(73,1338).
att(58,963).
att(830,930).
att(1272,136).
att(1274,416).
att(55,1012).
att(165,455).
att(55,1016).
att(114,394).
att(832,952).
att(66,1356).
att(1226,1486).
att(1284,131).
att(820,1058).
att(154,359).
att(160,324).
att(785,1050).
att(1274,134).
att(69,1298).
att(49,1016).
att(1232,1489).
att(1225,1509).
att(1225,124).
att(97,878).
att(1222,118).
att(794,993).
att(1223,134).
att(794,987).
att(796,985).
att(2,296).
att(300,314).
att(56,1334).
att(103,877).
att(5,245).
att(802,983).
att(3,194).
att(105,884).
att(154,543).
att(58,1268).
att(292,365).
att(805,1038).
att(154,549).
att(8,141).
att(139,546).
att(45,1131).
att(51,1303).
att(56,1258).
att(796,1108).
att(1234,1486).
att(281,278).
att(51,1204).
att(292,239).
att(160,543).
att(1226,170).
att(1226,177).
att(287,279).
att(765,602).
att(794,584).
att(45,1211).
att(165,563).
att(785,1179).
att(112,894).
att(824,1134).
att(148,563).
att(1291,128).
att(2,94).
att(822,1171).
att(3,100).
att(60,1205).
att(297,275).
att(1228,229).
att(1289,170).
att(139,490).
att(8,82).
att(165,471).
att(45,1063).
att(799,1103).
att(9,188).
att(1232,224).
att(62,1204).
att(799,1099).
att(822,666).
att(72,296).
att(1289,1407).
att(1289,1382).
att(1230,1409).
att(69,147).
att(114,963).
att(165,1010).
att(195,1264).
att(786,696).
att(822,696).
att(195,1153).
att(71,141).
att(71,153).
att(201,1149).
att(827,663).
att(64,200).
att(784,470).
att(14,338).
att(17,408).
att(16,453).
att(816,1045).
att(832,463).
att(18,408).
att(73,206).
att(18,440).
att(1147,943).
att(14,408).
att(64,88).
att(12,443).
att(822,463).
att(202,1211).
att(191,1126).
att(199,1083).
att(68,106).
att(71,88).
att(1146,1042).
att(820,493).
att(827,475).
att(207,1204).
att(784,1092).
att(49,100).
att(53,96).
att(53,110).
att(822,1049).
att(55,100).
att(64,338).
att(73,453).
att(45,110).
att(157,1061).
att(58,104).
att(148,1113).
att(139,958).
att(160,1061).
att(1222,1341).
att(822,1100).
att(71,328).
att(832,1045).
att(154,1111).
att(114,1201).
att(799,499).
att(65,366).
att(157,1114).
att(114,1205).
att(114,1114).
att(785,647).
att(189,1334).
att(139,965).
att(1225,1368).
att(114,1086).
att(786,646).
att(158,965).
att(191,1309).
att(65,153).
att(160,965).
att(199,1248).
att(207,1359).
att(64,296).
att(1232,1374).
att(195,1356).
att(786,665).
att(1225,1409).
att(1133,997).
att(17,188).
att(87,1149).
att(32,459).
att(80,1195).
att(1135,1006).
att(205,897).
att(1142,698).
att(1182,946).
att(817,473).
att(87,1155).
att(1182,1004).
att(207,881).
att(30,332).
att(85,1166).
att(817,498).
att(91,1151).
att(78,1166).
att(1137,1049).
att(83,1131).
att(83,1130).
att(12,84).
att(1141,501).
att(30,370).
att(42,443).
att(87,1086).
att(19,75).
att(1191,1045).
att(1137,1098).
att(1140,500).
att(771,429).
att(78,965).
att(1133,605).
att(1180,1092).
att(42,322).
att(21,108).
att(20,102).
att(40,360).
att(28,370).
att(1140,1104).
att(199,1126).
att(203,1086).
att(205,1067).
att(1147,1107).
att(14,296).
att(202,1128).
att(1140,601).
att(1272,1382).
att(78,1261).
att(72,57).
att(72,52).
att(21,368).
att(1282,1339).
att(1276,1374).
att(13,243).
att(1143,600).
att(13,208).
att(19,249).
att(87,1216).
att(1272,1403).
att(195,1025).
att(189,878).
att(1141,646).
att(191,886).
att(201,1016).
att(1282,1382).
att(21,245).
att(1277,1402).
att(83,1362).
att(1272,1394).
att(1141,665).
att(17,141).
att(949,1402).
att(1146,661).
att(17,150).
att(87,1271).
att(199,877).
att(21,280).
att(76,1268).
att(21,299).
att(1282,1410).
att(817,698).
att(201,876).
att(1143,671).
att(284,1345).
att(1180,470).
att(83,50).
att(1135,500).
att(28,918).
att(103,208).
att(38,902).
att(1236,1055).
att(779,1439).
att(1169,1107).
att(109,362).
att(781,266).
att(105,332).
att(777,254).
att(1180,504).
att(1191,498).
att(32,837).
att(40,918).
att(794,382).
att(93,50).
att(97,238).
att(775,1434).
att(300,1345).
att(43,898).
att(984,1339).
att(1170,596).
att(3,1087).
att(777,1459).
att(974,1381).
att(779,1486).
att(1169,636).
att(250,1345).
att(251,1332).
att(112,240).
att(32,864).
att(38,837).
att(771,1491).
att(794,419).
att(1174,592).
att(112,249).
att(112,247).
att(1240,1092).
att(26,852).
att(40,844).
att(1240,607).
att(7,1081).
att(36,860).
att(799,144).
att(779,1503).
att(112,291).
att(779,1509).
att(779,1507).
att(781,1503).
att(4,1088).
att(40,864).
att(109,141).
att(250,1258).
att(250,1221).
att(794,182).
att(775,1487).
att(777,1483).
att(775,1490).
att(767,1509).
att(30,1116).
att(777,423).
att(90,289).
att(782,134).
att(779,134).
att(1184,594).
att(26,1074).
att(767,179).
att(1178,644).
att(28,966).
att(90,150).
att(80,82).
att(85,198).
att(101,459).
att(779,179).
att(1191,644).
att(43,1071).
att(1191,600).
att(17,793).
att(26,1123).
att(18,811).
att(87,200).
att(21,858).
att(76,206).
att(935,1376).
att(938,1405).
att(76,96).
att(85,74).
att(42,1088).
att(36,956).
att(83,74).
att(34,1127).
att(1174,1000).
att(1240,1014).
att(777,222).
att(1170,991).
att(1191,689).
att(779,257).
att(779,259).
att(1169,997).
att(26,1029).
att(1184,693).
att(1184,689).
att(1174,994).
att(34,967).
att(799,1436).
att(51,289).
att(1226,1098).
att(2,838).
att(292,971).
att(148,1248).
att(805,1458).
att(822,382).
att(160,1345).
att(7,924).
att(822,429).
att(1240,500).
att(162,1345).
att(5,895).
att(63,362).
att(789,1454).
att(1286,1045).
att(281,884).
att(1232,601).
att(1226,598).
att(1226,594).
att(4,871).
att(53,141).
att(4,869).
att(2,859).
att(6,842).
att(51,143).
att(51,291).
att(148,1264).
att(786,126).
att(799,1465).
att(825,134).
att(832,436).
att(1232,603).
att(1286,1098).
att(1,846).
att(290,897).
att(251,877).
att(1222,661).
att(53,188).
att(154,1161).
att(53,194).
att(796,1508).
att(22,795).
att(148,1309).
att(825,118).
att(1232,640).
att(22,806).
att(1232,634).
att(114,1258).
att(68,450).
att(820,175).
att(802,1510).
att(151,1201).
att(45,92).
att(114,1269).
att(55,77).
att(7,795).
att(45,81).
att(786,216).
att(799,1509).
att(1225,686).
att(165,1149).
att(1232,671).
att(1234,636).
att(1236,627).
att(51,440).
att(97,77).
att(2,962).
att(36,787).
att(794,216).
att(38,795).
att(992,1381).
att(1174,665).
att(22,967).
att(97,200).
att(982,1410).
att(982,1408).
att(40,793).
att(799,118).
att(107,82).
att(292,1201).
att(1226,931).
att(1168,475).
att(55,304).
att(1172,698).
att(7,960).
att(107,84).
att(765,271).
att(112,193).
att(3,902).
att(97,44).
att(1232,1059).
att(1172,475).
att(101,48).
att(53,360).
att(7,1034).
att(105,94).
att(49,304).
att(112,75).
att(109,102).
att(250,1214).
att(9,972).
att(287,1113).
att(250,1205).
att(4,879).
att(1289,1004).
att(51,332).
att(1289,1014).
att(1234,689).
att(250,1187).
att(802,263).
att(251,1113).
att(1225,606).
att(4,918).
att(7,879).
att(292,1114).
att(139,1337).
att(250,1070).
att(4,906).
att(45,245).
att(139,1332).
att(22,914).
att(1228,1055).
att(22,924).
att(8,889).
att(7,885).
att(281,1126).
att(1289,1055).
att(251,1086).
att(796,1436).
att(786,384).
att(1225,1098).
att(139,95).
att(1207,526).
att(1075,707).
att(382,1403).
att(1065,675).
att(498,926).
att(58,803).
att(58,813).
att(197,443).
att(493,929).
att(67,1123).
att(1082,710).
att(191,409).
att(114,74).
att(158,82).
att(1082,709).
att(68,1008).
att(154,94).
att(499,935).
att(195,456).
att(114,94).
att(203,301).
att(1065,713).
att(165,47).
att(72,1031).
att(502,986).
att(1197,550).
att(437,1409).
att(1082,727).
att(202,360).
att(162,61).
att(1069,716).
att(1066,719).
att(202,304).
att(64,909).
att(73,887).
att(165,59).
att(207,360).
att(73,898).
att(160,366).
att(734,1246).
att(500,1135).
att(251,52).
att(1,1).
att(65,1199).
att(58,882).
att(292,44).
att(1207,654).
att(114,302).
att(297,50).
att(4,5).
att(3,3).
att(56,1034).
att(493,1182).
att(1213,620).
att(114,332).
att(4,4).
att(151,299).
att(1197,588).
att(1065,730).
att(45,858).
att(49,840).
att(501,1174).
att(1190,555).
att(160,232).
att(58,913).
att(501,1236).
att(1207,613).
att(5,22).
att(6,6).
att(114,342).
att(491,1174).
att(1213,582).
att(499,1132).
att(503,816).
att(53,836).
att(65,1196).
att(499,1182).
att(56,902).
att(251,57).
att(158,289).
att(71,1212).
att(45,790).
att(71,1165).
att(154,150).
att(154,147).
att(68,1074).
att(1189,656).
att(56,836).
att(58,848).
att(55,862).
att(165,293).
att(1197,674).
att(9,6).
att(45,869).
att(9,9).
att(157,156).
att(1200,657).
att(51,811).
att(114,143).
att(1200,658).
att(69,1125).
att(1189,618).
att(1200,648).
att(58,869).
att(53,793).
att(493,1276).
att(1194,659).
att(73,1079).
att(62,860).
att(73,1077).
att(165,164).
att(78,358).
att(132,1409).
att(85,301).
att(87,332).
att(85,328).
att(136,1394).
att(93,411).
att(136,1403).
att(12,1013).
att(15,964).
att(78,301).
att(83,411).
att(19,1026).
att(87,343).
att(93,335).
att(12,882).
att(207,110).
att(19,889).
att(78,289).
att(87,249).
att(1069,524).
att(87,240).
att(1085,530).
att(205,46).
att(21,879).
att(12,914).
att(83,283).
att(17,840).
att(18,838).
att(93,243).
att(89,299).
att(18,846).
att(67,852).
att(203,208).
att(1082,614).
att(66,838).
att(68,838).
att(18,1165).
att(1085,582).
att(1065,528).
att(73,913).
att(201,274).
att(14,1116).
att(16,1077).
att(195,141).
att(19,1209).
att(1072,547).
att(197,141).
att(73,848).
att(21,1212).
att(1075,520).
att(189,150).
att(207,286).
att(1082,559).
att(12,1071).
att(1072,657).
att(419,1382).
att(70,873).
att(16,1125).
att(72,869).
att(71,860).
att(1069,658).
att(19,1074).
att(1069,659).
att(69,803).
att(73,871).
att(1060,614).
att(134,1341).
att(425,1368).
att(1062,611).
att(13,1129).
att(207,141).
att(73,864).
att(19,1116).
att(78,328).
att(1072,611).
att(191,104).
att(15,956).
att(421,1404).
att(18,970).
att(87,440).
att(144,1381).
att(1062,572).
att(1066,625).
att(19,1122).
att(1062,580).
att(136,1365).
att(21,1118).
att(1066,613).
att(425,1405).
att(136,1382).
att(16,1123).
att(1065,553).
att(1072,588).
att(201,77).
att(419,1403).
att(1299,538).
att(1297,553).
att(1154,727).
att(19,8).
att(19,6).
att(109,1212).
att(19,9).
att(1293,529).
att(1301,526).
att(89,840).
att(1162,730).
att(21,5).
att(89,838).
att(768,1384).
att(38,97).
att(750,1369).
att(101,1129).
att(43,93).
att(32,53).
att(28,105).
att(76,873).
att(26,101).
att(768,1473).
att(770,1456).
att(776,1423).
att(91,842).
att(168,1340).
att(1297,613).
att(40,53).
att(32,68).
att(87,811).
att(1293,569).
att(101,1029).
att(735,1516).
att(28,15).
att(734,1523).
att(281,325).
att(750,1312).
att(772,1326).
att(43,56).
att(22,300).
att(32,17).
att(780,1421).
att(1293,554).
att(26,68).
att(173,1368).
att(768,1421).
att(26,67).
att(43,45).
att(774,1384).
att(774,1389).
att(113,1129).
att(772,1516).
att(772,1514).
att(754,1314).
att(770,1517).
att(761,1366).
att(19,51).
att(755,1328).
att(19,62).
att(32,294).
att(758,1411).
att(18,70).
att(14,14).
att(19,70).
att(772,1476).
att(780,1520).
att(15,14).
att(116,1404).
att(770,1477).
att(755,1346).
att(766,1519).
att(750,1474).
att(93,968).
att(1270,677).
att(18,15).
att(768,1520).
att(761,1421).
att(1293,630).
att(91,972).
att(14,30).
att(83,972).
att(18,14).
att(89,1026).
att(772,1494).
att(772,1502).
att(1263,538).
att(34,139).
att(185,1402).
att(1247,531).
att(16,40).
att(17,30).
att(768,1480).
att(1247,524).
att(1302,726).
att(36,292).
att(770,1474).
att(21,21).
att(774,1523).
att(101,1209).
att(101,1206).
att(87,916).
att(19,36).
att(1302,720).
att(101,1199).
att(38,195).
att(772,1426).
att(43,160).
att(32,89).
att(76,920).
att(778,1478).
att(93,898).
att(768,1498).
att(21,43).
att(6,111).
att(51,1122).
att(97,793).
att(738,1448).
att(51,1116).
att(281,200).
att(1160,538).
att(1213,723).
att(380,1102).
att(4,56).
att(436,1045).
att(105,859).
att(382,1102).
att(297,141).
att(1162,531).
att(9,91).
att(109,860).
att(436,1055).
att(1213,718).
att(1186,701).
att(5,93).
att(1162,522).
att(103,806).
att(112,842).
att(58,1129).
att(5,45).
att(151,450).
att(281,84).
att(382,594).
att(734,1414).
att(382,606).
att(1197,701).
att(56,1087).
att(384,600).
att(139,459).
att(51,1008).
att(56,956).
att(1150,580).
att(1152,580).
att(214,1365).
att(1158,622).
att(284,102).
att(735,1324).
att(281,95).
att(734,1321).
att(738,1421).
att(431,638).
att(734,1320).
att(736,1369).
att(112,811).
att(157,338).
att(151,408).
att(384,646).
att(433,594).
att(63,1120).
att(139,341).
att(386,646).
att(380,667).
att(5,13).
att(151,370).
att(51,889).
att(281,57).
att(22,22).
att(56,1017).
att(214,1397).
att(733,1346).
att(1150,538).
att(214,1403).
att(1144,534).
att(224,1374).
att(433,624).
att(1197,724).
att(224,1380).
att(290,44).
att(49,1017).
att(139,372).
att(287,47).
att(175,1374).
att(1160,677).
att(99,904).
att(101,882).
att(36,14).
att(762,1478).
att(750,1348).
att(32,40).
att(22,162).
att(30,30).
att(281,341).
att(230,1340).
att(734,1514).
att(1144,611).
att(733,1517).
att(1158,659).
att(175,1408).
att(34,34).
att(177,1409).
att(1148,630).
att(732,1478).
att(32,3).
att(109,887).
att(227,1368).
att(227,1381).
att(251,335).
att(251,332).
att(40,40).
att(750,1242).
att(738,1498).
att(734,1441).
att(105,916).
att(43,4).
att(97,838).
att(101,852).
att(1302,520).
att(4,93).
att(101,850).
att(380,1055).
att(7,195).
att(284,289).
att(776,1243).
att(250,358).
att(1,203).
att(733,1500).
att(101,837).
att(8,197).
att(38,1).
att(8,207).
att(42,42).
att(227,1407).
att(1,199).
att(1162,708).
att(45,1199).
att(43,43).
att(6,91).
att(99,859).
att(735,1469).
att(292,276).
att(297,274).
att(734,1424).
att(1162,673).
att(774,1249).
att(300,289).
att(427,978).
att(644,832).
att(829,1477).
att(834,1521).
att(45,4).
att(501,123).
att(151,882).
att(624,1137).
att(72,251).
att(162,1011).
att(53,32).
att(636,785).
att(491,123).
att(819,1477).
att(603,992).
att(504,414).
att(636,832).
att(801,1312).
att(809,1415).
att(114,970).
att(500,120).
att(798,1322).
att(801,1242).
att(505,117).
att(71,162).
att(158,902).
att(834,1478).
att(828,1513).
att(491,215).
att(634,1182).
att(73,162).
att(503,135).
att(644,818).
att(45,7).
att(114,1020).
att(45,5).
att(500,171).
att(1336,608).
att(644,1146).
att(1358,702).
att(505,178).
att(63,3).
att(65,111).
att(67,90).
att(191,1081).
att(1311,520).
att(160,918).
att(58,9).
att(1331,713).
att(499,210).
att(154,838).
att(162,924).
att(199,1202).
att(828,1511).
att(165,907).
att(809,1354).
att(62,8).
att(501,252).
att(1349,660).
att(160,838).
att(835,1424).
att(503,209).
att(1347,648).
att(158,844).
att(500,255).
att(1333,679).
att(821,1471).
att(157,862).
att(1336,673).
att(500,305).
att(812,1430).
att(473,209).
att(804,1444).
att(1361,722).
att(45,45).
att(598,1291).
att(1310,566).
att(1310,569).
att(812,1441).
att(160,1212).
att(501,355).
att(292,838).
att(498,305).
att(809,1504).
att(250,924).
att(154,1077).
att(596,1222).
att(250,913).
att(801,1425).
att(112,2).
att(764,393).
att(1310,554).
att(737,393).
att(1333,727).
att(49,49).
att(473,269).
att(154,1125).
att(812,1467).
att(292,860).
att(250,848).
att(601,1238).
att(114,1164).
att(297,860).
att(469,262).
att(55,49).
att(287,806).
att(477,213).
att(807,1391).
att(603,1232).
att(737,512).
att(798,1471).
att(504,306).
att(762,435).
att(55,55).
att(2,739).
att(501,377).
att(823,1517).
att(45,12).
att(56,56).
att(160,1118).
att(292,787).
att(641,769).
att(58,58).
att(1319,572).
att(736,375).
att(8,776).
att(762,326).
att(1315,614).
att(294,793).
att(491,381).
att(477,256).
att(739,438).
att(53,68).
att(733,438).
att(251,869).
att(737,375).
att(627,792).
att(644,771).
att(45,73).
att(504,432).
att(1310,630).
att(829,1517).
att(1319,553).
att(641,796).
att(51,18).
att(634,824).
att(641,808).
att(5,762).
att(7,735).
att(157,1034).
att(603,933).
att(788,1314).
att(60,66).
att(585,995).
att(642,775).
att(603,941).
att(250,797).
att(736,454).
att(1329,544).
att(736,448).
att(671,1143).
att(195,914).
att(669,816).
att(18,203).
att(203,898).
att(20,162).
att(669,1140).
att(1247,566).
att(201,916).
att(16,158).
att(1218,614).
att(207,889).
att(1253,541).
att(19,203).
att(83,1202).
att(189,862).
att(1247,557).
att(87,1215).
att(19,189).
att(19,201).
att(834,1256).
att(19,199).
att(85,1202).
att(87,1165).
att(89,1199).
att(89,1215).
att(663,1176).
att(666,1184).
att(15,201).
att(201,836).
att(1218,566).
att(1308,724).
att(201,840).
att(191,813).
att(19,91).
att(189,787).
att(668,1228).
att(83,1071).
att(669,1240).
att(19,87).
att(756,1426).
att(661,1291).
att(753,1469).
att(756,1442).
att(667,1228).
att(76,1079).
att(758,1387).
att(1253,616).
att(669,1225).
att(668,1280).
att(697,773).
att(90,1074).
att(755,1421).
att(761,1456).
att(758,1384).
att(686,751).
att(666,1228).
att(207,860).
att(93,1071).
att(1266,616).
att(114,859).
att(148,806).
att(668,769).
att(503,258).
att(64,63).
att(503,223).
att(503,225).
att(1247,702).
att(627,1278).
att(1336,524).
att(828,1450).
att(157,787).
att(663,767).
att(1331,528).
att(826,1467).
att(191,1017).
att(1331,526).
att(66,66).
att(195,960).
att(668,808).
att(67,68).
att(160,790).
att(666,767).
att(66,60).
att(663,792).
att(828,1366).
att(640,926).
att(207,1116).
att(197,1017).
att(758,1517).
att(668,824).
att(642,933).
att(642,941).
att(669,805).
att(1355,566).
att(65,30).
att(669,808).
att(205,964).
att(201,1031).
att(666,794).
att(1247,731).
att(1250,722).
att(73,69).
att(670,789).
att(12,281).
att(73,73).
att(195,885).
att(195,879).
att(668,818).
att(668,815).
att(1263,730).
att(754,1511).
att(828,1360).
att(758,1484).
att(1331,572).
att(20,284).
att(20,300).
att(665,818).
att(67,26).
att(761,1520).
att(65,2).
att(642,989).
att(73,20).
att(68,30).
att(21,251).
att(666,822).
att(195,1034).
att(644,989).
att(670,825).
att(73,16).
att(15,292).
att(78,66).
att(85,63).
att(78,72).
att(697,1176).
att(1396,715).
att(12,735).
att(78,70).
att(691,1291).
att(778,573).
att(93,45).
att(853,1366).
att(19,758).
att(772,653).
att(16,778).
att(761,397).
att(1406,718).
att(18,776).
att(20,759).
att(87,51).
att(853,1389).
att(855,1448).
att(1412,681).
att(853,1385).
att(774,685).
att(770,589).
att(18,770).
att(841,1363).
att(21,756).
att(847,1444).
att(101,294).
att(1396,709).
att(770,535).
att(772,523).
att(76,17).
att(695,1222).
att(851,1400).
att(17,764).
att(855,1385).
att(91,60).
att(845,1320).
att(17,739).
att(698,1172).
att(18,739).
att(43,899).
att(101,158).
att(872,1520).
att(470,796).
att(93,12).
att(87,19).
att(1377,580).
att(780,536).
att(472,789).
att(1420,723).
att(695,1274).
att(1372,550).
att(1412,718).
att(90,68).
att(32,874).
att(851,1320).
att(21,734).
att(21,738).
att(1227,747).
att(761,316).
att(776,631).
att(863,1521).
att(34,922).
att(475,751).
att(36,874).
att(107,158).
att(1367,550).
att(97,189).
att(112,292).
att(78,3).
att(770,481).
att(867,1504).
att(1370,533).
att(1416,712).
att(875,1516).
att(875,1514).
att(97,157).
att(93,21).
att(1406,722).
att(13,788).
att(754,480).
att(760,523).
att(691,784).
att(19,854).
att(207,30).
att(1390,611).
att(76,189).
att(845,1498).
att(919,1354).
att(1367,650).
att(755,484).
att(16,863).
att(847,1521).
att(761,535).
att(689,763).
att(761,536).
att(839,1478).
att(757,523).
att(195,7).
att(668,992).
att(915,1243).
att(699,789).
att(207,8).
att(699,808).
att(693,815).
att(919,1265).
att(195,22).
att(666,975).
att(693,1143).
att(87,203).
att(853,1502).
att(13,823).
att(78,80).
att(854,1484).
att(85,197).
att(755,496).
att(694,792).
att(87,189).
att(17,804).
att(76,207).
att(696,786).
att(669,982).
att(698,827).
att(754,400).
att(15,826).
att(83,83).
att(693,1138).
att(1364,702).
att(686,1132).
att(758,518).
att(758,516).
att(203,1).
att(854,1513).
att(1392,648).
att(1370,687).
att(18,831).
att(89,89).
att(780,705).
att(760,518).
att(87,112).
att(85,97).
att(761,506).
att(853,1473).
att(1377,677).
att(80,55).
att(1386,648).
att(1370,656).
att(1375,672).
att(12,756).
att(93,89).
att(28,1028).
att(1372,650).
att(698,1146).
att(1370,659).
att(292,964).
att(281,1008).
att(2,839).
att(97,17).
att(734,527).
att(97,15).
att(105,70).
att(292,967).
att(734,525).
att(109,71).
att(1245,744).
att(284,1011).
att(292,956).
att(105,64).
att(857,1328).
att(468,1289).
att(764,523).
att(469,1230).
att(290,1029).
att(1317,659).
att(867,1328).
att(43,780).
att(281,967).
att(868,1385).
att(1235,743).
att(1237,749).
att(111,66).
att(868,1366).
att(53,158).
att(97,36).
att(810,1516).
att(300,887).
att(1310,676).
att(1239,744).
att(505,782).
att(861,1314).
att(1239,748).
att(736,617).
att(498,767).
att(112,70).
att(51,292).
att(300,1011).
att(498,782).
att(499,767).
att(22,857).
att(43,738).
att(1,849).
att(284,924).
att(812,1474).
att(501,786).
att(1313,725).
att(762,464).
att(1319,706).
att(294,902).
att(1406,559).
att(109,28).
att(764,482).
att(287,907).
att(469,935).
att(1317,708).
att(297,902).
att(281,904).
att(810,1514).
att(503,781).
att(250,1011).
att(476,926).
att(1329,708).
att(6,798).
att(151,1215).
att(51,87).
att(737,481).
att(868,1254).
att(2,833).
att(801,1441).
att(473,979).
att(762,496).
att(872,1265).
att(58,191).
att(473,986).
att(501,1141).
att(1393,526).
att(1310,720).
att(45,93).
att(112,36).
att(736,545).
att(1317,673).
att(62,202).
att(872,1254).
att(1317,677).
att(739,488).
att(863,1256).
att(139,1196).
att(1315,702).
att(300,924).
att(770,508).
att(83,7).
att(36,812).
att(93,4).
att(475,827).
att(284,1165).
att(694,984).
att(1396,614).
att(36,801).
att(287,1165).
att(1412,559).
att(87,2).
att(473,792).
att(750,511).
att(1401,572).
att(698,932).
att(109,189).
att(861,1502).
att(85,3).
att(698,944).
att(34,872).
att(97,197).
att(91,30).
att(698,1002).
att(768,482).
att(475,785).
att(281,1074).
att(1329,723).
att(473,817).
att(778,510).
att(91,6).
att(695,995).
att(42,807).
att(861,1424).
att(109,80).
att(875,1497).
att(783,482).
att(1401,547).
att(26,829).
att(774,481).
att(776,466).
att(868,1513).
att(699,984).
att(868,1511).
att(1317,712).
att(103,103).
att(1420,648).
att(34,752).
att(26,770).
att(1420,652).
att(43,755).
att(97,49).
att(472,1176).
att(1412,625).
att(36,752).
att(294,1087).
att(107,107).
att(861,1450).
att(875,1442).
att(764,579).
att(112,87).
att(875,1426).
att(109,99).
att(733,685).
att(112,91).
att(1401,658).
att(768,393).
att(774,511).
att(776,512).
att(251,1199).
att(34,833).
att(733,703).
att(1422,614).
att(111,111).
att(7,880).
att(739,610).
att(36,768).
att(1192,741).
att(7,890).
att(1416,630).
att(783,393).
att(101,65).
att(736,692).
att(4,910).
att(868,1473).
att(1420,580).
att(766,435).
att(1181,748).
att(97,63).
att(251,1081).
att(737,692).
att(1181,749).
att(5,1030).
att(1179,744).
att(131,265).
att(257,498).
att(809,481).
att(883,1471).
att(1028,1259).
att(1472,728).
att(812,488).
att(738,1210).
att(739,1203).
att(1427,1107).
att(270,470).
att(136,257).
att(732,1203).
att(263,499).
att(114,114).
att(265,468).
att(297,7).
att(1433,1109).
att(829,705).
att(67,1032).
att(819,692).
att(416,1479).
att(144,1434).
att(896,1467).
att(903,1429).
att(819,705).
att(134,1438).
att(423,1460).
att(58,821).
att(126,384).
att(63,801).
att(165,78).
att(890,1442).
att(270,504).
att(1437,1109).
att(890,1426).
att(425,1460).
att(821,684).
att(126,429).
att(157,111).
att(1435,1092).
att(70,1027).
att(419,1487).
att(1434,600).
att(139,68).
att(791,329).
att(798,435).
att(1434,647).
att(791,323).
att(421,1489).
att(144,1454).
att(51,768).
att(903,1448).
att(122,144).
att(144,1464).
att(162,111).
att(58,755).
att(185,382).
att(148,113).
att(114,85).
att(900,1425).
att(139,56).
att(1433,605).
att(73,1009).
att(419,1485).
att(788,438).
att(804,333).
att(122,116).
att(801,333).
att(1431,644).
att(160,60).
att(51,739).
att(144,1487).
att(183,132).
att(73,890).
att(126,126).
att(835,579).
att(828,579).
att(1437,600).
att(139,70).
att(185,144).
att(66,905).
att(62,776).
att(64,917).
att(419,1499).
att(890,1363).
att(870,438).
att(734,1266).
att(56,880).
att(419,126).
att(131,131).
att(60,905).
att(865,326).
att(58,899).
att(292,49).
att(762,1255).
att(809,692).
att(798,577).
att(421,132).
att(431,1490).
att(144,429).
att(764,1255).
att(875,391).
att(251,113).
att(427,1479).
att(136,419).
att(427,1486).
att(868,316).
att(1021,1314).
att(51,854).
att(764,1145).
att(132,122).
att(58,910).
att(284,20).
att(421,175).
att(1035,1419).
att(287,17).
att(739,1255).
att(254,671).
att(287,15).
att(433,1501).
att(880,1520).
att(735,1301).
att(1510,1341).
att(139,281).
att(250,53).
att(425,173).
att(109,734).
att(151,148).
att(425,220).
att(893,1477).
att(421,224).
att(151,151).
att(292,15).
att(268,661).
att(736,1218).
att(162,284).
att(162,300).
att(251,72).
att(45,865).
att(791,570).
att(809,651).
att(250,67).
att(290,38).
att(1018,1314).
att(136,177).
att(890,1516).
att(425,226).
att(890,1514).
att(419,261).
att(738,1156).
att(265,694).
att(734,1207).
att(300,2).
att(737,1162).
att(158,158).
att(764,1062).
att(1028,1351).
att(144,216).
att(896,1513).
att(259,473).
att(737,1145).
att(55,804).
att(62,870).
att(157,197).
att(261,463).
att(261,468).
att(807,480).
att(735,1186).
att(114,287).
att(893,1474).
att(423,265).
att(1437,937).
att(732,1154).
att(1009,1259).
att(165,165).
att(798,562).
att(809,521).
att(1445,555).
att(66,752).
att(122,1459).
att(191,58).
att(754,610).
att(175,384).
att(66,757).
att(834,506).
att(831,400).
att(912,1384).
att(915,1430).
att(72,831).
att(1457,550).
att(835,514).
att(834,510).
att(925,1430).
att(66,833).
att(821,400).
att(201,97).
att(72,823).
att(173,116).
att(833,393).
att(191,72).
att(758,577).
att(922,1444).
att(1370,715).
att(910,1421).
att(124,1481).
att(175,421).
att(834,393).
att(67,770).
att(197,49).
att(17,905).
att(12,905).
att(69,778).
att(168,132).
att(835,395).
att(18,896).
att(177,437).
att(835,402).
att(126,1490).
att(828,400).
att(826,393).
att(756,703).
att(845,1520).
att(1447,625).
att(15,912).
att(15,910).
att(16,922).
att(168,168).
att(168,170).
att(761,577).
att(20,890).
att(197,66).
att(168,230).
att(755,536).
att(170,170).
att(177,124).
att(752,655).
att(18,908).
att(187,1485).
att(1468,566).
att(71,772).
att(1464,592).
att(761,609).
att(1457,616).
att(1464,600).
att(1472,554).
att(207,62).
att(1464,647).
att(12,921).
att(1449,580).
att(1462,624).
att(1465,592).
att(179,182).
att(915,1369).
att(1465,594).
att(915,1363).
att(1462,670).
att(173,220).
att(173,222).
att(851,1522).
att(917,1312).
att(761,619).
att(1457,588).
att(923,1400).
att(71,736).
att(1452,698).
att(72,733).
att(921,1316).
att(1386,723).
att(835,336).
att(1386,728).
att(17,845).
att(1465,624).
att(201,17).
att(15,922).
att(201,15).
att(919,1515).
att(900,1413).
att(912,1474).
att(921,1515).
att(1445,674).
att(835,628).
att(1428,691).
att(829,535).
att(1428,668).
att(1457,674).
att(154,16).
att(1437,640).
att(201,294).
att(1468,654).
att(835,649).
att(908,1519).
att(1433,663).
att(899,1314).
att(903,1419).
att(187,128).
att(798,320).
att(131,1501).
att(821,536).
att(1433,671).
att(66,922).
att(828,628).
att(910,1520).
att(65,788).
att(900,1320).
att(139,2).
att(1431,689).
att(821,480).
att(833,523).
att(883,1259).
att(71,843).
att(896,1360).
att(1428,470).
att(158,17).
att(896,1335).
att(191,191).
att(919,1476).
att(908,1477).
att(899,1346).
att(154,40).
att(185,170).
att(205,290).
att(126,216).
att(160,12).
att(908,1484).
att(908,1482).
att(205,297).
att(912,1480).
att(1461,937).
att(915,1514).
att(114,30).
att(1462,994).
att(912,1425).
att(1472,709).
att(191,91).
att(821,510).
att(833,548).
att(835,542).
att(199,203).
att(1432,475).
att(183,272).
att(835,561).
att(1428,473).
att(69,814).
att(915,1478).
att(1433,468).
att(165,36).
att(1449,706).
att(1455,720).
att(1461,988).
att(1464,1000).
att(1465,931).
att(201,201).
att(182,268).
att(900,1249).
att(919,1429).
att(1458,1098).
att(755,685).
att(183,259).
att(67,823).
att(116,1463).
att(67,819).
att(912,1466).
att(67,829).
att(73,810).
att(835,480).
att(69,834).
att(1468,673).
att(205,205).
att(1433,504).
att(1464,994).
att(73,791).
att(821,496).
att(1461,1049).
att(207,207).
att(757,1301).
att(1489,603).
att(220,425).
att(177,1486).
att(202,733).
att(87,854).
att(222,423).
att(760,1257).
att(752,1306).
att(1481,598).
att(87,839).
att(91,925).
att(271,433).
att(205,735).
att(224,421).
att(216,126).
att(272,380).
att(173,1501).
att(224,144).
att(226,425).
att(851,545).
att(76,791).
att(218,181).
att(1485,665).
att(1489,642).
att(80,801).
att(212,177).
att(851,551).
att(179,1505).
att(230,1483).
att(1487,600).
att(755,1190).
att(80,804).
att(854,539).
att(855,532).
att(770,1447).
att(756,1299).
att(76,870).
att(181,1508).
att(756,1295).
att(847,536).
att(89,865).
att(761,1301).
att(220,173).
att(847,480).
att(83,809).
att(212,212).
att(756,1186).
att(851,478).
att(758,1213).
att(843,518).
att(214,214).
att(780,1377).
att(853,481).
att(214,177).
att(93,865).
att(1490,646).
att(224,229).
att(226,173).
att(855,561).
att(1489,667).
att(1491,644).
att(218,218).
att(776,1453).
att(226,220).
att(226,222).
att(218,270).
att(380,1224).
att(865,680).
att(212,257).
att(220,220).
att(1505,988).
att(212,270).
att(101,1021).
att(758,1066).
att(101,1032).
att(222,222).
att(224,216).
att(857,703).
att(855,464).
att(224,224).
att(1496,997).
att(89,831).
att(272,177).
att(386,1233).
att(1483,997).
att(910,399).
att(1462,698).
att(189,752).
att(1485,988).
att(1460,696).
att(195,823).
att(1454,472).
att(199,821).
att(752,1418).
att(835,1194).
att(761,1372).
att(181,216).
att(189,833).
att(908,508).
att(1461,698).
att(756,1390).
att(1462,689).
att(201,826).
att(173,1437).
att(1489,994).
att(85,973).
att(201,750).
att(908,435).
att(177,261).
att(853,682).
att(759,1323).
att(760,1420).
att(912,438).
att(922,518).
att(195,753).
att(851,684).
att(1461,470).
att(1461,472).
att(759,1319).
att(1461,473).
att(181,1435).
att(216,429).
att(85,900).
att(915,441).
att(87,893).
att(759,1355).
att(218,437).
att(917,446).
att(843,655).
att(177,1436).
att(1464,472).
att(1461,498).
att(78,900).
att(915,406).
att(201,768).
att(179,1436).
att(216,384).
att(847,703).
att(1488,1047).
att(758,1260).
att(168,1483).
att(851,631).
att(226,433).
att(758,1218).
att(915,313).
att(76,845).
att(83,921).
att(175,1463).
att(197,739).
att(755,1306).
att(853,628).
att(195,733).
att(921,326).
att(197,764).
att(87,908).
att(915,448).
att(738,1470).
att(261,227).
att(739,1453).
att(738,1451).
att(380,1091).
att(770,1210).
att(1030,1474).
att(425,1192).
att(774,1145).
att(222,1501).
att(1035,1482).
att(867,484).
att(109,875).
att(257,181).
att(382,1093).
att(436,1050).
att(865,486).
att(300,162).
att(857,484).
att(290,205).
att(762,1392).
att(857,464).
att(250,250).
att(261,170).
att(774,1308).
att(1509,627).
att(1509,638).
att(251,251).
att(292,201).
att(770,1066).
att(1030,1498).
att(863,510).
att(136,1193).
att(1506,663).
att(863,518).
att(870,464).
att(97,826).
att(380,599).
att(109,810).
att(1499,689).
att(770,1064).
att(770,1060).
att(1501,689).
att(259,179).
att(259,181).
att(857,516).
att(861,464).
att(436,1108).
att(857,496).
att(101,819).
att(973,1480).
att(421,1188).
att(762,1418).
att(97,812).
att(134,1179).
att(774,1152).
att(1439,182).
att(766,1203).
att(386,593).
att(973,1493).
att(1509,663).
att(736,1470).
att(112,865).
att(764,1418).
att(53,1030).
att(737,1422).
att(382,623).
att(257,257).
att(801,705).
att(131,1237).
att(265,222).
att(865,399).
att(421,1233).
att(259,257).
att(1439,179).
att(254,268).
att(736,1377).
att(386,629).
att(261,261).
att(97,833).
att(270,218).
att(423,1290).
att(764,1327).
att(423,1294).
att(97,768).
att(131,1229).
att(1506,475).
att(265,265).
att(132,1231).
att(1507,476).
att(735,1352).
att(266,266).
att(436,599).
att(268,254).
att(788,610).
att(1035,1467).
att(250,91).
att(867,446).
att(1035,1450).
att(1508,470).
att(259,1439).
att(437,593).
att(109,760).
att(268,268).
att(1510,698).
att(804,688).
att(861,395).
att(868,514).
att(111,757).
att(798,705).
att(226,265).
att(770,1347).
att(220,261).
att(433,1288).
att(1485,504).
att(1503,1109).
att(109,1021).
att(874,680).
att(851,400).
att(97,973).
att(761,1072).
att(761,1066).
att(1490,696).
att(214,1439).
att(854,516).
att(1488,473).
att(1489,463).
att(89,752).
att(768,1315).
att(774,1420).
att(1496,1110).
att(1503,1042).
att(380,930).
att(380,945).
att(1505,1106).
att(103,923).
att(854,400).
att(867,651).
att(1505,1102).
att(90,760).
att(257,431).
att(76,764).
att(1506,1110).
att(843,336).
att(87,768).
att(111,905).
att(271,265).
att(1501,1053).
att(85,768).
att(112,1032).
att(89,766).
att(93,756).
att(768,1358).
att(1489,498).
att(868,682).
att(768,1333).
att(774,1323).
att(865,537).
att(778,1220).
att(847,316).
att(93,734).
att(220,1460).
att(865,523).
att(212,1488).
att(847,326).
att(281,281).
att(265,433).
att(780,1257).
att(867,521).
att(1024,1517).
att(284,284).
att(1501,1096).
att(103,851).
att(271,1438).
att(861,628).
att(259,429).
att(287,287).
att(1009,1518).
att(1508,1092).
att(97,925).
att(766,1255).
att(433,939).
att(103,845).
att(290,290).
att(281,139).
att(257,116).
att(292,292).
att(214,1503).
att(257,118).
att(762,1457).
att(99,865).
att(214,1507).
att(868,628).
att(297,290).
att(109,843).
att(272,1452).
att(861,532).
att(764,1453).
att(1439,431).
att(386,1043).
att(1439,429).
att(1503,627).
att(300,284).
att(218,1509).
att(268,144).
att(738,367).
att(734,248).
att(419,594).
att(1018,441).
att(132,1104).
att(903,692).
att(1021,444).
att(903,690).
att(880,579).
att(136,1092).
att(250,819).
att(893,692).
att(1009,438).
att(736,231).
att(812,1358).
att(160,890).
att(421,647).
att(1035,451).
att(261,1368).
att(901,685).
att(1009,329).
att(114,1018).
att(165,880).
att(801,1333).
att(798,1344).
att(114,1032).
att(425,634).
att(1035,438).
att(893,535).
att(114,910).
att(250,762).
att(791,1154).
att(419,671).
att(733,152).
att(896,537).
att(423,661).
att(261,1407).
att(738,277).
att(814,1220).
att(903,653).
att(165,910).
att(157,845).
att(114,903).
att(265,1368).
att(736,248).
att(905,655).
att(829,1447).
att(903,536).
att(162,839).
att(136,663).
att(165,853).
att(798,1308).
att(162,845).
att(157,874).
att(429,665).
att(1018,561).
att(735,396).
att(865,1154).
att(421,937).
att(738,519).
att(1024,551).
att(780,152).
att(226,1407).
att(380,693).
att(380,473).
att(737,396).
att(1027,464).
att(436,689).
att(421,991).
att(416,991).
att(1027,488).
att(762,455).
att(867,1194).
att(287,812).
att(136,937).
att(857,1203).
att(292,812).
att(251,788).
att(868,1200).
att(807,1393).
att(857,1082).
att(735,314).
att(739,439).
att(733,439).
att(425,1042).
att(868,1072).
att(801,1327).
att(1018,395).
att(419,1102).
att(284,759).
att(1030,511).
att(738,330).
att(1024,400).
att(899,685).
att(292,826).
att(736,410).
att(798,1393).
att(423,1098).
att(736,445).
att(973,488).
att(250,798).
att(973,482).
att(116,664).
att(124,624).
att(835,1331).
att(903,448).
att(921,617).
att(185,647).
att(157,739).
att(828,1331).
att(826,1358).
att(195,845).
att(919,521).
att(195,841).
att(900,320).
att(199,849).
att(923,621).
att(185,644).
att(921,540).
att(128,661).
att(187,641).
att(162,732).
att(182,670).
att(912,482).
att(122,695).
att(203,849).
att(203,847).
att(1437,1404).
att(826,1306).
att(755,1396).
att(922,548).
att(912,494).
att(175,981).
att(175,994).
att(124,468).
att(197,788).
att(833,1154).
att(201,812).
att(187,691).
att(187,686).
att(205,875).
att(883,518).
att(835,1453).
att(829,1392).
att(144,671).
att(903,561).
att(835,1451).
att(896,481).
att(185,1000).
att(828,1451).
att(883,466).
att(788,1203).
att(828,1457).
att(425,477).
att(814,1154).
att(148,831).
att(809,1190).
att(901,464).
att(182,988).
att(829,1396).
att(165,831).
att(910,705).
att(835,1370).
att(183,1055).
att(901,484).
att(185,994).
att(425,493).
att(819,1396).
att(154,834).
att(899,496).
att(829,1323).
att(901,496).
att(197,973).
att(823,1352).
att(809,1069).
att(114,835).
att(191,901).
att(835,1393).
att(1427,1340).
att(185,1040).
att(136,500).
att(136,502).
att(828,1401).
att(165,826).
att(128,1098).
att(826,1422).
att(158,760).
att(182,1102).
att(116,640).
att(903,400).
att(921,575).
att(921,583).
att(893,444).
att(883,316).
att(154,778).
att(160,759).
att(835,1325).
att(821,1361).
att(915,705).
att(826,1327).
att(162,759).
att(175,666).
att(841,1420).
att(177,663).
att(212,931).
att(922,1154).
att(759,410).
att(756,373).
att(923,1150).
att(1465,1378).
att(230,636).
att(227,624).
att(1462,1407).
att(177,686).
att(919,1069).
att(758,340).
att(760,410).
att(921,1069).
att(214,1004).
att(855,1370).
att(214,1006).
att(853,1401).
att(181,696).
att(849,1375).
att(175,475).
att(218,1047).
att(177,468).
att(220,1057).
att(229,463).
att(181,470).
att(845,1344).
att(841,1323).
att(925,1060).
att(754,279).
att(849,1361).
att(753,277).
att(177,504).
att(754,278).
att(772,485).
att(851,1352).
att(849,1349).
att(382,382).
att(384,429).
att(386,386).
att(821,278).
att(758,552).
att(834,359).
att(912,1255).
att(185,501).
att(170,1098).
att(185,474).
att(752,543).
att(921,1336).
att(915,1329).
att(187,474).
att(229,1055).
att(183,463).
att(183,500).
att(912,1304).
att(758,467).
att(175,1104).
att(910,1306).
att(754,495).
att(177,1100).
att(828,277).
att(826,239).
att(181,1092).
att(230,1049).
att(756,563).
att(754,394).
att(828,152).
att(175,603).
att(915,1295).
att(175,601).
att(177,598).
att(1459,1341).
att(177,594).
att(760,485).
att(829,146).
att(923,1263).
att(915,1257).
att(915,1218).
att(757,396).
att(177,624).
att(843,1377).
att(175,642).
att(170,661).
att(835,152).
att(752,374).
att(230,596).
att(230,601).
att(380,268).
att(382,261).
att(380,1439).
att(224,696).
att(766,331).
att(224,699).
att(774,447).
att(433,271).
att(218,503).
att(263,1051).
att(380,1431).
att(735,558).
att(270,1055).
att(214,500).
att(772,244).
att(257,1055).
att(271,694).
att(259,988).
att(1439,937).
att(384,1438).
att(768,371).
att(868,1401).
att(220,472).
att(226,477).
att(865,1260).
att(734,489).
att(1028,610).
att(257,1092).
att(419,382).
att(266,1047).
att(416,416).
att(431,1461).
att(770,285).
att(224,498).
att(750,282).
att(226,493).
att(732,543).
att(261,1098).
att(226,505).
att(268,1110).
att(261,1100).
att(220,498).
att(380,1452).
att(766,235).
att(265,1098).
att(251,910).
att(1028,653).
att(1028,649).
att(382,1487).
att(292,912).
att(421,421).
att(1035,653).
att(772,129).
att(259,1102).
att(287,853).
att(386,1483).
att(874,1257).
att(433,1459).
att(1018,651).
att(270,1092).
att(270,1094).
att(737,556).
att(425,425).
att(1503,1341).
att(386,419).
att(783,543).
att(214,598).
att(780,462).
att(271,1096).
att(843,1306).
att(855,1331).
att(854,1358).
att(847,1361).
att(752,277).
att(847,1352).
att(220,594).
att(380,124).
att(843,1154).
att(271,1098).
att(766,492).
att(436,436).
att(437,437).
att(761,288).
att(772,410).
att(865,1388).
att(386,227).
att(380,179).
att(212,665).
att(380,177).
att(271,627).
att(1481,1403).
att(774,492).
att(1483,1402).
att(224,646).
att(226,634).
att(847,1270).
att(768,374).
att(761,155).
att(861,1468).
att(433,227).
att(870,1392).
att(772,327).
att(380,272).
att(214,697).
att(865,1422).
att(845,1062).
att(854,1154).
att(854,1152).
att(216,696).
att(1006,1179).
att(1030,1257).
att(870,295).
att(810,485).
att(592,216).
att(500,1014).
att(1009,1144).
att(807,515).
att(735,1086).
att(812,487).
att(1001,1183).
att(1001,1185).
att(463,463).
att(812,465).
att(870,282).
att(1001,1181).
att(1021,1297).
att(606,1509).
att(736,1131).
att(798,462).
att(594,229).
att(867,152).
att(807,509).
att(762,1078).
att(493,943).
att(861,279).
att(1004,1193).
att(883,1392).
att(973,1301).
att(473,698).
att(594,261).
att(812,513).
att(469,469).
att(585,263).
att(874,163).
att(861,152).
att(1018,1306).
att(1018,1270).
att(473,470).
att(1018,1189).
att(1021,1207).
att(598,1436).
att(973,1145).
att(1018,1194).
att(468,502).
att(592,1436).
att(1001,1245).
att(477,689).
att(940,1288).
att(475,472).
att(931,952).
att(801,401).
att(1028,1270).
att(943,1279).
att(1035,1144).
att(788,439).
att(1461,743).
att(883,1319).
att(473,504).
att(501,1094).
att(1018,1072).
att(809,442).
att(893,1396).
att(592,1464).
att(640,429).
att(735,1019).
att(937,1005).
att(503,1045).
att(491,592).
att(739,961).
att(499,1047).
att(1452,749).
att(475,504).
att(477,477).
att(735,1025).
att(499,1109).
att(809,407).
att(973,1150).
att(943,939).
att(476,498).
att(473,491).
att(504,1109).
att(697,502).
att(738,1334).
att(737,1362).
att(737,1359).
att(1028,1388).
att(737,1356).
att(1021,1396).
att(762,1219).
att(770,1010).
att(473,1109).
att(778,959).
att(468,1100).
att(1035,1388).
att(469,1051).
att(699,463).
att(750,1012).
att(766,961).
att(768,876).
att(470,600).
att(738,1258).
att(600,384).
att(737,1261).
att(1028,1416).
att(1092,1490).
att(468,594).
att(1030,1420).
att(585,134).
att(737,1353).
att(768,1016).
att(477,1047).
att(596,416).
att(861,324).
att(857,363).
att(736,1359).
att(868,410).
att(603,429).
att(738,1305).
att(1030,1323).
att(1092,1496).
att(1028,1327).
att(1092,1508).
att(468,624).
att(592,126).
att(600,134).
att(1024,1361).
att(776,881).
att(606,1464).
att(732,1268).
att(1018,1329).
att(733,1309).
att(603,421).
att(1021,1266).
att(598,177).
att(801,489).
att(863,298).
att(1028,1355).
att(1102,1499).
att(1032,1352).
att(1024,1263).
att(606,1499).
att(594,128).
att(601,132).
att(1106,1505).
att(1106,1499).
att(801,549).
att(470,665).
att(476,640).
att(1059,1235).
att(883,1197).
att(900,1308).
att(890,1150).
att(491,491).
att(896,1150).
att(1001,602).
att(641,271).
att(491,501).
att(498,476).
att(812,163).
att(903,1270).
att(940,643).
att(624,1438).
att(981,1227).
att(644,216).
att(1006,595).
att(1057,1173).
att(883,1156).
att(912,1453).
att(910,1451).
att(646,216).
att(905,1301).
att(937,632).
att(826,513).
att(640,1437).
att(501,503).
att(498,498).
att(1054,1294).
att(988,952).
att(624,1459).
att(499,499).
att(923,1455).
att(624,1436).
att(835,394).
att(981,950).
att(905,1145).
att(501,491).
att(915,1451).
att(912,1315).
att(502,502).
att(641,1435).
att(821,359).
att(903,1207).
att(1428,744).
att(893,1060).
att(503,503).
att(908,1406).
att(504,504).
att(644,1437).
att(908,1412).
att(1059,950).
att(505,505).
att(646,1438).
att(1054,1273).
att(829,365).
att(915,1317).
att(642,1464).
att(922,1418).
att(819,357).
att(835,330).
att(925,1422).
att(600,1459).
att(1001,934).
att(641,386).
att(592,1487).
att(502,1106).
att(896,1325).
att(503,1094).
att(636,416).
att(477,499).
att(807,361).
att(504,1106).
att(1006,1003).
att(798,331).
att(505,594).
att(883,1253).
att(1001,985).
att(501,644).
att(641,419).
att(498,627).
att(498,640).
att(642,416).
att(642,421).
att(893,1347).
att(821,558).
att(493,634).
att(903,1329).
att(900,1399).
att(627,182).
att(809,334).
att(890,1325).
att(893,1266).
att(937,1095).
att(505,644).
att(791,142).
att(821,509).
att(641,187).
att(896,1260).
att(636,168).
att(499,663).
att(636,128).
att(981,1139).
att(624,227).
att(642,132).
att(978,1188).
att(835,565).
att(504,627).
att(812,239).
att(500,664).
att(828,563).
att(791,295).
att(638,179).
att(798,235).
att(809,365).
att(905,1344).
att(505,640).
att(883,1152).
att(910,1470).
att(804,140).
att(503,664).
att(901,1255).
att(1054,1193).
att(1055,1183).
att(1055,1185).
att(642,175).
att(896,1270).
att(1439,749).
att(826,465).
att(991,1179).
att(812,277).
att(814,298).
att(981,1239).
att(943,604).
att(828,465).
att(826,487).
att(807,145).
att(691,386).
att(754,1163).
att(520,520).
att(826,876).
att(917,365).
att(843,543).
att(912,241).
att(1047,952).
att(524,531).
att(670,254).
att(524,524).
att(761,1221).
att(756,1248).
att(1110,947).
att(531,522).
att(1110,948).
att(696,429).
att(915,231).
att(912,273).
att(693,132).
att(693,144).
att(910,277).
att(923,361).
att(1051,934).
att(667,1454).
att(531,531).
att(671,1434).
att(849,479).
att(691,187).
att(1040,1044).
att(693,122).
att(665,1490).
att(922,241).
att(758,1201).
att(853,471).
att(1040,1048).
att(663,1499).
att(912,163).
att(855,563).
att(853,487).
att(670,1464).
att(1051,990).
att(524,578).
att(671,1464).
att(691,181).
att(758,1078).
att(915,142).
att(531,566).
att(691,229).
att(531,578).
att(854,485).
att(922,273).
att(758,1076).
att(754,1114).
att(755,1128).
att(524,622).
att(663,1509).
att(922,277).
att(919,152).
att(923,295).
att(524,613).
att(695,144).
att(757,1205).
att(530,582).
att(671,1490).
att(761,1187).
att(912,374).
att(1045,1183).
att(634,1506).
att(669,131).
att(531,608).
att(661,170).
att(908,490).
att(921,519).
att(1506,740).
att(638,1499).
att(1506,747).
att(524,648).
att(819,1061).
att(646,1490).
att(919,373).
att(668,181).
att(668,177).
att(915,398).
att(533,618).
att(522,677).
att(981,581).
att(923,495).
att(669,183).
att(921,396).
att(533,657).
att(670,118).
att(821,1126).
att(524,672).
att(524,683).
att(903,145).
att(665,216).
att(978,637).
att(528,675).
att(533,659).
att(529,687).
att(533,656).
att(823,1010).
att(981,637).
att(666,229).
att(1109,1179).
att(753,1356).
att(1110,1134).
att(835,1113).
att(1110,1136).
att(908,449).
att(520,719).
att(669,214).
att(754,1305).
att(826,1012).
att(915,324).
att(1045,952).
att(533,687).
att(823,877).
att(991,637).
att(1055,599).
att(533,677).
att(919,334).
att(547,528).
att(831,1010).
att(538,538).
att(1049,1245).
att(921,303).
att(754,1217).
att(826,969).
att(870,552).
att(544,544).
att(473,431).
att(853,239).
att(855,369).
att(529,729).
att(538,572).
att(547,553).
att(854,353).
att(547,547).
att(750,1195).
att(698,1432).
att(524,731).
att(766,1151).
att(699,1438).
att(847,277).
att(847,273).
att(468,128).
att(695,1464).
att(851,278).
att(538,611).
att(766,1205).
att(554,576).
att(845,152).
att(843,142).
att(557,559).
att(607,945).
att(607,1003).
att(750,1061).
att(476,116).
att(694,1505).
att(865,374).
att(851,149).
att(1102,1039).
att(559,559).
att(541,616).
att(770,1113).
att(473,182).
att(774,1166).
att(766,1078).
att(559,586).
att(857,373).
att(463,170).
att(867,407).
att(735,1332).
att(557,622).
att(762,1338).
att(473,229).
att(872,401).
att(474,170).
att(695,1510).
att(554,654).
att(1009,1364).
att(867,442).
att(772,953).
att(1096,595).
att(1104,1105).
att(861,394).
att(555,622).
att(764,1356).
att(774,1078).
att(756,1113).
att(1047,1105).
att(1481,740).
att(758,1113).
att(1481,742).
att(854,497).
att(761,1070).
att(695,122).
att(1094,1183).
att(1479,747).
att(854,517).
att(922,140).
att(693,263).
att(778,1338).
att(854,374).
att(557,674).
att(557,672).
att(1051,629).
att(855,405).
att(538,720).
att(696,216).
att(538,712).
att(847,376).
att(1107,1095).
att(555,701).
att(607,1244).
att(770,1309).
att(578,522).
att(694,270).
att(1100,1292).
att(695,263).
att(576,531).
att(783,1356).
att(854,439).
att(760,965).
att(578,524).
att(606,1244).
att(607,1171).
att(768,1258).
att(1053,643).
att(578,531).
att(756,877).
att(770,1161).
att(865,543).
att(582,530).
att(1100,952).
att(758,894).
att(778,1298).
att(849,353).
att(867,546).
att(853,371).
att(857,563).
att(574,569).
att(756,1025).
att(1096,934).
att(1096,939).
att(1106,1283).
att(572,572).
att(863,959).
att(764,276).
att(574,576).
att(574,574).
att(601,994).
att(1094,503).
att(576,576).
att(574,611).
att(1024,447).
att(603,994).
att(576,574).
att(857,961).
att(559,727).
att(867,958).
att(1100,468).
att(578,608).
att(810,1345).
att(1028,445).
att(861,998).
att(578,613).
att(736,232).
att(582,582).
att(574,630).
att(594,1098).
att(606,499).
att(585,585).
att(973,374).
att(586,586).
att(647,994).
att(576,613).
att(943,386).
att(931,437).
att(588,588).
att(733,243).
att(566,648).
att(764,296).
att(592,592).
att(1001,386).
att(468,1339).
att(1001,382).
att(592,647).
att(865,888).
att(580,614).
att(594,594).
att(594,1100).
att(647,1042).
att(762,150).
att(1028,410).
att(733,296).
att(809,1337).
att(598,585).
att(809,1332).
att(598,598).
att(867,886).
att(605,601).
att(472,1381).
att(737,150).
att(1018,241).
att(600,600).
att(582,660).
att(594,624).
att(940,134).
att(814,1298).
att(603,596).
att(603,603).
att(861,891).
att(943,124).
att(798,1296).
att(1006,136).
att(697,1339).
att(686,1368).
att(608,524).
att(693,1380).
att(865,1155).
att(588,674).
att(770,188).
att(1024,563).
att(606,606).
att(853,877).
att(576,704).
att(1104,601).
att(868,1258).
att(855,1016).
att(578,716).
att(694,1381).
att(1028,565).
att(1092,665).
att(735,443).
att(572,712).
att(1035,565).
att(574,728).
att(764,408).
att(854,888).
att(606,647).
att(566,723).
att(697,1373).
att(857,1201).
att(697,1382).
att(608,566).
att(865,1078).
att(768,100).
att(1092,696).
att(865,1061).
att(739,408).
att(870,1201).
att(592,1000).
att(750,110).
att(764,332).
att(973,543).
att(611,580).
att(762,338).
att(868,1157).
att(622,555).
att(1092,470).
att(1021,405).
att(608,608).
att(620,572).
att(586,724).
att(614,580).
att(774,96).
att(739,332).
att(738,325).
att(1094,474).
att(780,100).
att(875,1205).
att(1035,495).
att(1104,695).
att(733,335).
att(874,1061).
att(875,1214).
att(791,881).
att(1001,1428).
att(809,965).
att(801,1033).
att(937,1463).
att(831,1264).
att(978,416).
att(616,616).
att(804,1016).
att(642,1049).
att(819,1267).
att(642,1059).
att(819,1264).
att(618,618).
att(807,1022).
att(903,439).
att(627,1102).
att(890,410).
att(893,357).
att(829,1271).
att(912,543).
att(624,624).
att(991,427).
att(812,1012).
att(835,1258).
att(831,1309).
att(943,1490).
att(618,654).
att(981,144).
att(630,630).
att(1006,1463).
att(899,363).
att(994,144).
att(646,600).
att(919,546).
att(641,598).
att(634,627).
att(880,277).
att(940,1505).
att(940,1499).
att(834,1298).
att(835,1269).
att(988,182).
att(642,603).
att(835,1309).
att(500,1365).
att(903,369).
att(880,241).
att(946,1499).
att(640,665).
att(912,513).
att(502,1373).
att(630,676).
att(922,543).
att(502,1382).
att(641,641).
att(1001,1507).
att(608,716).
att(903,241).
att(835,1163).
att(625,710).
att(500,1394).
att(500,1397).
att(622,701).
att(644,644).
att(620,711).
att(821,1208).
att(826,1149).
att(826,1157).
att(1018,285).
att(600,646).
att(973,241).
att(1018,279).
att(1030,241).
att(592,671).
att(650,547).
att(812,1157).
att(624,946).
att(940,182).
att(625,719).
att(647,647).
att(1024,285).
att(1006,118).
att(809,1305).
att(618,713).
att(656,533).
att(788,1201).
att(611,727).
att(648,566).
att(600,665).
att(810,1205).
att(893,497).
att(1018,152).
att(732,94).
att(1035,145).
att(657,547).
att(738,77).
att(1030,273).
att(1030,282).
att(630,715).
att(585,469).
att(1014,128).
att(943,218).
att(943,222).
att(943,271).
att(883,439).
att(630,723).
att(807,1124).
att(899,373).
att(634,997).
att(1028,145).
att(657,588).
att(734,61).
att(647,696).
att(658,580).
att(624,1055).
att(647,671).
att(662,578).
att(735,50).
att(807,1117).
att(812,1076).
att(903,519).
att(596,475).
att(943,265).
att(1006,214).
att(598,469).
att(798,1078).
att(638,1110).
att(823,1248).
att(648,658).
att(937,1437).
att(634,1042).
att(601,476).
att(650,650).
att(737,44).
att(603,493).
att(624,1100).
att(739,52).
att(899,439).
att(636,991).
att(807,963).
att(903,405).
att(900,495).
att(905,396).
att(788,961).
att(814,1111).
att(821,1334).
att(1006,1439).
att(664,627).
att(821,100).
att(656,656).
att(1107,382).
att(754,332).
att(669,1106).
att(754,302).
att(1040,126).
att(917,1201).
att(981,1506).
att(650,700).
att(666,606).
att(994,1487).
att(753,456).
att(659,659).
att(1051,134).
att(915,1131).
att(835,190).
att(660,660).
att(915,1061).
att(659,677).
att(754,342).
att(821,57).
att(760,459).
att(663,664).
att(1049,128).
att(761,443).
att(652,709).
att(923,1204).
att(921,1078).
att(912,1114).
att(1059,1490).
att(835,77).
att(664,664).
att(988,1499).
att(841,1345).
att(826,52).
att(691,1001).
att(665,665).
att(760,338).
att(919,1126).
att(760,332).
att(666,646).
att(1054,1499).
att(1110,128).
att(835,100).
att(668,667).
att(756,335).
att(758,208).
att(915,965).
att(665,696).
att(697,1004).
att(669,669).
att(697,1014).
att(1040,270).
att(694,940).
att(755,296).
att(674,550).
att(672,559).
att(758,249).
att(919,958).
att(662,716).
att(673,553).
att(919,1332).
att(900,1128).
att(658,723).
att(624,468).
att(835,342).
att(636,693).
att(668,1001).
att(921,1330).
att(656,722).
att(831,208).
att(679,555).
att(503,1410).
att(810,61).
att(819,243).
att(835,370).
att(835,366).
att(921,1353).
att(662,731).
att(988,254).
att(667,1055).
att(671,1000).
att(826,274).
att(634,477).
att(664,1109).
att(624,502).
att(644,463).
att(829,299).
att(901,969).
att(675,611).
att(910,1258).
att(646,696).
att(670,1000).
att(912,1157).
att(676,648).
att(664,1106).
att(669,1055).
att(919,1305).
att(1040,382).
att(921,1309).
att(994,1434).
att(687,614).
att(919,1300).
att(923,1264).
att(994,1436).
att(908,1296).
att(915,1258).
att(671,994).
att(903,1012).
att(828,198).
att(642,493).
att(900,888).
att(921,1130).
att(981,1479).
att(991,1459).
att(900,876).
att(981,1463).
att(835,164).
att(687,658).
att(672,709).
att(1096,227).
att(677,677).
att(1106,182).
att(753,57).
att(755,57).
att(1109,1503).
att(1109,1505).
att(855,1205).
att(759,106).
att(750,368).
att(847,1208).
att(1096,170).
att(696,646).
att(672,712).
att(691,666).
att(697,638).
att(759,102).
att(770,238).
att(704,531).
att(849,1126).
att(776,370).
att(760,106).
att(687,687).
att(867,1337).
att(1100,227).
att(689,689).
att(1094,181).
att(672,724).
att(1094,229).
att(700,541).
att(701,559).
att(845,961).
att(679,715).
att(687,708).
att(854,1086).
att(691,691).
att(854,1083).
att(696,665).
att(774,328).
att(699,638).
att(697,661).
att(675,715).
att(1096,222).
att(693,693).
att(766,358).
att(1096,271).
att(870,1359).
att(476,937).
att(768,274).
att(694,697).
att(708,531).
att(694,694).
att(847,959).
att(695,693).
att(473,937).
att(677,715).
att(855,1126).
att(706,553).
att(696,696).
att(843,1012).
att(676,730).
att(855,1114).
att(774,360).
att(607,181).
att(863,1338).
att(691,474).
att(697,697).
att(709,559).
att(770,161).
att(870,1261).
att(472,1042).
att(855,998).
att(867,1268).
att(855,969).
att(1094,270).
att(861,1217).
att(1104,263).
att(710,559).
att(698,698).
att(607,214).
att(463,1049).
att(875,1345).
att(699,699).
att(691,1049).
att(693,1045).
att(693,1051).
att(756,276).
att(908,881).
att(1040,1434).
att(1047,266).
att(704,608).
att(709,586).
att(686,1051).
att(694,1054).
att(754,153).
att(667,463).
att(700,650).
att(689,997).
att(912,876).
att(854,1359).
att(847,1334).
att(693,1104).
att(847,1298).
att(694,1053).
att(709,614).
att(917,884).
att(855,1264).
att(701,683).
att(853,1307).
att(760,289).
att(1110,268).
att(847,1258).
att(841,1214).
att(922,878).
att(693,647).
att(700,700).
att(845,1201).
att(758,193).
att(711,662).
att(1096,423).
att(1107,1427).
att(669,500).
att(699,1053).
att(778,453).
att(1098,128).
att(750,304).
att(704,704).
att(695,1104).
att(700,719).
att(606,382).
att(847,1159).
att(696,600).
att(716,531).
att(1000,1138).
att(598,225).
att(708,708).
att(863,147).
att(592,215).
att(868,280).
att(709,710).
att(762,1036).
att(594,210).
att(601,178).
att(865,150).
att(770,873).
att(634,309).
att(1030,1261).
att(624,311).
att(634,39).
att(780,840).
att(772,860).
att(647,184).
att(766,844).
att(711,711).
att(1006,1135).
att(710,709).
att(750,862).
att(1018,1217).
att(946,1176).
att(646,311).
att(505,936).
att(946,1286).
att(704,728).
att(708,716).
att(708,714).
att(735,1129).
att(870,141).
att(647,210).
att(768,793).
att(647,215).
att(704,731).
att(734,1120).
att(940,1228).
att(624,352).
att(498,999).
att(717,538).
att(1032,1309).
att(627,306).
att(770,793).
att(861,164).
att(736,1212).
att(946,1278).
att(778,797).
att(708,731).
att(735,967).
att(940,1278).
att(498,1058).
att(491,1048).
att(499,996).
att(778,803).
att(788,408).
att(636,355).
att(714,608).
att(1004,1291).
att(644,305).
att(493,1046).
att(780,787).
att(874,188).
att(997,763).
att(868,79).
att(861,94).
att(736,956).
att(1009,1111).
att(1024,1086).
att(735,1034).
att(642,348).
att(1030,1211).
att(978,792).
att(713,648).
att(788,338).
att(636,346).
att(714,659).
att(788,332).
att(872,79).
att(1014,1286).
att(713,652).
att(737,1088).
att(943,935).
att(736,1118).
att(627,428).
att(644,390).
att(867,95).
att(770,1029).
att(847,86).
att(501,1134).
att(592,378).
att(849,74).
att(937,782).
att(857,332).
att(867,341).
att(603,348).
att(714,673).
att(855,190).
att(493,1136).
att(607,264).
att(768,967).
att(761,797).
att(854,193).
att(500,1171).
att(600,378).
att(868,328).
att(721,652).
att(946,830).
att(468,595).
att(851,104).
att(872,341).
att(469,1095).
att(845,52).
att(861,304).
att(854,75).
att(861,302).
att(940,789).
att(1014,751).
att(1014,773).
att(594,432).
att(477,1046).
att(768,1031).
att(714,708).
att(499,1193).
att(1006,794).
att(598,417).
att(776,889).
att(861,232).
att(473,593).
att(867,247).
att(872,372).
att(931,1132).
att(861,342).
att(502,1193).
att(713,713).
att(585,125).
att(594,133).
att(724,526).
att(854,106).
att(713,720).
att(647,432).
att(714,715).
att(714,716).
att(475,593).
att(853,54).
att(1006,825).
att(1000,815).
att(774,909).
att(733,1199).
att(1001,817).
att(719,709).
att(770,850).
att(469,637).
att(867,276).
att(874,238).
att(729,531).
att(931,1182).
att(713,730).
att(714,724).
att(750,837).
att(718,718).
att(943,1182).
att(714,730).
att(627,41).
att(726,538).
att(730,526).
att(668,306).
att(809,153).
att(883,1208).
att(978,1274).
att(731,522).
att(903,1269).
att(661,344).
att(715,727).
att(723,566).
att(812,159).
att(731,531).
att(636,256).
att(991,1238).
att(981,1232).
att(719,723).
att(812,141).
att(627,264).
att(896,1155).
att(738,864).
att(717,725).
att(670,311).
att(721,721).
att(1032,877).
att(801,88).
att(723,614).
att(828,443).
att(1051,782).
att(1054,1228).
att(730,555).
att(809,196).
att(978,933).
att(730,553).
att(804,77).
att(903,1159).
att(661,377).
att(991,1274).
att(1055,1228).
att(669,356).
att(719,729).
att(981,927).
att(1047,781).
att(661,346).
att(981,1284).
att(728,574).
att(724,614).
att(812,188).
att(807,92).
att(728,569).
att(667,346).
att(1054,1282).
att(791,52).
att(730,586).
att(880,1114).
att(883,1128).
att(726,614).
att(665,378).
att(835,408).
att(1040,786).
att(981,975).
att(1045,832).
att(730,566).
att(981,941).
att(905,1205).
att(804,100).
att(1059,1274).
att(1109,767).
att(807,95).
att(664,120).
att(883,961).
att(883,959).
att(798,52).
att(1045,816).
att(823,208).
att(810,102).
att(896,1124).
att(991,995).
att(809,95).
att(981,989).
att(1059,926).
att(728,658).
att(900,1166).
att(728,648).
att(730,658).
att(646,430).
att(997,824).
att(733,882).
att(737,1034).
att(501,602).
att(731,658).
att(738,1017).
att(812,332).
att(727,677).
att(730,648).
att(636,383).
att(762,898).
att(788,370).
att(1014,1278).
att(943,982).
att(1024,1113).
att(809,459).
att(736,962).
att(500,595).
att(646,378).
att(764,902).
att(868,54).
att(1059,820).
att(801,238).
att(498,623).
att(503,590).
att(734,909).
att(868,47).
att(503,593).
att(1032,1113).
att(991,825).
att(499,591).
att(1057,824).
att(994,818).
att(1006,976).
att(504,593).
att(791,247).
att(1000,974).
att(1009,959).
att(994,1143).
att(875,106).
att(1018,1015).
att(901,1332).
att(883,1296).
att(729,716).
att(900,1356).
att(764,862).
att(723,723).
att(978,1170).
att(642,127).
att(627,210).
att(981,1169).
att(499,639).
att(788,296).
att(503,599).
att(724,724).
att(731,716).
att(764,838).
att(809,372).
att(725,725).
att(1035,965).
att(880,1258).
att(641,166).
att(730,721).
att(726,726).
att(736,836).
att(883,1151).
att(732,859).
att(893,1271).
att(634,213).
att(807,161).
att(1054,1180).
att(1055,1137).
att(730,713).
att(624,262).
att(737,836).
att(636,217).
att(991,1170).
att(728,728).
att(666,31).
att(812,274).
att(1057,1133).
att(735,860).
att(900,1332).
att(1035,1016).
att(691,385).
att(900,110).
att(833,1034).
att(145,616).
att(155,650).
att(912,238).
att(1092,796).
att(896,46).
att(686,389).
att(1096,765).
att(129,574).
att(903,100).
att(828,907).
att(1106,763).
att(917,247).
att(915,232).
att(437,742).
att(819,836).
att(697,428).
att(1042,974).
att(1092,786).
att(146,625).
att(1100,789).
att(693,130).
att(829,916).
att(910,276).
att(923,364).
att(826,892).
att(606,781).
att(691,417).
att(163,614).
att(691,415).
att(696,430).
att(145,676).
att(912,159).
att(691,121).
att(915,276).
att(699,432).
att(1096,1146).
att(155,700).
att(693,184).
att(829,852).
att(140,677).
att(1092,815).
att(759,1165).
att(755,1081).
att(1049,989).
att(431,749).
att(1094,784).
att(146,710).
att(829,837).
att(606,794).
att(754,1164).
att(819,850).
att(925,238).
att(607,794).
att(908,291).
att(470,10).
att(821,803).
att(828,871).
att(908,193).
att(819,793).
att(821,813).
att(155,674).
att(470,41).
att(833,838).
att(1102,815).
att(760,1165).
att(761,1209).
att(922,276).
att(282,555).
att(691,10).
att(145,713).
att(669,422).
att(804,862).
att(896,150).
att(1055,989).
att(152,727).
att(801,864).
att(693,41).
att(819,1087).
att(807,873).
att(812,840).
att(903,283).
att(140,715).
att(1109,825).
att(1051,1142).
att(1059,989).
att(1110,785).
att(1054,984).
att(1110,825).
att(295,544).
att(1053,1180).
att(149,720).
att(1040,1174).
att(693,311).
att(152,715).
att(665,176).
att(801,787).
att(1049,1137).
att(663,209).
att(693,319).
att(146,719).
att(689,31).
att(1051,1138).
att(1051,1182).
att(1053,1137).
att(671,176).
att(893,92).
att(821,1026).
att(697,309).
att(834,1125).
att(694,311).
att(903,190).
att(812,787).
att(663,225).
att(686,319).
att(278,557).
att(826,1116).
att(908,440).
att(1051,1238).
att(821,967).
att(814,797).
att(698,319).
att(1107,1169).
att(883,61).
att(145,727).
att(1096,769).
att(919,325).
att(282,566).
att(1098,769).
att(900,74).
att(919,335).
att(1049,1228).
att(140,727).
att(686,306).
att(666,219).
att(663,267).
att(903,84).
att(279,572).
att(663,264).
att(1051,1223).
att(915,459).
att(826,964).
att(915,450).
att(1110,1176).
att(915,411).
att(129,720).
att(476,378).
att(770,1206).
att(1100,935).
att(473,378).
att(473,379).
att(754,840).
att(1104,926).
att(854,358).
att(474,392).
att(607,1272).
att(475,383).
att(849,280).
att(470,184).
att(468,120).
att(473,130).
att(845,141).
att(585,815).
att(752,838).
att(756,914).
att(476,117).
att(768,1120).
att(778,1077).
att(601,815).
att(853,164).
att(469,125).
att(585,1138).
att(607,976).
att(756,846).
att(493,31).
att(605,1133).
att(756,795).
att(778,1125).
att(776,1116).
att(863,453).
att(758,800).
att(758,811).
att(505,35).
att(585,1172).
att(761,859).
att(774,1084).
att(693,210).
att(754,968).
att(1100,1138).
att(908,75).
att(829,800).
att(758,1122).
att(922,150).
att(686,225).
att(1094,1180).
att(835,866).
att(696,176).
att(697,221).
att(912,96).
att(468,311).
att(921,84).
att(853,459).
att(752,956).
att(607,1135).
att(753,879).
att(915,110).
att(915,108).
att(1100,1289).
att(146,580).
att(149,572).
att(468,306).
att(163,580).
att(698,210).
att(474,312).
att(1104,1222).
att(753,1034).
att(475,307).
att(137,538).
att(921,100).
att(475,305).
att(155,547).
att(475,351).
att(607,1240).
att(752,1017).
att(470,430).
att(925,44).
att(149,544).
att(760,1031).
att(598,802).
att(1102,1278).
att(592,775).
att(760,1008).
att(463,377).
att(1104,1274).
att(698,267).
att(606,1286).
att(585,802).
att(476,1486).
att(505,425).
att(863,962).
att(598,1108).
att(1000,355).
att(872,1127).
att(244,720).
att(367,522).
att(233,674).
att(772,65).
att(475,1479).
att(491,185).
att(231,687).
att(778,53).
att(503,436).
att(1004,352).
att(868,1084).
att(239,677).
att(505,116).
att(598,1091).
att(734,281).
att(640,1139).
att(501,170).
att(766,14).
att(774,68).
att(1018,325).
att(234,648).
att(865,1026).
att(865,1023).
att(1030,459).
att(857,1034).
att(477,1479).
att(940,387).
att(854,811).
att(1014,352).
att(624,1193).
att(1027,332).
att(868,1127).
att(1009,332).
att(598,604).
att(646,1179).
att(766,30).
att(774,17).
att(1001,377).
att(502,170).
att(865,882).
att(770,26).
att(776,14).
att(1001,379).
att(239,726).
att(585,629).
att(641,1181).
att(734,139).
att(359,541).
att(237,723).
att(931,424).
att(353,530).
att(1027,370).
att(605,1090).
att(973,443).
att(603,1101).
att(605,1097).
att(235,724).
att(1018,302).
att(783,66).
att(500,270).
att(870,889).
att(241,712).
att(234,711).
att(1000,418).
att(241,715).
att(592,639).
att(1030,360).
att(641,1244).
att(1024,208).
att(1030,368).
att(642,1185).
att(1004,414).
att(624,1292).
att(943,115).
att(644,1171).
att(736,284).
att(1018,342).
att(500,259).
att(598,639).
att(762,189).
att(603,1245).
att(605,1173).
att(367,659).
att(369,656).
att(369,657).
att(841,924).
att(761,32).
att(1092,645).
att(753,22).
att(606,584).
att(594,1171).
att(474,229).
att(851,882).
att(354,569).
att(365,648).
att(1096,626).
att(353,582).
att(122,743).
att(369,618).
att(603,1235).
att(476,216).
att(605,1175).
att(776,197).
att(369,616).
att(756,7).
att(776,207).
att(598,952).
att(843,838).
att(354,550).
att(601,1231).
att(865,1199).
att(473,1439).
att(601,1227).
att(865,1215).
att(857,1215).
att(1104,632).
att(845,840).
att(363,555).
att(607,590).
att(854,892).
att(867,1196).
att(1104,645).
att(774,151).
att(361,557).
att(603,1290).
att(853,913).
att(863,1077).
att(768,97).
att(501,384).
att(772,109).
att(770,99).
att(849,848).
att(845,860).
att(857,1081).
att(861,1164).
att(491,382).
att(601,1294).
att(854,916).
att(365,702).
att(369,687).
att(603,950).
att(371,675).
att(761,9).
att(943,356).
att(473,1452).
att(946,352).
att(500,136).
att(474,1458).
att(940,311).
att(601,952).
att(750,63).
att(477,1435).
att(369,659).
att(868,1167).
att(363,622).
att(1006,311).
att(1059,387).
att(641,1043).
att(1018,98).
att(809,954).
att(1054,387).
att(1055,346).
att(503,1509).
att(804,1017).
att(1028,77).
att(636,1050).
att(788,1031).
att(627,1105).
att(812,964).
att(1030,77).
att(504,1509).
att(736,62).
att(798,972).
att(505,1501).
att(1028,108).
att(736,13).
att(791,920).
att(973,96).
att(1054,432).
att(624,623).
att(734,28).
att(624,639).
att(1030,108).
att(279,662).
att(282,648).
att(810,1011).
att(896,343).
att(901,335).
att(627,593).
att(666,1183).
att(899,370).
att(279,657).
att(1027,52).
att(668,1224).
att(883,286).
att(295,725).
att(883,280).
att(298,722).
att(278,709).
att(880,276).
att(903,342).
att(1040,31).
att(636,602).
att(762,9).
att(636,599).
att(738,32).
att(1030,44).
att(807,916).
att(275,707).
att(638,626).
att(279,720).
att(666,1245).
att(1059,415).
att(994,184).
att(735,22).
att(807,906).
att(829,1209).
att(901,208).
att(798,836).
att(791,860).
att(288,700).
att(804,840).
att(275,681).
att(801,836).
att(893,286).
att(666,1290).
att(896,289).
att(419,740).
att(1057,186).
att(1059,127).
att(899,276).
att(425,741).
att(670,1294).
att(868,913).
att(278,724).
att(868,907).
att(733,89).
att(937,178).
att(774,6).
att(601,633).
att(931,209).
att(1032,208).
att(498,1437).
att(244,613).
att(636,1275).
att(981,39).
att(1006,117).
att(943,176).
att(981,37).
att(766,9).
att(736,160).
att(1018,143).
att(505,1437).
att(1000,174).
att(737,83).
att(861,866).
att(1018,153).
att(288,724).
att(640,1005).
att(1001,174).
att(991,23).
att(498,1463).
att(734,109).
att(872,836).
att(647,645).
att(1057,33).
att(246,554).
att(874,837).
att(874,844).
att(248,544).
att(273,715).
att(640,934).
att(875,924).
att(244,687).
att(1054,311).
att(237,657).
att(988,306).
att(234,611).
att(810,1074).
att(931,267).
att(867,800).
att(872,856).
att(764,49).
att(791,1116).
att(857,806).
att(1057,310).
att(973,296).
att(1009,206).
att(505,1454).
att(762,53).
att(1057,315).
att(734,71).
att(737,56).
att(764,17).
att(883,335).
att(899,409).
att(1030,194).
att(493,1503).
att(762,73).
att(762,72).
att(981,348).
att(880,409).
att(636,1056).
att(801,1123).
att(874,793).
att(1006,269).
att(829,90).
att(327,728).
att(668,602).
att(883,871).
att(699,1185).
att(330,727).
att(1047,424).
att(693,1233).
att(883,859).
att(833,189).
att(259,744).
att(883,864).
att(900,909).
att(257,740).
att(257,743).
att(259,749).
att(834,189).
att(695,1179).
att(455,550).
att(1053,414).
att(263,743).
att(1110,432).
att(330,715).
att(915,1071).
att(1040,172).
att(334,722).
att(912,1120).
att(1040,176).
att(449,557).
att(900,842).
att(666,633).
att(331,724).
att(663,639).
att(899,869).
att(921,1071).
att(1051,120).
att(1109,418).
att(324,714).
att(831,113).
att(340,718).
att(915,1212).
att(321,714).
att(455,534).
att(445,614).
att(912,967).
att(699,1290).
att(669,633).
att(826,55).
att(699,1288).
att(1040,215).
att(699,1294).
att(442,608).
att(901,869).
att(900,860).
att(910,956).
att(666,643).
att(694,1288).
att(695,1227).
att(908,1122).
att(410,658).
att(903,866).
att(1045,217).
att(452,625).
att(1045,258).
att(915,956).
att(1096,350).
att(910,1034).
att(829,67).
att(1092,306).
att(829,70).
att(442,578).
att(686,996).
att(754,287).
att(686,999).
att(1102,41).
att(445,555).
att(819,67).
att(698,952).
att(915,1088).
att(1104,309).
att(455,588).
att(973,793).
att(1054,169).
att(445,679).
att(791,17).
att(788,14).
att(669,1279).
att(896,970).
att(452,709).
att(994,215).
att(903,1129).
att(663,999).
att(447,652).
att(735,764).
att(823,148).
att(988,260).
att(828,287).
att(890,1011).
att(1107,25).
att(736,732).
att(903,968).
att(737,732).
att(883,887).
att(737,737).
att(896,1008).
att(666,999).
att(738,738).
att(896,1023).
att(732,739).
att(447,611).
att(1051,351).
att(821,251).
att(668,985).
att(899,1026).
att(1054,269).
att(272,744).
att(828,165).
att(691,1181).
att(693,1139).
att(1107,349).
att(901,1026).
att(893,882).
att(1040,381).
att(810,20).
att(407,531).
att(222,743).
att(407,524).
att(807,42).
att(220,741).
att(831,148).
att(668,1038).
att(668,1043).
att(226,741).
att(410,723).
att(880,836).
att(447,702).
att(826,189).
att(801,3).
att(1040,135).
att(670,1050).
att(835,114).
att(901,882).
att(670,1052).
att(218,743).
att(754,58).
att(361,720).
att(757,111).
att(908,800).
att(694,643).
att(598,41).
att(331,553).
att(698,629).
att(354,704).
att(606,414).
att(606,424).
att(1104,120).
att(357,719).
att(1096,166).
att(340,530).
att(475,1229).
att(363,701).
att(757,60).
att(605,33).
att(334,531).
att(753,72).
att(1102,174).
att(353,681).
att(473,1294).
att(923,860).
att(854,1074).
att(851,1112).
att(363,683).
att(847,1081).
att(839,1116).
att(585,319).
att(596,23).
att(603,39).
att(470,996).
att(327,569).
att(605,310).
att(605,315).
att(601,23).
att(841,1011).
att(854,1122).
att(855,1088).
att(758,64).
att(603,23).
att(1096,256).
att(470,985).
att(303,608).
att(1096,264).
att(337,586).
att(946,751).
att(476,996).
att(946,773).
att(847,1023).
att(476,1058).
att(780,294).
att(321,553).
att(473,996).
att(841,887).
att(592,355).
att(760,68).
att(853,1034).
att(758,18).
att(469,990).
att(854,970).
att(931,781).
att(330,522).
att(327,531).
att(768,292).
att(1096,390).
att(754,148).
att(1098,346).
att(754,114).
att(908,882).
att(826,15).
att(1100,305).
att(919,1034).
att(695,983).
att(828,17).
att(759,300).
att(691,1038).
att(607,311).
att(686,1091).
att(327,608).
att(334,654).
att(828,36).
att(756,251).
att(340,625).
att(834,16).
att(698,977).
att(606,352).
att(908,892).
att(463,1183).
att(819,42).
att(476,1139).
att(915,918).
att(1106,428).
att(334,716).
att(912,838).
att(449,530).
att(327,704).
att(917,916).
att(468,1185).
att(468,1193).
att(606,390).
att(698,1046).
att(173,741).
att(752,189).
att(340,709).
att(754,107).
att(337,700).
att(753,111).
att(847,1199).
att(925,836).
att(925,844).
att(695,581).
att(324,687).
att(1092,184).
att(314,658).
att(303,708).
att(1094,424).
att(321,673).
att(340,681).
att(469,1177).
att(330,659).
att(469,1241).
att(835,2).
att(908,850).
att(515,660).
att(770,865).
att(1281,605).
att(1275,636).
att(867,139).
att(874,294).
att(305,748).
att(774,857).
att(776,870).
att(947,647).
att(768,812).
att(778,863).
att(490,658).
att(1090,1403).
att(861,114).
att(950,592).
att(950,603).
att(854,19).
att(772,801).
att(497,625).
att(950,647).
att(854,14).
att(854,18).
att(847,6).
att(1279,666).
att(1018,1202).
att(495,713).
att(774,798).
att(1018,1196).
att(471,528).
att(770,829).
att(490,721).
att(865,91).
att(950,640).
att(1095,1405).
att(509,674).
att(509,672).
att(517,681).
att(1097,1403).
att(734,1021).
att(768,752).
att(947,670).
att(1273,470).
att(734,1035).
att(868,78).
att(509,660).
att(734,1028).
att(1281,693).
att(1101,1404).
att(948,670).
att(507,662).
att(778,834).
att(1281,695).
att(950,693).
att(854,6).
att(1103,1407).
att(854,9).
att(1283,689).
att(867,105).
att(1105,1409).
att(519,659).
att(854,1).
att(762,1009).
att(753,756).
att(1227,695).
att(487,538).
att(851,85).
att(1048,1410).
att(479,528).
att(758,833).
att(1108,1409).
att(761,810).
att(845,111).
att(513,726).
att(1231,695).
att(471,566).
att(509,712).
att(1233,693).
att(519,715).
att(855,191).
att(465,538).
att(1233,695).
att(1227,693).
att(755,755).
att(753,780).
att(756,753).
att(519,712).
att(1273,1045).
att(947,1000).
att(471,553).
att(1288,699).
att(772,890).
att(471,547).
att(509,710).
att(483,528).
att(497,719).
att(845,49).
att(851,103).
att(759,760).
att(1290,699).
att(513,715).
att(1283,997).
att(950,1000).
att(1233,469).
att(845,55).
att(853,111).
att(1287,477).
att(1288,472).
att(460,660).
att(768,912).
att(947,997).
att(847,58).
att(471,662).
att(483,625).
att(766,905).
att(853,60).
att(755,733).
att(854,97).
att(1292,463).
att(780,880).
att(1292,472).
att(854,105).
att(471,657).
att(760,760).
att(487,580).
att(1233,498).
att(309,740).
att(761,761).
att(309,747).
att(841,20).
att(948,1042).
att(948,1110).
att(479,538).
att(845,17).
att(783,905).
att(758,739).
att(867,281).
att(24,749).
att(759,732).
att(774,901).
att(1287,505).
att(591,1376).
att(791,76).
att(1181,128).
att(863,2).
att(1181,187).
att(584,1403).
att(814,154).
att(1032,882).
att(762,810).
att(812,157).
att(447,730).
att(762,788).
att(973,1031).
att(1188,416).
att(407,566).
att(396,553).
att(893,1209).
att(883,1068).
att(1024,846).
att(602,1402).
att(896,1167).
att(407,557).
att(1005,627).
att(870,3).
att(442,722).
att(945,664).
att(801,202).
att(764,833).
att(999,627).
att(999,638).
att(1185,229).
att(373,709).
att(900,1202).
att(973,844).
att(791,62).
att(398,658).
att(394,660).
att(990,931).
att(1136,268).
att(403,673).
att(942,698).
att(1030,840).
att(883,1079).
att(762,752).
att(798,91).
att(376,674).
att(928,493).
att(736,752).
att(900,1084).
att(939,468).
att(403,660).
att(405,654).
att(812,105).
att(1028,859).
att(737,752).
att(1181,1439).
att(764,764).
att(901,1081).
att(990,991).
att(1192,222).
att(812,97).
att(883,1123).
att(764,783).
att(1035,862).
att(983,1051).
att(1279,473).
att(374,727).
att(766,766).
att(1018,1116).
att(401,721).
att(950,695).
att(1027,1116).
att(739,1027).
att(1035,1037).
att(1035,1036).
att(394,711).
att(1024,1112).
att(861,111).
att(1003,1006).
att(37,744).
att(1003,1014).
att(35,741).
att(772,750).
att(857,56).
att(398,679).
att(1018,956).
att(1018,966).
att(764,845).
att(398,683).
att(774,774).
att(863,69).
att(930,1098).
att(39,742).
att(776,776).
att(39,745).
att(376,706).
att(950,477).
att(762,922).
att(1032,1129).
att(407,683).
att(999,1042).
att(868,73).
att(1028,968).
att(1018,1017).
att(939,1109).
att(11,741).
att(776,764).
att(774,783).
att(492,586).
att(1018,970).
att(875,60).
att(733,857).
att(810,300).
att(1188,427).
att(791,189).
att(407,722).
att(591,1339).
att(490,566).
att(807,160).
att(1181,419).
att(1003,1094).
att(807,157).
att(1003,607).
att(1018,1034).
att(595,1341).
att(736,915).
att(1035,1020).
att(517,530).
att(519,522).
att(1235,175).
att(987,671).
att(977,698).
att(810,757).
att(829,893).
att(901,113).
att(565,702).
att(903,99).
att(903,111).
att(1056,636).
att(903,113).
att(993,671).
att(905,111).
att(1188,1506).
att(639,1409).
att(1235,224).
att(1044,994).
att(900,63).
att(826,912).
att(1237,212).
att(883,14).
att(893,67).
att(812,768).
att(983,469).
att(1058,665).
att(1245,229).
att(556,708).
att(558,701).
att(905,60).
att(812,750).
att(1235,216).
att(1044,1040).
att(809,738).
att(900,72).
att(821,865).
att(826,843).
att(890,20).
att(810,732).
att(901,72).
att(833,910).
att(1039,1110).
att(835,915).
att(379,740).
att(1241,263).
att(821,847).
att(1043,1053).
att(1052,994).
att(821,804).
att(828,868).
att(893,26).
att(912,201).
att(1039,1106).
att(1039,1102).
att(900,17).
att(546,722).
att(925,294).
att(552,720).
att(552,717).
att(919,139).
att(1058,476).
att(899,30).
att(549,720).
att(1241,1438).
att(1139,1463).
att(987,1045).
att(893,158).
att(810,841).
att(810,839).
att(791,791).
att(1056,978).
att(896,157).
att(1005,476).
att(883,158).
att(936,493).
att(945,502).
att(814,839).
att(807,867).
att(809,867).
att(1235,384).
att(883,91).
att(1235,427).
att(987,1102).
att(987,606).
att(1237,429).
att(1024,8).
att(804,804).
att(798,874).
att(1175,131).
att(807,807).
att(900,201).
att(1235,416).
att(823,1032).
att(1136,1496).
att(987,594).
att(1235,421).
att(1171,126).
att(1181,1486).
att(987,600).
att(1181,1490).
att(1028,3).
att(1235,144).
att(810,810).
att(1244,382).
att(812,801).
att(993,592).
att(1239,421).
att(812,812).
att(893,105).
att(987,638).
att(798,757).
att(831,1032).
att(623,1409).
att(1193,1505).
att(980,646).
att(1239,116).
att(1239,126).
att(903,85).
att(1175,168).
att(637,1374).
att(629,1405).
att(1175,230).
att(1287,226).
att(1287,220).
att(465,702).
att(908,18).
att(841,300).
att(1288,218).
att(487,675).
att(1097,1057).
att(828,762).
att(917,64).
att(826,764).
att(919,64).
att(761,890).
att(919,68).
att(1294,229).
att(1231,263).
att(841,162).
att(912,36).
att(758,839).
att(1101,981).
att(485,648).
att(758,854).
att(759,841).
att(755,857).
att(845,157).
att(1231,1434).
att(853,292).
att(1231,1437).
att(752,843).
att(908,19).
att(1287,1437).
att(1048,491).
att(465,727).
att(1091,1098).
att(754,788).
att(851,148).
att(1099,1109).
att(1288,1438).
att(1091,1100).
att(1101,1053).
att(1290,1454).
att(467,719).
att(1273,436).
att(853,148).
att(1292,1438).
att(847,191).
att(849,203).
att(1097,605).
att(1091,585).
att(546,524).
att(1091,598).
att(1099,1100).
att(1281,419).
att(759,810).
att(917,2).
att(1275,144).
att(950,429).
att(921,6).
att(1095,600).
att(489,679).
att(1235,1463).
att(819,819).
att(1048,1094).
att(1227,132).
att(552,572).
att(1058,498).
att(1041,607).
att(903,28).
att(1043,600).
att(1233,416).
att(835,861).
att(487,726).
att(1044,644).
att(1287,425).
att(754,1028).
att(546,578).
att(826,826).
att(922,189).
att(828,823).
att(923,191).
att(552,544).
att(921,83).
att(829,819).
att(829,831).
att(1231,122).
att(835,788).
att(1050,647).
att(489,721).
att(908,91).
att(1044,665).
att(754,903).
att(1244,1503).
att(1244,1499).
att(1041,663).
att(563,660).
att(1294,118).
att(923,78).
att(1224,177).
att(558,683).
att(834,834).
att(1043,667).
att(835,823).
att(1043,665).
att(915,90).
att(1241,1510).
att(1287,116).
att(1292,227).
att(908,64).
att(1046,670).
att(1287,227).
att(1229,216).
att(1048,665).
att(1288,229).
att(356,749).
att(761,1024).
att(1294,128).
att(829,770).
att(921,55).
att(847,804).
att(1288,1373).
att(1229,1405).
att(847,823).
att(847,821).
att(1292,1407).
att(843,752).
att(870,973).
att(857,901).
att(854,833).
att(861,1021).
att(857,899).
att(854,819).
att(861,1028).
att(855,780).
att(841,732).
att(875,973).
att(867,919).
att(854,752).
att(854,758).
att(854,1027).
att(917,750).
att(922,752).
att(121,744).
att(121,748).
att(915,736).
att(125,742).
att(839,839).
att(917,732).
att(915,732).
att(120,744).
att(921,738).
att(839,922).
att(845,845).
att(847,847).
att(853,853).
att(847,865).
att(841,810).
att(1229,1381).
att(1290,1381).
att(854,849).
att(843,804).
att(854,854).
att(1292,1339).
att(861,754).
att(1021,99).
att(1028,76).
att(1181,1001).
att(861,835).
att(1009,64).
att(857,733).
att(1018,58).
att(875,759).
att(1179,1055).
att(863,778).
att(1021,60).
att(1028,97).
att(1193,946).
att(798,1027).
att(857,780).
att(1018,113).
att(1183,1055).
att(1193,1004).
att(867,780).
att(868,774).
att(791,839).
att(861,738).
att(1035,64).
att(861,736).
att(1181,1049).
att(867,738).
att(1192,1057).
att(807,915).
att(1183,1049).
att(1035,49).
att(791,922).
att(1188,978).
att(875,764).
att(809,910).
att(809,919).
att(870,764).
att(1030,68).
att(1027,14).
att(857,857).
att(847,762).
att(872,922).
att(863,843).
att(415,743).
att(1275,1340).
att(874,925).
att(872,919).
att(855,774).
att(875,890).
att(868,853).
att(1024,148).
att(868,868).
att(1283,1402).
att(1032,148).
att(867,809).
att(872,872).
att(875,841).
att(875,839).
att(791,1009).
att(973,189).
att(1018,85).
att(1235,981).
att(890,841).
att(890,839).
att(1028,732).
att(258,744).
att(883,863).
att(1173,1057).
att(1193,697).
att(1244,1000).
att(1239,1059).
att(1235,1053).
att(883,810).
att(1192,493).
att(1235,1107).
att(883,788).
att(1192,505).
att(903,855).
att(1241,1051).
att(1245,1055).
att(980,1340).
att(903,861).
att(1244,1047).
att(901,865).
att(896,812).
att(1175,605).
att(1245,1049).
att(977,1374).
att(899,755).
att(893,819).
att(893,829).
att(1245,1098).
att(901,788).
att(1241,585).
att(899,823).
att(928,1379).
att(1181,600).
att(1028,788).
att(1136,647).
att(1192,1100).
att(1030,804).
att(945,1341).
att(1024,823).
att(936,1379).
att(1009,778).
att(880,880).
att(1192,640).
att(1018,754).
att(1183,667).
att(1188,596).
att(1032,823).
att(899,1027).
att(1134,689).
att(1181,667).
att(900,1030).
att(901,1027).
att(1003,1394).
att(221,740).
att(893,893).
att(1024,776).
att(1185,667).
att(999,1381).
att(1181,691).
att(1235,937).
att(1035,732).
att(900,900).
att(1237,943).
att(903,900).
att(896,922).
att(1183,472).
att(893,917).
att(1193,661).
att(1005,1405).
att(896,912).
att(1005,1404).
att(1027,739).
att(1177,978).
att(899,910).
att(905,905).
att(1237,499).
att(1227,1104).
att(1244,499).
att(912,812).
att(1224,1100).
att(1290,1053).
att(1292,1042).
att(1233,1104).
att(908,823).
att(1227,601).
att(919,809).
att(917,801).
att(921,809).
att(908,758).
att(1041,1365).
att(1224,664).
att(919,821).
att(922,804).
att(1043,1380).
att(1046,1374).
att(1041,1394).
att(1041,1403).
att(1224,686).
att(1041,1410).
att(851,1024).
att(841,973).
att(921,753).
att(1287,624).
att(923,821).
att(980,1405).
att(900,826).
att(990,1405).
att(1237,666).
att(883,762).
att(912,910).
att(228,745).
att(883,732).
att(919,901).
att(910,910).
att(893,770).
att(923,1032).
att(1231,1000).
att(180,742).
att(987,1403).
att(1227,978).
att(915,915).
att(1290,940).
att(899,733).
att(1177,469).
att(1231,991).
att(1233,978).
att(921,921).
att(1292,1055).
att(1288,1054).
att(922,922).
att(903,736).
att(901,733).
att(1241,469).
att(900,764).
att(922,910).
att(1290,1054).
att(915,922).
att(908,854).
att(1235,475).
att(1235,476).
att(590,270).
att(936,1173).
att(599,229).
att(928,1229).
att(1281,602).
att(939,1179).
att(1285,590).
att(1005,1139).
att(1003,1193).
att(1279,590).
att(1285,604).
att(948,595).
att(945,1294).
att(936,1229).
att(1134,31).
att(591,266).
att(950,637).
att(948,626).
att(928,936).
att(591,1436).
att(623,384).
att(632,429).
att(930,930).
att(952,639).
att(595,1438).
att(947,626).
att(1139,25).
att(637,427).
att(593,1454).
att(581,1487).
att(1181,312).
att(928,1058).
att(942,942).
att(1192,39).
att(1192,35).
att(947,948).
att(948,947).
att(948,948).
att(1103,1432).
att(1095,1460).
att(584,436).
att(584,437).
att(1099,1462).
att(950,934).
att(1103,1462).
att(1275,1056).
att(581,144).
att(950,1005).
att(1103,1465).
att(1097,1483).
att(1285,980).
att(590,168).
att(1091,1509).
att(1101,1479).
att(1101,1489).
att(590,229).
att(1093,1509).
att(593,118).
att(1275,1052).
att(950,993).
att(950,1058).
att(595,118).
att(604,124).
att(1273,590).
att(590,218).
att(1281,1090).
att(948,1050).
att(928,1173).
att(936,1192).
att(584,179).
att(950,1052).
att(629,1438).
att(1030,899).
att(1024,923).
att(939,643).
att(626,268).
att(945,632).
att(1018,903).
att(1009,917).
att(1058,1171).
att(1175,33).
att(999,645).
att(1181,176).
att(623,1460).
att(635,1433).
att(1192,178).
att(1237,29).
att(980,1285).
att(980,1279).
att(1005,632).
att(1056,1227).
att(1239,39).
att(993,952).
att(629,1460).
att(999,639).
att(1239,37).
att(1175,356).
att(1177,305).
att(645,1436).
att(1009,788).
att(1018,861).
att(977,977).
att(1171,305).
att(1136,256).
att(626,1483).
att(1056,1275).
att(983,983).
att(1018,855).
att(637,1459).
att(1056,947).
att(983,990).
att(985,1050).
att(990,983).
att(1192,262).
att(993,993).
att(1175,345).
att(1193,221).
att(1239,355).
att(983,1108).
att(1005,999).
att(1188,311).
att(999,999).
att(602,1483).
att(1003,1003).
att(635,437).
att(928,1097).
att(1009,1009).
att(633,118).
att(593,1505).
att(930,1093).
att(633,132).
att(1193,352).
att(936,1097).
att(1181,378).
att(1193,347).
att(629,216).
att(945,1091).
att(983,1177).
att(1028,1035).
att(1028,1028).
att(990,1177).
att(1030,1030).
att(980,1171).
att(980,1237).
att(945,593).
att(1233,309).
att(1235,176).
att(1227,311).
att(1048,1273).
att(1229,25).
att(1239,169).
att(1175,223).
att(1171,262).
att(1235,219).
att(1287,318).
att(1244,215).
att(1287,315).
att(1229,305).
att(1229,311).
att(1041,945).
att(1244,176).
att(1108,952).
att(1043,987).
att(1292,311).
att(1229,344).
att(1294,311).
att(1290,352).
att(1044,1044).
att(1095,1185).
att(1046,1050).
att(1046,1046).
att(1048,1048).
att(1224,385).
att(1090,1134).
att(1050,1050).
att(1290,387).
att(985,1105).
att(1171,377).
att(1171,432).
att(635,1501).
att(1244,352).
att(1244,350).
att(1038,1185).
att(1239,387).
att(990,1095).
att(980,591).
att(1048,1134).
att(983,595).
att(1050,1136).
att(1038,1245).
att(996,1105).
att(1237,424).
att(1056,581).
att(1244,381).
att(1043,1231).
att(1175,186).
att(1241,418).
att(1043,1227).
att(1177,125).
att(985,639).
att(1177,174).
att(990,623).
att(1046,1229).
att(1041,1273).
att(1056,626).
att(1173,186).
att(1041,1294).
att(1097,980).
att(1227,269).
att(1229,262).
att(1279,351).
att(1279,349).
att(1290,221).
att(950,309).
att(1292,221).
att(1089,1089).
att(950,355).
att(1287,262).
att(1095,1108).
att(1105,1108).
att(1275,383).
att(1090,1097).
att(1095,1095).
att(948,377).
att(948,383).
att(599,1185).
att(950,378).
att(1103,1097).
att(1103,1103).
att(1103,1099).
att(1097,597).
att(1046,1095).
att(1097,1175).
att(1095,1245).
att(1048,1089).
att(1039,602).
att(1108,1108).
att(1043,602).
att(1095,1171).
att(1091,1224).
att(1229,117).
att(1091,1292).
att(1290,414).
att(1050,595).
att(1095,1229).
att(1095,952).
att(1287,127).
att(1279,29).
att(1101,1233).
att(1091,952).
att(1090,1281).
att(1231,178).
att(1103,1292).
att(952,41).
att(1105,952).
att(1279,318).
att(1093,930).
att(1290,169).
att(947,268).
att(590,1094).
att(948,268).
att(591,1047).
att(584,1109).
att(602,997).
att(1285,1427).
att(947,254).
att(1279,1461).
att(1273,1486).
att(599,1049).
att(1275,1483).
att(928,425).
att(593,1109).
att(930,436).
att(599,1098).
att(597,605).
att(945,136).
att(597,601).
att(936,425).
att(928,116).
att(584,624).
att(581,647).
att(939,433).
att(1005,384).
att(1285,1488).
att(1134,1134).
att(939,118).
att(593,638).
att(581,671).
att(950,1486).
att(1003,136).
att(1139,1139).
att(1285,124).
att(1290,1505).
att(1273,229).
att(1275,168).
att(950,421).
att(1103,605).
att(1099,634).
att(1273,218).
att(1089,696).
att(1093,663).
att(1101,646).
att(1101,642).
att(1103,624).
att(950,126).
att(1275,229).
att(1095,661).
att(1275,230).
att(1279,212).
att(591,931).
att(1275,254).
att(1103,664).
att(1285,212).
att(1099,664).
att(597,1057).
att(590,1047).
att(1093,472).
att(1139,1058).
att(987,382).
att(928,1491).
att(987,436).
att(1192,928).
att(1003,1461).
att(980,384).
att(626,1098).
att(980,386).
att(643,1053).
att(945,1452).
att(1005,1437).
att(983,134).
att(629,646).
att(996,134).
att(987,419).
att(1003,1485).
att(626,592).
att(635,1100).
att(1005,1463).
att(993,144).
att(1177,1179).
att(1181,1043).
att(939,1501).
att(1177,1188).
att(635,624).
att(1003,1508).
att(1177,1241).
att(1134,602).
att(1136,581).
att(1171,1171).
att(1136,595).
att(1235,1188).
att(1003,1509).
att(626,670).
att(626,671).
att(1175,1175).
att(1239,1183).
att(1139,1171).
att(928,226).
att(1181,1181).
att(947,1496).
att(629,1055).
att(936,226).
att(936,222).
att(633,937).
att(584,468).
att(939,222).
att(584,696).
att(1192,1139).
att(590,463).
att(945,214).
att(1193,1193).
att(629,1049).
att(945,1439).
att(590,503).
att(934,1436).
att(1181,1224).
att(939,271).
att(637,978).
att(643,940).
att(945,257).
att(629,1042).
att(1139,1005).
att(1181,1283).
att(928,1463).
att(1136,947).
att(1192,1229).
att(1192,1292).
att(1139,934).
att(599,463).
att(1044,185).
att(1052,144).
att(1173,1056).
att(1041,134).
att(1244,999).
att(996,1486).
att(1241,990).
att(985,1508).
att(987,1485).
att(1173,1097).
att(1227,1179).
att(1244,1039).
att(1244,987).
att(1052,126).
att(1241,1108).
att(1233,1139).
att(1292,1193).
att(1048,170).
att(1224,1224).
att(1043,216).
att(1231,1177).
att(1241,1105).
att(1044,218).
att(1292,1245).
att(1287,1173).
att(1227,1227).
att(1039,268).
att(1244,584).
att(1294,1179).
att(1231,1231).
att(1231,1227).
att(1233,1233).
att(633,693).
att(1136,626).
att(1235,1235).
att(1181,602).
att(635,689).
att(1173,1227).
att(643,667).
att(980,222).
att(1139,632).
att(1175,1231).
att(1241,1241).
att(1239,1290).
att(1244,1244).
att(643,699).
att(635,493).
att(977,1460).
att(643,472).
att(1056,268).
att(993,1434).
att(1244,1292).
att(1239,950).
att(1177,942).
att(1177,990).
att(1052,429).
att(1237,939).
att(1058,1437).
att(1177,996).
att(1046,1506).
att(1229,1095).
att(1091,177).
att(1224,1105).
att(1275,1134).
att(1275,1188).
att(1285,1237).
att(1229,595).
att(948,1136).
att(1099,227).
att(1279,1237).
att(1101,175).
att(1281,1173).
att(1290,595).
att(1224,604).
att(1275,1245).
att(1103,227).
att(1227,633).
att(1229,623).
att(1089,1431).
att(1294,595).
att(1089,1437).
att(1229,645).
att(1281,1233).
att(1292,595).
att(1231,645).
att(950,1235).
att(950,1245).
att(1099,254).
att(1285,1279).
att(1279,1279).
att(1281,1283).
att(1281,1281).
att(1285,1285).
att(1244,623).
att(1288,1290).
att(1089,384).
att(1288,1288).
att(1050,254).
att(1229,1294).
att(1290,1290).
att(1245,599).
att(1290,1288).
att(1290,1294).
att(1235,637).
att(1292,1292).
att(1227,934).
att(1041,1459).
att(1052,1434).
att(1046,1454).
att(1224,996).
att(1090,131).
att(1039,1496).
att(1233,1108).
att(1227,1052).
att(1091,128).
att(1050,1496).
att(1273,1185).
att(1231,1046).
att(1231,1108).
att(1052,1487).
att(1046,1479).
att(1233,1052).
att(132,253).
att(1434,1052).
att(122,388).
att(1452,1139).
att(118,346).
att(1437,1058).
att(1431,1089).
att(1427,584).
att(124,385).
att(116,130).
att(126,430).
att(1433,1099).
att(1461,1245).
att(1435,1105).
att(182,428).
att(118,120).
att(1436,1108).
att(1437,1095).
att(187,385).
att(1431,632).
att(183,417).
att(1463,1171).
att(122,184).
att(173,35).
att(1460,1171).
att(187,415).
att(1433,635).
att(1438,595).
att(1433,645).
att(182,414).
att(265,595).
att(131,424).
att(266,591).
att(136,417).
att(270,590).
att(136,420).
att(131,417).
att(1438,1294).
att(421,169).
att(421,178).
att(268,626).
att(1439,593).
att(131,115).
att(419,215).
att(122,319).
att(144,184).
att(136,171).
att(132,210).
att(132,215).
att(421,253).
att(144,210).
att(1432,977).
att(1432,942).
att(423,262).
att(1428,996).
att(1433,977).
att(1437,999).
att(1462,1103).
att(227,346).
att(1489,1185).
att(1452,593).
att(1464,1052).
att(1463,1095).
att(1488,1237).
att(1459,595).
att(177,424).
att(1465,1090).
att(181,415).
att(1465,1103).
att(1462,635).
att(181,184).
att(1489,1227).
att(227,133).
att(175,127).
att(1489,1290).
att(1460,629).
att(1460,623).
att(1483,1283).
att(226,11).
att(220,11).
att(220,33).
att(212,29).
att(1488,1273).
att(1463,629).
att(227,120).
att(116,209).
att(173,25).
att(124,184).
att(1437,632).
att(1460,1229).
att(185,123).
att(116,262).
att(173,350).
att(227,41).
att(175,37).
att(187,174).
att(1465,1283).
att(1462,934).
att(1462,977).
att(1458,1038).
att(1463,1005).
att(1452,1039).
att(124,267).
att(118,269).
att(1461,977).
att(168,377).
att(177,347).
att(1465,977).
att(272,426).
att(272,428).
att(226,130).
att(1486,595).
att(429,786).
att(1487,581).
att(380,1141).
att(214,420).
att(431,786).
att(1507,1179).
att(433,824).
att(1486,645).
att(380,1178).
att(214,171).
att(1499,1283).
att(222,133).
att(436,785).
att(436,824).
att(1507,1245).
att(272,422).
att(1510,1241).
att(1496,947).
att(1503,999).
att(382,1182).
att(436,816).
att(1499,952).
att(226,166).
att(261,311).
att(261,352).
att(261,350).
att(427,1238).
att(1509,999).
att(224,215).
att(384,1222).
att(224,219).
att(437,1182).
att(1501,999).
att(261,351).
att(1486,934).
att(220,310).
att(214,25).
att(179,210).
att(1487,952).
att(222,318).
att(1488,980).
att(271,318).
att(224,355).
att(433,767).
att(272,356).
att(1479,1095).
att(222,344).
att(222,350).
att(1488,1043).
att(272,307).
att(1496,1136).
att(218,422).
att(386,824).
att(1489,1101).
att(382,794).
att(222,390).
att(1481,1091).
att(1481,1105).
att(384,786).
att(1488,1091).
att(431,792).
att(433,765).
att(265,117).
att(1506,626).
att(425,1191).
att(131,1147).
att(436,989).
att(1439,420).
att(257,209).
att(265,169).
att(416,1223).
att(144,815).
att(144,1143).
att(416,1238).
att(1428,24).
att(1434,306).
att(265,225).
att(257,269).
att(1434,355).
att(259,260).
att(421,1232).
att(1431,351).
att(421,1238).
att(1427,349).
att(1433,308).
att(263,253).
att(263,262).
att(128,769).
att(265,264).
att(421,1282).
att(416,933).
att(124,751).
att(1436,306).
att(1436,319).
att(261,390).
att(257,347).
att(222,264).
att(266,306).
att(224,253).
att(431,1223).
att(266,319).
att(1439,24).
att(1496,1050).
att(261,346).
att(131,779).
att(257,379).
att(265,387).
att(1506,1046).
att(1507,996).
att(436,1228).
att(1510,990).
att(136,792).
att(380,982).
att(257,428).
att(1507,1048).
att(1496,595).
att(416,825).
att(268,383).
att(386,975).
att(134,792).
att(427,933).
att(261,133).
att(1509,593).
att(263,125).
att(265,133).
att(266,424).
att(1439,378).
att(1501,602).
att(1439,379).
att(261,120).
att(136,784).
att(136,825).
att(187,1181).
att(183,1136).
att(416,637).
att(1439,1507).
att(1428,222).
att(897,538).
att(1434,216).
att(122,1233).
att(144,581).
att(124,1224).
att(183,1237).
att(1428,1428).
att(144,1105).
att(897,530).
att(1428,265).
att(423,643).
att(118,1294).
att(425,623).
att(183,1231).
att(891,656).
att(1432,1432).
att(1428,1436).
att(187,1224).
att(897,625).
att(1434,1464).
att(1462,433).
att(183,1279).
att(116,1058).
att(1432,1460).
att(1437,1437).
att(886,557).
att(1433,1462).
att(1433,1465).
att(263,1459).
att(131,1279).
att(257,1461).
att(886,677).
att(894,710).
att(259,1461).
att(421,950).
att(878,677).
att(1439,259).
att(1510,469).
att(268,1434).
att(1428,431).
att(886,660).
att(423,939).
att(423,999).
att(1433,144).
att(1434,144).
att(254,1496).
att(421,996).
att(1439,1437).
att(891,672).
att(1428,419).
att(136,1005).
att(263,1510).
att(421,1043).
att(132,996).
att(1431,126).
att(259,1507).
att(1433,118).
att(888,724).
att(136,1058).
att(894,718).
att(884,702).
att(132,1052).
att(266,1509).
att(421,1101).
att(1428,170).
att(118,1179).
att(891,712).
att(1428,177).
att(1428,229).
att(1438,128).
att(1465,271).
att(168,1275).
att(187,584).
att(187,604).
att(229,1245).
att(173,928).
att(173,936).
att(227,1229).
att(227,1292).
att(1459,1438).
att(177,1292).
att(230,1231).
att(187,645).
att(1462,1459).
att(1462,1465).
att(1460,1460).
att(1461,1461).
att(1488,386).
att(1465,1438).
att(1488,431).
att(1462,1487).
att(1488,131).
att(1452,1507).
att(1464,1464).
att(1465,1462).
att(1490,429).
att(122,983).
att(1434,1487).
att(1462,423).
att(1463,384).
att(1431,1491).
att(1459,134).
att(124,987).
att(1433,1483).
att(1460,429).
att(1437,1463).
att(122,1108).
att(1432,1506).
att(1437,1486).
att(187,985).
att(182,1050).
att(175,1139).
att(118,595).
att(1460,170).
att(124,1108).
att(168,1188).
att(116,629).
att(182,1105).
att(183,1089).
att(1452,257).
att(1452,259).
att(124,604).
att(229,1183).
att(963,660).
att(222,1283).
att(1486,1436).
att(957,616).
att(222,1288).
att(230,626).
att(431,10).
att(227,629).
att(224,950).
att(272,1227).
att(953,611).
att(953,613).
att(226,936).
att(272,948).
att(957,582).
att(958,578).
att(1485,1490).
att(222,934).
att(955,586).
att(382,305).
att(953,576).
att(214,945).
att(222,947).
att(436,31).
att(953,574).
att(1483,1483).
att(958,557).
att(271,948).
att(965,566).
att(226,928).
att(953,566).
att(1491,1431).
att(1485,1499).
att(1503,182).
att(1479,1506).
att(957,675).
att(214,1041).
att(1507,431).
att(1488,1481).
att(955,673).
att(1488,1488).
att(272,1003).
att(433,351).
att(263,1179).
att(380,426).
att(214,1095).
att(222,1050).
att(263,1188).
att(214,1091).
att(257,1179).
att(1507,118).
att(1499,182).
att(224,1052).
att(1488,1507).
att(1119,544).
att(958,716).
att(965,723).
att(1119,538).
att(1489,126).
att(1463,1486).
att(179,1050).
att(955,715).
att(1128,555).
att(1121,522).
att(1461,1507).
att(173,1089).
att(959,722).
att(1126,555).
att(173,1097).
att(1126,557).
att(958,702).
att(1124,559).
att(1489,175).
att(226,1192).
att(175,1101).
att(963,712).
att(168,602).
att(212,1171).
att(955,708).
att(220,1192).
att(1487,126).
att(1481,177).
att(1490,126).
att(179,1105).
att(224,1183).
att(1489,224).
att(177,604).
att(1128,622).
att(1121,576).
att(226,1229).
att(386,31).
att(1124,620).
att(175,643).
att(212,1285).
att(220,1287).
att(955,730).
att(1115,566).
att(1111,541).
att(1490,216).
att(957,722).
att(229,599).
att(214,1294).
att(1121,550).
att(230,602).
att(953,723).
att(1507,1452).
att(1507,1461).
att(382,264).
att(1496,1496).
att(259,942).
att(266,952).
att(1507,1438).
att(998,553).
att(259,999).
att(134,311).
att(386,262).
att(423,350).
att(1506,1479).
att(257,1044).
att(1499,1505).
att(131,349).
att(131,356).
att(1007,559).
att(1501,1503).
att(259,1044).
att(421,348).
att(436,258).
att(266,999).
att(254,1050).
att(421,355).
att(884,722).
att(1510,1459).
att(268,993).
att(1007,554).
att(1433,1179).
att(1506,1503).
att(263,1105).
att(1015,656).
att(419,428).
att(1431,1185).
att(1507,1507).
att(132,355).
att(144,306).
att(1508,1496).
att(1016,677).
att(1428,1185).
att(1509,1503).
att(1015,618).
att(1428,1181).
att(261,1105).
att(998,618).
att(1433,1134).
att(1433,1136).
att(1509,1509).
att(131,379).
att(1015,616).
att(136,381).
att(261,599).
att(218,593).
att(261,1245).
att(263,1171).
att(429,378).
att(429,430).
att(1033,715).
att(272,1050).
att(218,590).
att(1508,181).
att(1007,704).
att(427,415).
att(1025,701).
att(380,115).
att(263,1229).
att(214,629).
att(1499,254).
att(214,604).
att(1496,254).
att(1507,229).
att(1501,222).
att(272,1091).
att(1496,268).
att(226,597).
att(261,1229).
att(1015,727).
att(1015,730).
att(425,35).
att(1012,727).
att(271,623).
att(1015,722).
att(1507,259).
att(224,633).
att(958,531).
att(254,947).
att(963,555).
att(254,948).
att(958,524).
att(963,557).
att(380,213).
att(998,713).
att(131,29).
att(265,947).
att(429,176).
att(1507,1432).
att(416,23).
att(1507,1439).
att(1510,263).
att(433,166).
att(421,37).
att(437,184).
att(1025,720).
att(268,947).
att(268,948).
att(423,318).
att(1435,979).
att(1462,1143).
att(1070,706).
att(1063,683).
att(1073,700).
att(1067,707).
att(1067,711).
att(1070,700).
att(1438,992).
att(1465,815).
att(1460,815).
att(1067,681).
att(1464,818).
att(1464,1143).
att(1462,1168).
att(1076,726).
att(1166,586).
att(1063,714).
att(1070,724).
att(1461,1168).
att(1078,724).
att(1166,553).
att(1461,1222).
att(1214,526).
att(1198,580).
att(1438,1291).
att(1461,779).
att(1427,932).
att(930,740).
att(1427,927).
att(1432,1276).
att(1187,550).
att(1187,553).
att(1432,1286).
att(1438,1222).
att(934,743).
att(1465,767).
att(1462,799).
att(1428,975).
att(1452,796).
att(1195,679).
att(1459,792).
att(1187,616).
att(1124,711).
att(1128,701).
att(1124,709).
att(1481,1132).
att(1490,818).
att(1126,683).
att(1128,683).
att(1488,1234).
att(1126,672).
att(1491,1178).
att(1485,1286).
att(1111,616).
att(1119,717).
att(1503,767).
att(1485,1278).
att(1479,1276).
att(1481,1225).
att(1067,520).
att(1501,782).
att(1489,1274).
att(1489,1282).
att(950,743).
att(1126,712).
att(1115,709).
att(1501,777).
att(1462,949).
att(1114,727).
att(1063,550).
att(1273,744).
att(1073,550).
att(1452,974).
att(1454,974).
att(1452,1002).
att(1073,662).
att(1489,820).
att(1073,650).
att(1086,660).
att(1070,650).
att(1461,974).
att(1461,979).
att(1461,992).
att(1488,786).
att(1479,1146).
att(1490,786).
att(1490,825).
att(1149,726).
att(1091,743).
att(1496,1223).
att(1307,550).
att(1179,1341).
att(1503,1278).
att(1155,715).
att(1507,1223).
att(1163,713).
att(1155,710).
att(1269,672).
att(1192,1381).
att(1192,1379).
att(1269,656).
att(1307,622).
att(1134,1402).
att(1193,1373).
att(1193,1382).
att(1269,630).
att(1271,625).
att(1269,618).
att(1307,588).
att(1489,941).
att(1491,951).
att(1217,526).
att(1303,711).
att(1271,709).
att(1507,751).
att(1488,927).
att(1501,792).
att(1496,824).
att(1307,674).
att(1503,815).
att(1300,654).
att(1509,825).
att(1309,660).
att(1508,784).
att(1251,529).
att(1221,550).
att(1501,1146).
att(1269,722).
att(1052,745).
att(1216,544).
att(1305,715).
att(1507,817).
att(1507,1142).
att(1217,533).
att(1214,722).
att(1198,719).
att(1166,730).
att(1235,1380).
att(1130,531).
att(1161,611).
att(1244,1403).
att(1159,616).
att(1187,719).
att(1161,679).
att(1157,677).
att(1510,932).
att(1507,1002).
att(1131,673).
att(1507,989).
att(996,743).
att(1269,533).
att(1130,714).
att(1131,708).
att(1177,1341).
att(1464,41).
att(1465,41).
att(1353,659).
att(1462,310).
att(1462,319).
att(1459,311).
att(118,1222).
att(1436,174).
att(124,1182).
att(1337,659).
att(1436,184).
att(1452,24).
att(1337,654).
att(1434,215).
att(1462,308).
att(1465,318).
att(1436,210).
att(1462,350).
att(124,1226).
att(1332,622).
att(1362,578).
att(1433,269).
att(1463,351).
att(1353,708).
att(1436,267).
att(1452,378).
att(1452,379).
att(1432,267).
att(1460,305).
att(1460,306).
att(1460,351).
att(1337,701).
att(187,1228).
att(1438,269).
att(1332,709).
att(1465,345).
att(182,1278).
att(1332,701).
att(1362,660).
att(177,769).
att(1460,346).
att(1460,390).
att(185,949).
att(187,1280).
att(1359,725).
att(132,1276).
att(183,751).
att(1337,731).
att(1439,269).
att(1432,390).
att(1362,714).
att(1359,720).
att(421,984).
att(122,827).
att(1345,706).
att(416,995).
att(185,763).
att(1337,716).
att(1433,133).
att(1436,418).
att(1432,117).
att(187,786).
att(1433,127).
att(1437,130).
att(1434,174).
att(1458,312).
att(124,1138).
att(1437,117).
att(1362,724).
att(1438,120).
att(187,815).
att(218,767).
att(1489,349).
att(1460,262).
att(1221,616).
att(1481,350).
att(1219,622).
att(1465,211).
att(604,742).
att(599,748).
att(224,775).
att(226,777).
att(1485,381).
att(1216,620).
att(593,745).
att(1267,547).
att(591,743).
att(591,742).
att(1481,346).
att(229,1291).
att(1487,355).
att(230,1228).
att(175,941).
att(595,748).
att(168,995).
att(1248,660).
att(220,789).
att(1261,679).
att(222,765).
att(1481,377).
att(1481,385).
att(590,744).
att(272,751).
att(1221,674).
att(1217,676).
att(272,808).
att(175,992).
att(175,989).
att(1486,415).
att(1216,681).
att(214,784).
att(222,792).
att(1481,415).
att(1481,424).
att(181,979).
att(1458,121).
att(1452,120).
att(1353,522).
att(168,1143).
att(1337,531).
att(1251,701).
att(1337,524).
att(1461,414).
att(1464,430).
att(229,808).
att(1267,711).
att(1217,715).
att(1462,127).
att(1483,31).
att(227,830).
att(1463,130).
att(1330,522).
att(1267,687).
att(1221,706).
att(1461,120).
att(179,815).
att(1219,710).
att(181,818).
att(1221,700).
att(1462,120).
att(1465,424).
att(1462,180).
att(1463,117).
att(175,1137).
att(175,1184).
att(1345,538).
att(1267,729).
att(181,1138).
att(1461,228).
att(1462,211).
att(227,1137).
att(227,1182).
att(1485,352).
att(1452,269).
att(229,1137).
att(1465,166).
att(1461,225).
att(254,763).
att(259,779).
att(271,1291).
att(272,1226).
att(261,830).
att(212,982).
att(214,976).
att(222,949).
att(1506,388).
att(266,773).
att(266,781).
att(254,785).
att(259,808).
att(1508,383).
att(1510,390).
att(268,792).
att(1507,379).
att(1507,430).
att(1507,428).
att(224,995).
att(1501,133).
att(1508,415).
att(1501,166).
att(259,817).
att(259,1142).
att(1507,130).
att(272,986).
att(218,1180).
att(220,1146).
att(222,824).
att(212,1147).
att(229,992).
att(1488,119).
att(1488,115).
att(1488,117).
att(226,1133).
att(272,1141).
att(1503,311).
att(226,1178).
att(1487,184).
att(224,1184).
att(1508,10).
att(1485,262).
att(218,1228).
att(220,1176).
att(1509,319).
att(216,1222).
att(224,1170).
att(1488,213).
att(224,1238).
att(1507,24).
att(1501,351).
att(1501,350).
att(272,1240).
att(1433,825).
att(266,935).
att(1439,926).
att(1428,784).
att(261,992).
att(1428,822).
att(1438,825).
att(1434,1143).
att(1435,784).
att(1439,992).
att(1427,1230).
att(1432,1168).
att(1503,225).
att(1509,174).
att(257,1172).
att(1501,209).
att(1507,209).
att(254,1223).
att(1501,225).
att(1509,209).
att(261,1289).
att(265,1222).
att(1509,264).
att(265,1291).
att(1427,763).
att(1439,1172).
att(257,926).
att(254,974).
att(1439,1223).
att(1428,765).
att(261,935).
att(263,932).
att(1265,312).
att(1348,260).
att(1246,25).
att(1456,1132).
att(1243,305).
att(1467,1289).
att(1246,305).
att(1346,258).
att(1249,352).
att(1256,23).
att(1384,773).
att(1354,223).
att(1473,1182).
att(1466,1137).
att(1342,178).
att(1429,979).
att(1243,41).
att(1473,1137).
att(1430,974).
att(1424,979).
att(1456,1147).
att(1360,174).
att(1448,1137).
att(1357,178).
att(1469,1178).
att(1467,1137).
att(1265,424).
att(1265,420).
att(1456,935).
att(1371,786).
att(1371,824).
att(1469,989).
att(1387,824).
att(1446,935).
att(1389,830).
att(1389,832).
att(1371,1143).
att(1254,167).
att(1366,822).
att(1384,1182).
att(1252,121).
att(1389,1146).
att(1259,418).
att(1444,1291).
att(1254,387).
att(1389,751).
att(1391,786).
att(1254,414).
att(1384,830).
att(1383,825).
att(1450,935).
att(1252,426).
att(1249,381).
att(1363,767).
att(1254,432).
att(1429,815).
att(1443,1172).
att(1443,1234).
att(1350,24).
att(1440,1182).
att(1314,184).
att(1424,817).
att(1320,174).
att(1348,31).
att(1360,311).
att(1321,264).
att(1328,217).
att(1318,225).
att(1312,377).
att(1320,120).
att(1312,414).
att(1321,178).
att(1342,37).
att(1314,418).
att(1429,786).
att(1318,117).
att(1312,428).
att(1425,830).
att(1494,976).
att(1360,430).
att(1335,344).
att(1354,346).
att(1426,926).
att(1440,935).
att(1469,808).
att(1444,769).
att(1348,383).
att(1357,390).
att(1360,418).
att(1424,974).
att(1335,377).
att(1450,786).
att(1469,824).
att(1469,832).
att(1424,1002).
att(1360,305).
att(1360,351).
att(1312,221).
att(1440,1289).
att(1326,255).
att(1343,350).
att(1440,1225).
att(1441,1286).
att(1440,1226).
att(1314,267).
att(1467,769).
att(1443,927).
att(1471,775).
att(1351,305).
att(1351,306).
att(1312,773).
att(1322,775).
att(1326,767).
att(1417,1278).
att(1395,926).
att(1421,992).
att(1324,763).
att(1400,1169).
att(1415,1236).
att(1316,771).
att(1318,782).
att(1411,1276).
att(1413,949).
att(1414,1272).
att(1324,1178).
att(1324,1191).
att(1321,1272).
att(1326,1240).
att(1321,1135).
att(1326,830).
att(1316,1191).
att(1322,1143).
att(1314,815).
att(1316,1178).
att(1324,816).
att(1318,1135).
att(1324,1146).
att(1312,830).
att(1265,264).
att(1265,258).
att(1391,1282).
att(1259,210).
att(1249,262).
att(1421,789).
att(1385,949).
att(1415,781).
att(1383,929).
att(1389,1278).
att(1256,253).
att(1383,1172).
att(1246,171).
att(1259,125).
att(1387,1133).
att(1371,1236).
att(1391,1228).
att(1252,260).
att(1243,262).
att(1246,209).
att(1249,225).
att(1421,1137).
att(1398,1141).
att(1391,975).
att(1411,785).
att(1391,992).
att(1395,782).
att(1415,832).
att(1335,984).
att(1249,1146).
att(1254,1176).
att(1246,1135).
att(1242,830).
att(1350,989).
att(1335,949).
att(1252,808).
att(1259,781).
att(1246,830).
att(1265,784).
att(1357,979).
att(1259,792).
att(1243,932).
att(1246,1272).
att(1252,951).
att(1256,1274).
att(1242,1286).
att(1243,1230).
att(1254,1236).
att(1259,1132).
att(1262,1223).
att(1249,1286).
att(1335,763).
att(1335,765).
att(1351,802).
att(1360,1146).
att(1335,785).
att(1354,832).
att(1326,1272).
att(1321,976).
att(1342,822).
att(1360,789).
att(1335,777).
att(1342,786).
att(1242,773).
att(1243,782).
att(1354,1234).
att(1357,1240).
att(1335,1291).
att(1343,1191).
att(741,520).
att(1348,1138).
att(746,522).
att(746,559).
att(740,614).
att(741,614).
att(745,580).
att(743,616).
att(749,566).
att(749,616).
att(746,659).
att(746,710).
att(741,726).
att(742,723).
att(743,722).
att(747,720).
att(749,714).
att(1256,933).
att(1252,976).
att(1259,944).
att(1259,995).
att(1466,1294).
att(1450,1244).
att(1473,1292).
att(1357,214).
att(1443,623).
att(1343,220).
att(1450,1171).
att(1350,254).
att(1442,632).
att(1354,230).
att(1440,604).
att(1354,168).
att(1446,1179).
att(1357,270).
att(1467,1292).
att(1335,222).
att(1450,1229).
att(1346,268).
att(1426,629).
att(1426,632).
att(1326,1508).
att(1335,423).
att(1429,985).
att(1466,1183).
att(1342,175).
att(1429,996).
att(1351,416).
att(1328,1496).
att(1357,419).
att(1312,1499).
att(1469,1185).
att(1348,179).
att(1441,1093).
att(1354,122).
att(1348,1499).
att(1262,416).
att(1446,977).
att(1471,1052).
att(1522,309).
att(1256,427).
att(1246,134).
att(1246,136).
att(1450,987).
att(1252,132).
att(1514,351).
att(1518,25).
att(1391,1183).
att(1448,1038).
att(1520,344).
att(1518,351).
att(1384,1183).
att(1384,1179).
att(1354,1486).
att(1360,1438).
att(1351,263).
att(1423,623).
att(1357,1460).
att(1246,382).
att(1360,1460).
att(1249,382).
att(1515,312).
att(1312,128).
att(1500,1050).
att(1495,1097).
att(1415,1509).
att(1318,177).
att(1441,1193).
att(1513,639).
att(1326,214).
att(1495,597).
att(1318,214).
att(1324,229).
att(1419,1481).
att(1321,124).
att(1497,1058).
att(1494,945).
att(1494,1003).
att(1318,136).
att(1512,993).
att(1417,1499).
att(1442,1139).
att(1322,144).
att(1411,1503).
att(1400,1483).
att(1318,124).
att(1414,1507).
att(1326,134).
att(1413,1505).
att(1326,136).
att(1413,1499).
att(1512,1052).
att(1318,116).
att(1346,436).
att(1342,416).
att(1314,1436).
att(1316,1460).
att(1320,1460).
att(1324,1431).
att(1335,433).
att(1426,1058).
att(1360,134).
att(1324,1483).
att(1316,1491).
att(1312,1454).
att(1440,996).
att(1440,990).
att(1350,131).
att(1442,1058).
att(1326,259).
att(1326,270).
att(1495,633).
att(1502,584).
att(1497,632).
att(1494,593).
att(1442,934).
att(1320,1454).
att(1342,384).
att(1342,386).
att(1443,942).
att(1316,1431).
att(1494,623).
att(1320,1438).
att(1320,1436).
att(1476,223).
att(1484,180).
att(1415,1273).
att(1363,632).
att(1414,945).
att(1395,1287).
att(1419,983).
att(1476,252).
att(1495,315).
att(1484,211).
att(1512,355).
att(1482,133).
att(1484,424).
att(1492,119).
att(1395,1192).
att(1484,415).
att(1383,635).
att(1421,1245).
att(1387,597).
att(1419,1241).
att(1384,639).
att(1411,947).
att(1478,415).
att(1493,174).
att(1497,415).
att(1502,381).
att(1502,428).
att(1400,1095).
att(1320,1171).
att(1443,31).
att(1504,135).
att(1512,184).
att(1321,1294).
att(1320,1229).
att(1502,390).
att(1398,1048).
att(1320,1179).
att(1417,1108).
att(1512,430).
att(1511,378).
att(1417,1039).
att(1495,345).
att(1478,267).
att(1512,378).
att(1500,355).
att(1477,29).
att(1254,1438).
att(1246,270).
att(1383,1281).
att(1246,1439).
att(1383,948).
att(1518,418).
att(1254,1459).
att(1477,309).
att(1482,41).
att(1259,266).
att(1387,1281).
att(1456,626).
att(1385,1283).
att(1523,221).
att(1259,263).
att(1387,1285).
att(1475,33).
att(1520,377).
att(1256,118).
att(1335,1501).
att(1249,227).
att(1262,122).
att(1252,229).
att(1387,1134).
att(1252,254).
att(1265,218).
att(1387,1173).
att(1363,1139).
att(1466,623).
att(1514,130).
att(1389,1171).
att(1391,1245).
att(1516,130).
att(1387,1175).
att(1389,1244).
att(1252,272).
att(1482,390).
att(1421,1185).
att(1484,345).
att(1383,1099).
att(1265,1508).
att(1492,381).
att(1482,432).
att(1389,591).
att(1398,1134).
att(1477,420).
att(1256,1506).
att(1493,418).
att(1484,315).
att(1252,1481).
att(1389,993).
att(1480,25).
att(1492,351).
att(1492,349).
att(1478,41).
att(1242,1479).
att(1246,1460).
att(1480,41).
att(1252,1505).
att(1389,1039).
att(1482,350).
att(1389,1052).
att(1242,1506).
att(1391,1043).
att(1249,1487).
att(1249,1490).
att(1363,1005).
att(1389,987).
att(1350,1093).
att(1242,1193).
att(1520,769).
att(1374,740).
att(1373,740).
att(1374,747).
att(1351,983).
att(1373,745).
att(1515,781).
att(1373,747).
att(1514,767).
att(1467,346).
att(1446,351).
att(1376,742).
att(1515,767).
att(1473,133).
att(1368,744).
att(1262,1139).
att(1520,808).
att(1518,782).
att(1368,748).
att(1360,1095).
att(1450,381).
att(1517,824).
att(1515,796).
att(1252,1185).
att(1473,305).
att(1448,312).
att(1351,952).
att(1343,939).
att(1426,209).
att(1343,928).
att(1354,1275).
att(1473,346).
att(1350,1050).
att(1342,1043).
att(1523,769).
att(1466,344).
att(1357,1005).
att(1471,215).
att(1385,31).
att(1456,127).
att(1520,1137).
att(1469,176).
att(1515,1180).
att(1384,25).
att(1387,33).
att(1523,1176).
att(1522,1142).
att(1446,125).
att(1515,1182).
att(1371,312).
att(1262,934).
att(1521,1170).
att(1473,262).
att(1520,1176).
att(1515,1236).
att(1387,310).
att(1384,351).
att(1448,422).
att(1243,1229).
att(1246,1171).
att(1360,595).
att(1519,818).
att(1357,629).
att(1249,1292).
att(1246,1224).
att(1515,816).
att(1259,1177).
att(1259,1171).
att(1497,264).
att(1502,217).
att(1318,1058).
att(1326,1003).
att(1442,351).
att(1318,985).
att(1500,256).
att(1502,262).
att(1320,1108).
att(1513,209).
att(1497,178).
att(1321,945).
att(1504,121).
att(1400,629).
att(1326,1294).
att(1502,176).
att(1443,349).
att(1326,945).
att(1497,209).
att(1318,999).
att(1321,1005).
att(1494,171).
att(1342,950).
att(1429,420).
att(1466,41).
att(1351,1241).
att(1351,1177).
att(1322,581).
att(1424,130).
att(1342,1005).
att(1335,1288).
att(1350,930).
att(1350,945).
att(1314,639).
att(1466,25).
att(1343,1281).
att(1466,311).
att(1348,947).
att(1354,1231).
att(1328,1105).
att(1342,1239).
att(1343,1192).
att(1425,377).
att(1320,595).
att(1314,1108).
att(1321,595).
att(1346,1134).
att(1322,1052).
att(1440,385).
att(1423,388).
att(1425,388).
att(1442,430).
att(1320,623).
att(1430,432).
att(1326,590).
att(1324,1095).
att(1424,379).
att(1414,171).
att(1513,1138).
att(1411,127).
att(1482,992).
att(1415,422).
att(1419,133).
att(1474,974).
att(1417,418).
att(1502,816).
att(1398,121).
att(1511,1184).
att(1502,818).
att(1400,119).
att(1500,785).
att(1497,1146).
att(1502,767).
att(54,538).
att(1511,794).
att(47,528).
att(1413,383).
att(1414,381).
att(1398,377).
att(57,555).
att(1419,417).
att(1484,935).
att(1511,822).
att(1502,782).
att(1502,1289).
att(1425,773).
att(1322,355).
att(1314,306).
att(1441,773).
att(48,630).
att(46,572).
att(1417,260).
att(61,611).
att(1494,1225).
att(1415,252).
att(1442,786).
att(1497,926).
att(1318,385).
att(1318,379).
att(54,553).
att(1494,1272).
att(1419,209).
att(1414,255).
att(1314,41).
att(47,660).
att(1494,1135).
att(1318,24).
att(57,701).
att(1504,1132).
att(1504,1137).
att(48,672).
att(1320,25).
att(1495,1133).
att(1320,311).
att(54,657).
att(59,674).
att(57,683).
att(1398,215).
att(46,616).
att(1318,305).
att(1415,225).
att(46,620).
att(44,614).
att(1320,351).
att(1324,25).
att(1482,789).
att(1389,424).
att(1254,595).
att(1249,1093).
att(1480,782).
att(1385,378).
att(1521,933).
att(1384,133).
att(1246,1091).
att(1474,789).
att(1475,794).
att(1369,414).
att(1371,135).
att(1410,748).
att(1254,643).
att(1521,995).
att(1403,742).
att(1369,428).
att(1366,430).
att(1493,815).
att(1520,1228).
att(1369,306).
att(1262,996).
att(1517,949).
att(1522,1168).
att(1369,319).
att(1389,352).
att(1469,258).
att(1515,1228).
att(1371,344).
att(1385,387).
att(1484,767).
att(1259,990).
att(1476,767).
att(1387,345).
att(1398,312).
att(1384,267).
att(1395,35).
att(1385,219).
att(1400,349).
att(1369,267).
att(1475,1277).
att(1477,1284).
att(1371,252).
att(1477,1276).
att(1366,225).
att(1366,219).
att(1414,389).
att(1262,637).
att(1262,639).
att(1262,633).
att(1371,123).
att(1246,632).
att(1387,186).
att(1391,209).
att(1379,741).
att(1384,221).
att(1383,211).
att(1366,117).
att(1476,1180).
att(1475,1133).
att(1480,1146).
att(1442,640).
att(1318,1365).
att(86,557).
att(95,716).
att(74,526).
att(1320,1405).
att(1424,627).
att(86,550).
att(100,715).
att(1321,1394).
att(1321,1397).
att(1326,1365).
att(106,723).
att(96,712).
att(1318,1373).
att(104,724).
att(1497,498).
att(1426,1109).
att(1504,474).
att(1441,1042).
att(1321,1339).
att(1425,1102).
att(92,630).
att(95,731).
att(74,553).
att(1504,499).
att(1430,1042).
att(1440,1100).
att(1504,503).
att(1424,1042).
att(1494,500).
att(81,555).
att(1424,470).
att(1425,475).
att(82,710).
att(1456,943).
att(1446,931).
att(74,648).
att(79,652).
att(1430,472).
att(1469,1049).
att(82,679).
att(1473,946).
att(196,555).
att(196,557).
att(190,533).
att(74,713).
att(1324,1405).
att(1473,1014).
att(1312,1373).
att(86,727).
att(84,727).
att(77,715).
att(1466,931).
att(1318,1397).
att(75,717).
att(75,718).
att(196,531).
att(1467,1014).
att(1426,696).
att(1324,1404).
att(1471,1000).
att(102,526).
att(1498,1098).
att(1511,606).
att(96,526).
att(46,711).
att(1414,1365).
att(1513,638).
att(59,713).
att(1512,647).
att(50,706).
att(1494,607).
att(1504,1092).
att(1500,1110).
att(1512,592).
att(1482,697).
att(106,614).
att(1494,946).
att(1477,470).
att(1494,1006).
att(1363,1404).
att(1512,994).
att(1482,468).
att(47,720).
att(106,566).
att(1477,493).
att(1511,1053).
att(1477,499).
att(48,729).
att(102,648).
att(1425,946).
att(98,656).
att(1415,1410).
att(1511,695).
att(1441,1014).
att(104,672).
att(1513,504).
att(1443,1107).
att(98,618).
att(98,630).
att(1497,476).
att(95,578).
att(110,614).
att(1494,697).
att(110,712).
att(1414,1397).
att(84,522).
att(1395,1368).
att(1395,1379).
att(98,676).
att(1413,1409).
att(1512,671).
att(143,620).
att(1482,227).
att(1371,665).
att(141,614).
att(1265,1410).
att(1476,218).
att(1385,667).
att(164,662).
att(1385,666).
att(156,614).
att(1249,1403).
att(1518,1510).
att(138,613).
att(1363,640).
att(1246,1394).
att(153,616).
att(141,572).
att(1369,689).
att(138,576).
att(138,574).
att(1366,666).
att(1384,463).
att(1384,472).
att(1387,695).
att(161,716).
att(1519,1487).
att(1242,1381).
att(1242,1382).
att(143,675).
att(1265,1340).
att(1522,1460).
att(1242,1373).
att(1366,1104).
att(1384,624).
att(1366,606).
att(1249,1339).
att(1259,1376).
att(1383,670).
att(1391,663).
att(1243,1409).
att(1384,667).
att(1246,1365).
att(1419,585).
att(1475,1483).
att(1475,1485).
att(1480,1460).
att(1513,118).
att(280,555).
att(1484,1465).
att(143,720).
att(1477,1483).
att(280,550).
att(1512,144).
att(299,559).
att(1363,498).
att(1474,1454).
att(1492,1485).
att(1497,116).
att(143,711).
att(1480,1490).
att(1398,647).
att(161,729).
att(159,726).
att(1494,136).
att(138,704).
att(286,614).
att(1366,463).
att(1389,499).
att(1413,1110).
att(1363,696).
att(1384,499).
att(1417,997).
att(1417,988).
att(1414,598).
att(280,588).
att(1371,491).
att(1371,501).
att(1411,1092).
att(1414,1092).
att(138,728).
att(274,538).
att(1512,384).
att(1346,1402).
att(1473,661).
att(1473,667).
att(1357,1365).
att(1351,1341).
att(188,580).
att(1343,1379).
att(1450,638).
att(1354,1340).
att(74,730).
att(1467,624).
att(1469,646).
att(1357,1397).
att(77,727).
att(1343,1407).
att(1384,946).
att(1450,664).
att(75,726).
att(1519,384).
att(190,656).
att(1473,594).
att(1450,606).
att(1515,436).
att(190,654).
att(1466,594).
att(1446,1051).
att(1516,116).
att(198,652).
att(1446,585).
att(188,614).
att(1467,594).
att(1521,416).
att(200,616).
att(1471,647).
att(1519,429).
att(1444,1098).
att(1515,1458).
att(1519,1434).
att(193,709).
att(190,711).
att(192,700).
att(1514,1437).
att(196,716).
att(161,526).
att(206,720).
att(1523,1454).
att(1519,1454).
att(1369,1106).
att(200,702).
att(1519,1464).
att(190,687).
att(1242,1339).
att(1371,1094).
att(1484,433).
att(198,701).
att(1384,594).
att(1517,1483).
att(1522,1436).
att(1387,1104).
att(193,726).
att(159,614).
att(1389,994).
att(190,730).
att(1466,468).
att(141,538).
att(1444,661).
att(138,538).
att(164,572).
att(1448,474).
att(1516,1437).
att(1369,988).
att(1387,1057).
att(164,547).
att(138,531).
att(1385,997).
att(161,553).
att(194,723).
att(236,702).
att(232,687).
att(242,677).
att(1424,1439).
att(249,709).
att(247,702).
att(1424,1452).
att(1424,1461).
att(1350,601).
att(1441,1479).
att(243,710).
att(245,704).
att(245,701).
att(243,709).
att(1342,603).
att(1342,600).
att(1342,601).
att(1443,1483).
att(1348,1106).
att(1424,1435).
att(232,652).
att(232,648).
att(1321,476).
att(1342,1054).
att(242,726).
att(242,727).
att(1343,937).
att(236,729).
att(1322,671).
att(236,731).
att(1350,1006).
att(1350,1040).
att(240,718).
att(1326,473).
att(242,715).
att(1350,1049).
att(1346,1055).
att(1443,1427).
att(1321,500).
att(1312,697).
att(1324,689).
att(1324,696).
att(1316,463).
att(368,658).
att(1242,1014).
att(1254,1004).
att(1242,946).
att(1342,699).
att(366,654).
att(1446,118).
att(372,608).
att(1423,1506).
att(368,622).
att(1520,1245).
att(358,580).
att(366,616).
att(1246,1006).
att(366,613).
att(1444,170).
att(360,679).
att(1342,646).
att(1450,419).
att(360,683).
att(1342,642).
att(1466,118).
att(1343,644).
att(368,679).
att(1523,1193).
att(1466,227).
att(1354,601).
att(343,675).
att(1426,1503).
att(372,654).
att(372,648).
att(1423,1479).
att(1312,946).
att(1414,498).
att(1400,698).
att(1398,689).
att(1398,696).
att(1411,470).
att(1326,1014).
att(1324,937).
att(1494,214).
att(1497,1437).
att(1500,268).
att(1504,270).
att(1316,1049).
att(1322,994).
att(1415,470).
att(1419,663).
att(243,559).
att(1321,937).
att(1511,229).
att(1498,170).
att(283,715).
att(1502,126).
att(1415,636).
att(291,726).
att(1395,605).
att(1484,1496).
att(245,529).
att(1398,665).
att(1414,470).
att(1398,671).
att(286,710).
att(293,716).
att(1318,1014).
att(299,710).
att(1321,1014).
att(238,580).
att(1443,230).
att(245,630).
att(1320,667).
att(1316,644).
att(1426,116).
att(1511,1509).
att(1322,592).
att(240,559).
att(1494,1481).
att(274,726).
att(1441,128).
att(1326,663).
att(1350,943).
att(1328,670).
att(1342,940).
att(236,538).
att(232,526).
att(1502,1503).
att(276,715).
att(1440,177).
att(1324,644).
att(1326,1094).
att(243,677).
att(1398,501).
att(249,660).
att(1415,503).
att(1321,607).
att(1512,1454).
att(1324,1045).
att(242,630).
att(1512,1464).
att(1415,499).
att(1513,1499).
att(1442,116).
att(240,625).
att(243,660).
att(1424,429).
att(1504,1458).
att(236,608).
att(443,553).
att(453,580).
att(453,566).
att(1389,1503).
att(1363,1463).
att(1371,1485).
att(1413,182).
att(1385,1485).
att(1414,124).
att(341,731).
att(450,559).
att(1421,229).
att(1475,1090).
att(341,722).
att(1369,1499).
att(328,713).
att(443,526).
att(322,717).
att(1413,179).
att(1417,182).
att(1484,1050).
att(341,716).
att(1395,425).
att(304,727).
att(1265,503).
att(413,659).
att(1246,500).
att(1522,639).
att(1259,469).
att(411,660).
att(1476,996).
att(1477,985).
att(1411,131).
att(1484,942).
att(1480,952).
att(1414,419).
att(453,710).
att(450,709).
att(1480,629).
att(1480,623).
att(1415,270).
att(1316,436).
att(1414,1485).
att(1321,419).
att(1500,1283).
att(1328,436).
att(453,679).
att(1316,429).
att(1318,431).
att(1504,1273).
att(411,677).
att(456,660).
att(459,648).
att(1419,1436).
att(1495,1281).
att(1513,999).
att(1476,593).
att(459,723).
att(1480,1105).
att(1415,230).
att(1477,591).
att(1484,1099).
att(1504,1183).
att(440,718).
att(1495,1134).
att(413,727).
att(1494,1244).
att(450,721).
att(409,727).
att(1398,218).
att(1494,1171).
att(1511,1233).
att(1414,257).
att(1495,1175).
att(1493,639).
att(1414,270).
att(1516,996).
att(372,722).
att(1471,1487).
att(1471,1490).
att(1515,985).
att(1516,1058).
att(1448,1458).
att(1383,134).
att(1246,607).
att(341,524).
att(1249,606).
att(1514,999).
att(1389,382).
att(1259,1051).
att(1351,499).
att(1262,596).
att(1519,993).
att(1254,638).
att(1391,126).
att(302,533).
att(1522,942).
att(1450,1485).
att(1249,647).
att(1469,1491).
att(1249,592).
att(1473,1438).
att(1473,1436).
att(1254,1053).
att(1354,463).
att(335,622).
att(1515,1273).
att(1343,477).
att(1517,1283).
att(1350,501).
att(1467,261).
att(1518,1241).
att(302,630).
att(1342,493).
att(1522,1171).
att(1335,689).
att(302,616).
att(364,730).
att(1254,1054).
att(1354,695).
att(1518,1177).
att(302,618).
att(341,566).
att(1471,1454).
att(1262,1051).
att(1357,500).
att(1242,1102).
att(341,557).
att(360,727).
att(1256,991).
att(358,724).
att(1446,266).
att(372,731).
att(1351,469).
att(1520,599).
att(1262,695).
att(1254,463).
att(1383,265).
att(1262,693).
att(304,677).
att(341,658).
att(1383,254).
att(1522,1105).
att(1515,593).
att(1387,212).
att(1480,1179).
att(1515,599).
att(1475,1173).
att(1262,469).
att(1476,1275).
att(1477,947).
att(1262,476).
att(322,611).
att(1384,1438).
att(1492,1275).
att(1384,1436).
att(1246,473).
att(1475,1231).
att(1249,468).
att(1262,640).
att(1389,179).
att(1476,1183).
att(1519,1052).
att(301,730).
att(413,522).
att(1242,661).
att(1384,227).
att(1518,983).
att(304,712).
att(1249,627).
att(302,712).
att(1369,179).
att(1482,1185).
att(1254,699).
att(328,683).
att(1265,663).
att(1517,602).
att(1522,1046).
att(1446,1510).
att(404,817).
att(400,824).
att(494,974).
att(496,989).
att(402,824).
att(395,818).
att(402,822).
att(399,1176).
att(406,1178).
att(406,794).
att(511,986).
att(406,805).
att(395,805).
att(395,808).
att(393,792).
att(506,933).
att(518,992).
att(397,820).
att(512,944).
att(400,763).
att(404,794).
att(375,1286).
att(457,751).
att(441,779).
att(402,1226).
att(457,789).
att(400,949).
att(402,1280).
att(435,786).
att(454,751).
att(397,941).
att(402,1184).
att(404,1135).
att(434,767).
att(375,1176).
att(435,775).
att(402,1234).
att(393,1223).
att(486,974).
att(480,995).
att(461,949).
att(510,825).
att(514,763).
att(508,1147).
att(514,822).
att(482,1223).
att(481,974).
att(478,938).
att(510,792).
att(508,763).
att(478,927).
att(494,1176).
att(518,1291).
att(510,1276).
att(518,1222).
att(518,1223).
att(510,933).
att(506,1276).
att(506,1274).
att(510,1274).
att(512,1146).
att(514,1146).
att(514,818).
att(506,1170).
att(1523,1339).
att(317,1232).
att(1523,1381).
att(1523,1382).
att(317,1284).
att(320,1143).
att(317,1184).
att(448,986).
att(317,1238).
att(323,974).
att(1519,1381).
att(339,951).
att(1520,1381).
att(1516,1404).
att(329,932).
att(1517,1402).
att(317,938).
att(336,1291).
att(317,929).
att(1514,1404).
att(438,1138).
att(441,1176).
att(448,796).
att(435,1143).
att(448,789).
att(444,785).
att(444,825).
att(446,1182).
att(438,815).
att(441,817).
att(435,1138).
att(339,765).
att(313,784).
att(448,1278).
att(454,974).
att(457,986).
att(441,992).
att(448,944).
att(323,825).
att(434,1284).
att(441,1223).
att(448,1174).
att(316,802).
att(313,796).
att(320,775).
att(446,935).
att(448,1223).
att(317,808).
att(448,1228).
att(1494,1394).
att(1494,1397).
att(1502,1376).
att(1504,1410).
att(1511,1380).
att(1425,1339).
att(1441,1373).
att(1441,1339).
att(1476,1376).
att(1482,1339).
att(1482,1368).
att(1492,1402).
att(1474,1381).
att(1492,1340).
att(1482,1055).
att(1518,469).
att(1523,502).
att(1520,472).
att(1475,1057).
att(1514,476).
att(1514,498).
att(1520,667).
att(1517,689).
att(1467,1407).
att(1514,665).
att(1482,946).
att(1516,476).
att(1383,1407).
att(1384,1409).
att(1366,1407).
att(1475,689).
att(1385,1408).
att(1371,1403).
att(1482,1100).
att(1484,1100).
att(1384,1341).
att(1477,634).
att(1384,1368).
att(1475,605).
att(1517,997).
att(1521,991).
att(1521,978).
att(1425,1374).
att(1425,1382).
att(1441,1382).
att(1523,1014).
att(1523,946).
att(1426,1404).
att(1423,1374).
att(1516,646).
att(1516,627).
att(1523,638).
att(1466,1409).
att(1446,1341).
att(1519,647).
att(1467,1376).
att(1514,640).
att(1515,1047).
att(628,305).
att(516,1050).
att(516,1052).
att(589,264).
att(391,1139).
att(1339,428).
att(512,977).
att(649,344).
att(615,351).
att(649,347).
att(649,346).
att(653,389).
att(573,253).
att(393,1179).
att(617,344).
att(610,210).
att(612,221).
att(617,31).
att(619,37).
att(1378,308).
att(506,996).
att(508,980).
att(589,209).
att(1379,35).
att(649,307).
att(1365,352).
att(649,306).
att(653,306).
att(1380,41).
att(610,267).
att(1368,352).
att(391,1005).
att(653,210).
att(496,645).
att(535,309).
att(404,1229).
att(617,123).
att(397,950).
att(525,24).
att(539,308).
att(631,174).
att(621,223).
att(628,169).
att(1339,352).
att(615,171).
att(539,310).
att(516,581).
att(393,1245).
att(1339,347).
att(402,1183).
att(615,385).
att(649,417).
att(397,1245).
att(615,381).
att(402,1181).
att(400,1134).
att(1340,355).
att(653,133).
att(393,1294).
att(535,39).
att(621,117).
att(619,119).
att(397,1288).
att(615,420).
att(506,637).
att(619,130).
att(587,23).
att(329,1486).
att(1379,127).
att(478,1056).
att(573,23).
att(1380,418).
att(1394,10).
att(587,37).
att(317,1489).
att(577,319).
att(317,1486).
att(323,1454).
att(1376,225).
att(1378,215).
att(329,1510).
att(1379,166).
att(1409,41).
att(486,1050).
att(1379,178).
att(1407,311).
att(1380,125).
att(1394,25).
att(316,1506).
att(320,1487).
att(326,1487).
att(577,355).
att(1405,351).
att(1409,319).
att(1382,221).
att(1378,267).
att(326,1434).
att(316,1436).
att(1408,25).
att(1407,350).
att(313,1435).
att(480,1275).
att(1373,221).
att(678,121).
att(461,1171).
att(587,27).
att(682,219).
att(1379,262).
att(692,176).
att(1380,253).
att(481,999).
att(703,217).
att(320,1434).
att(610,319).
att(612,169).
att(1339,260).
att(488,639).
att(482,595).
att(610,184).
att(482,599).
att(1380,309).
att(480,637).
att(464,645).
att(589,184).
att(587,127).
att(508,1283).
att(651,31).
att(514,1292).
att(1373,388).
att(1374,388).
att(514,1231).
att(514,1227).
att(506,1188).
att(518,1183).
att(518,1179).
att(464,1108).
att(1382,432).
att(466,1050).
att(510,1179).
att(1374,383).
att(685,267).
att(464,1105).
att(1365,171).
att(496,1136).
att(496,1183).
att(466,1095).
att(610,418).
att(444,626).
att(1403,215).
att(1394,255).
att(570,117).
att(339,1175).
att(570,125).
att(323,1171).
att(316,1233).
att(564,417).
att(567,135).
att(317,1231).
att(542,377).
att(682,1137).
att(339,1287).
att(692,818).
att(560,176).
att(1408,219).
att(1397,255).
att(317,950).
att(323,1229).
att(703,1137).
att(438,639).
att(1397,269).
att(329,1294).
att(545,418).
att(451,593).
att(1405,262).
att(438,1108).
att(684,763).
att(1404,262).
att(448,977).
att(561,385).
att(441,1048).
att(448,996).
att(545,307).
att(545,306).
att(317,1139).
att(446,591).
att(454,1093).
att(567,422).
att(434,591).
att(692,796).
att(457,1093).
att(561,415).
att(542,346).
att(317,1245).
att(688,769).
att(564,385).
att(435,581).
att(542,344).
att(579,769).
att(486,344).
att(320,993).
att(551,262).
att(703,949).
att(1407,432).
att(484,306).
att(1394,381).
att(326,993).
att(466,388).
att(579,808).
att(320,1052).
att(466,347).
att(1403,414).
att(589,767).
att(1403,424).
att(329,1095).
att(1403,381).
att(575,781).
att(482,346).
att(1394,130).
att(688,1291).
att(612,792).
att(326,1108).
att(461,349).
att(1410,415).
att(1394,171).
att(1404,130).
att(1405,120).
att(448,632).
att(705,1176).
att(1405,117).
att(1410,121).
att(313,985).
att(480,355).
att(339,928).
att(478,349).
att(329,983).
att(1394,178).
att(488,319).
att(464,41).
att(545,174).
att(461,27).
att(525,385).
att(527,381).
att(536,377).
att(402,1038).
att(402,1043).
att(537,377).
att(444,1134).
att(444,1136).
att(537,383).
att(406,602).
att(391,632).
att(448,1139).
att(621,262).
att(619,253).
att(535,388).
att(395,987).
att(649,267).
att(539,350).
att(397,1058).
att(406,1052).
att(406,1048).
att(406,1044).
att(395,1038).
att(446,996).
att(434,985).
att(434,980).
att(525,209).
att(457,930).
att(540,258).
att(532,166).
att(545,41).
att(560,348).
att(562,355).
att(561,344).
att(561,346).
att(444,993).
att(560,37).
att(539,180).
att(441,1294).
att(532,418).
att(397,633).
att(551,27).
att(532,184).
att(444,947).
att(521,121).
att(527,171).
att(510,253).
att(400,31).
att(655,1222).
att(655,1223).
att(508,213).
att(508,225).
att(535,781).
att(516,256).
att(516,269).
att(1339,930).
att(506,253).
att(496,210).
att(615,1236).
att(617,1174).
att(653,1291).
att(653,1286).
att(587,995).
att(651,816).
att(573,995).
att(508,127).
att(615,784).
att(653,815).
att(617,786).
att(631,1142).
att(617,1141).
att(397,39).
att(649,1132).
att(540,816).
att(532,796).
att(1242,740).
att(1252,746).
att(539,785).
att(402,377).
att(539,825).
att(406,123).
att(525,817).
att(540,1180).
att(532,784).
att(628,975).
att(1262,743).
att(434,10).
att(402,420).
att(395,184).
att(539,1143).
att(406,392).
att(527,782).
att(496,258).
att(406,344).
att(395,344).
att(651,949).
att(1339,1193).
att(540,784).
att(391,130).
att(406,381).
att(527,792).
att(619,941).
att(619,938).
att(621,927).
att(406,378).
att(621,1002).
att(539,799).
att(537,792).
att(521,767).
att(577,1138).
att(481,209).
att(464,184).
att(339,632).
att(508,39).
att(609,1184).
att(579,1137).
att(1379,936).
att(609,1137).
att(326,645).
att(583,832).
att(610,1138).
att(518,311).
att(612,1222).
att(612,1223).
att(589,1138).
att(1378,1108).
att(1373,1039).
att(1365,1091).
att(575,1180).
att(514,31).
att(609,1169).
att(481,225).
att(510,23).
att(1368,1108).
att(480,217).
att(680,974).
att(326,581).
att(609,822).
att(684,995).
att(589,792).
att(1374,1046).
att(326,1105).
att(1405,1171).
att(1378,591).
att(313,639).
att(690,975).
att(1408,1185).
att(320,581).
att(316,633).
att(1394,1171).
att(612,984).
att(516,383).
att(589,1278).
att(587,1276).
att(631,751).
att(512,388).
att(621,794).
att(1373,1193).
att(609,938).
att(1374,1136).
att(583,1228).
att(655,808).
att(573,1274).
att(587,926).
att(587,927).
att(1379,1173).
att(579,989).
att(587,941).
att(514,381).
att(609,984).
att(1379,1192).
att(508,420).
att(609,995).
att(573,933).
att(609,975).
att(587,1170).
att(486,256).
att(612,1282).
att(655,769).
att(512,319).
att(579,1228).
att(480,258).
att(575,1236).
att(1341,595).
att(1374,1229).
att(481,267).
att(484,217).
att(655,792).
att(587,1232).
att(1380,1233).
att(583,1236).
att(1376,934).
att(514,305).
att(339,390).
att(560,941).
att(323,344).
att(481,789).
att(560,926).
att(323,390).
att(564,1272).
att(329,415).
att(1407,1105).
att(551,927).
att(560,995).
att(313,420).
att(560,975).
att(561,989).
att(1397,1091).
att(336,346).
att(1405,1095).
att(454,209).
att(545,1168).
att(323,25).
att(438,210).
att(1397,604).
att(545,1138).
att(561,1225).
att(320,355).
att(548,1222).
att(548,1223).
att(1410,593).
att(454,258).
att(438,267).
att(316,388).
att(323,305).
att(561,1280).
att(444,256).
att(1405,623).
att(464,1138).
att(1378,635).
att(326,215).
att(478,1172).
att(1407,1292).
att(1394,1294).
att(484,1138).
att(329,262).
att(1408,1292).
att(320,215).
att(313,184).
att(488,815).
att(1410,1275).
att(466,827).
att(548,989).
att(482,825).
att(320,418).
att(484,785).
att(1394,1003).
att(480,1143).
att(484,832).
att(486,785).
att(1397,945).
att(333,377).
att(564,976).
att(564,979).
att(488,1138).
att(1403,993).
att(313,176).
att(1403,987).
att(1404,1005).
att(454,307).
att(523,1222).
att(406,252).
att(438,306).
att(395,267).
att(448,24).
att(521,1236).
att(560,808).
att(454,347).
att(527,1272).
att(564,782).
att(375,258).
att(375,264).
att(435,378).
att(539,949).
att(438,41).
att(404,171).
att(525,1135).
att(1343,741).
att(406,172).
att(527,1135).
att(395,174).
att(446,41).
att(527,1240).
att(525,1240).
att(395,219).
att(402,166).
att(525,1180).
att(532,989).
att(438,184).
att(521,992).
att(561,1137).
att(561,1138).
att(317,39).
att(339,11).
att(1342,744).
att(329,25).
att(567,1174).
att(339,39).
att(1342,747).
att(1346,748).
att(317,309).
att(441,176).
att(448,123).
att(560,1169).
att(454,377).
att(532,949).
att(551,763).
att(540,992).
att(441,432).
att(527,926).
att(542,769).
att(539,935).
att(570,802).
att(451,347).
att(567,805).
att(525,976).
att(548,825).
att(434,127).
att(451,432).
att(536,989).
att(548,792).
att(610,1436).
att(609,1437).
att(575,270).
att(482,463).
att(494,1042).
att(1383,742).
att(510,596).
att(583,1435).
att(1094,1376).
att(651,427).
att(1389,742).
att(612,270).
att(339,1404).
att(1094,1410).
att(577,216).
att(609,224).
att(461,636).
att(323,1405).
att(1100,1368).
att(1100,1376).
att(1100,1373).
att(481,504).
att(506,991).
att(587,224).
att(940,940).
att(943,943).
att(946,946).
att(621,168).
att(803,541).
att(391,937).
att(589,1505).
att(651,229).
att(589,1509).
att(1110,1381).
att(617,126).
att(653,177).
att(508,664).
att(813,557).
att(511,472).
att(496,667).
att(617,170).
att(577,1487).
att(577,1490).
att(619,421).
att(628,429).
att(503,742).
att(655,118).
att(609,1489).
att(615,382).
att(609,1490).
att(800,616).
att(651,144).
att(617,382).
att(628,419).
att(1450,740).
att(514,624).
att(499,742).
att(587,1479).
att(587,1489).
att(587,1490).
att(615,136).
att(800,566).
att(1446,742).
att(649,124).
att(653,124).
att(514,594).
att(567,474).
att(1000,647).
att(690,216).
att(562,696).
att(703,268).
att(943,646).
att(564,697).
att(946,638).
att(1415,743).
att(481,988).
att(601,1374).
att(940,667).
att(570,499).
att(601,1380).
att(567,501).
att(1395,741).
att(484,1055).
att(545,698).
att(564,476).
att(684,230).
att(454,1381).
att(1000,671).
att(978,978).
att(940,694).
att(940,699).
att(561,666).
att(435,1409).
att(981,937).
att(605,1402).
att(1006,664).
att(1006,663).
att(994,1000).
att(1054,1004).
att(988,997).
att(1004,475).
att(1004,697).
att(946,475).
att(997,997).
att(481,664).
att(685,1483).
att(682,1503).
att(1001,1001).
att(607,1394).
att(940,1004).
att(607,1397).
att(317,1374).
att(1006,1006).
att(931,1047).
att(940,1054).
att(474,747).
att(692,1508).
att(1014,1004).
att(609,175).
att(946,1102).
att(486,1098).
att(680,1454).
att(692,1435).
att(469,743).
att(684,1464).
att(468,742).
att(468,745).
att(484,1045).
att(481,627).
att(463,745).
att(682,1485).
att(609,144).
att(575,437).
att(577,429).
att(943,600).
att(461,1107).
att(1006,607).
att(567,128).
att(564,136).
att(858,676).
att(535,1508).
att(994,671).
att(640,1405).
att(567,144).
att(634,1402).
att(988,689).
att(525,1507).
att(1045,997).
att(444,661).
att(446,664).
att(560,229).
att(1057,693).
att(871,701).
att(856,662).
att(532,1486).
att(435,671).
att(869,701).
att(1059,667).
att(567,185).
att(564,116).
att(532,1483).
att(404,498).
att(866,727).
att(1053,1054).
att(539,1465).
att(561,429).
att(981,498).
att(1042,1042).
att(862,727).
att(994,472).
att(561,431).
att(1059,696).
att(858,716).
att(444,1110).
att(860,727).
att(1045,1045).
att(560,144).
att(525,1460).
att(848,555).
att(873,723).
att(842,526).
att(523,1459).
att(1047,1047).
att(560,421).
att(540,1486).
att(866,712).
att(848,541).
att(521,1435).
att(435,592).
att(448,1042).
att(862,715).
att(523,1438).
att(860,712).
att(441,1092).
att(1053,1053).
att(446,502).
att(1059,1055).
att(570,1436).
att(844,614).
att(1054,1054).
att(1054,1055).
att(684,1275).
att(846,660).
att(1014,475).
att(446,499).
att(836,580).
att(434,493).
att(1006,473).
att(844,580).
att(326,994).
att(441,472).
att(946,502).
att(1059,991).
att(937,498).
att(564,1452).
att(684,934).
att(313,1092).
att(1055,1049).
att(570,1459).
att(1014,502).
att(1004,502).
att(448,473).
att(1059,1053).
att(1504,748).
att(564,1435).
att(850,709).
att(451,664).
att(560,224).
att(692,1136).
att(316,1000).
att(448,638).
att(981,603).
att(435,696).
att(542,128).
att(994,647).
att(329,978).
att(329,991).
att(567,270).
att(434,475).
att(684,1231).
att(570,263).
att(684,1227).
att(317,991).
att(685,1185).
att(316,978).
att(1057,601).
att(837,614).
att(451,663).
att(1059,592).
att(564,218).
att(682,1245).
att(564,214).
att(1059,600).
att(653,1481).
att(619,1464).
att(406,606).
att(525,382).
att(811,711).
att(375,1045).
att(1100,1004).
att(406,1098).
att(1053,697).
att(527,136).
att(1040,501).
att(1049,463).
att(1049,472).
att(525,136).
att(391,640).
att(1092,1110).
att(619,1489).
att(649,1486).
att(621,1483).
att(397,592).
att(1466,745).
att(397,603).
att(651,1486).
att(813,660).
att(1040,491).
att(1047,499).
att(869,555).
att(795,706).
att(1100,1042).
att(1092,1092).
att(1100,1049).
att(1094,1094).
att(508,477).
att(397,981).
att(404,1006).
att(1096,1100).
att(1098,1098).
att(1106,1102).
att(693,1341).
att(1102,1106).
att(1102,1102).
att(397,1107).
att(649,1436).
att(800,702).
att(1104,1104).
att(508,493).
att(508,499).
att(404,686).
att(540,270).
att(864,580).
att(1425,747).
att(869,622).
att(402,691).
att(1440,740).
att(1424,748).
att(434,997).
att(1423,747).
att(1424,740).
att(395,691).
att(395,686).
att(397,699).
att(787,727).
att(866,547).
att(871,588).
att(1110,1110).
att(525,259).
att(539,1433).
att(664,1381).
att(795,720).
att(446,1047).
att(434,1047).
att(527,1439).
att(1051,585).
att(441,988).
att(787,715).
att(521,218).
att(537,268).
att(404,627).
att(866,659).
att(866,657).
att(1040,665).
att(871,674).
att(628,1490).
att(1109,627).
att(858,611).
att(391,663).
att(397,634).
att(402,598).
att(617,1491).
att(397,646).
att(866,618).
att(446,931).
att(397,693).
att(1040,689).
att(666,1405).
att(435,1000).
att(532,187).
att(540,218).
att(1109,663).
att(1094,931).
att(395,666).
att(628,1503).
att(523,118).
att(1440,742).
att(395,661).
att(860,611).
att(395,668).
att(668,1409).
att(402,641).
att(628,1134).
att(1368,808).
att(575,590).
att(653,1224).
att(612,643).
att(619,1239).
att(655,1294).
att(911,724).
att(577,581).
att(1379,771).
att(1373,751).
att(1373,769).
att(651,1245).
att(898,550).
att(920,722).
att(577,645).
att(895,550).
att(911,714).
att(583,590).
att(909,712).
att(508,266).
att(889,544).
att(619,1235).
att(920,717).
att(609,632).
att(610,645).
att(651,1227).
att(461,1483).
att(655,1179).
att(583,996).
att(1382,830).
att(1339,986).
att(587,996).
att(610,1108).
att(466,1479).
att(1373,830).
att(506,118).
att(904,654).
att(1374,827).
att(583,1038).
att(1378,1138).
att(466,1506).
att(587,1043).
att(898,586).
att(1340,989).
att(1365,1135).
att(589,1039).
att(391,116).
att(651,1056).
att(904,710).
att(615,1003).
att(653,987).
att(898,683).
att(397,416).
att(653,990).
att(887,658).
att(1341,825).
att(397,421).
att(406,185).
att(653,1091).
att(404,118).
att(617,1044).
att(898,674).
att(892,675).
att(516,1496).
att(895,674).
att(882,660).
att(892,677).
att(395,126).
att(615,987).
att(508,1496).
att(898,722).
att(653,934).
att(887,720).
att(649,952).
att(587,637).
att(621,1275).
att(651,947).
att(889,725).
att(516,1454).
att(406,382).
att(653,996).
att(889,717).
att(512,1436).
att(510,1459).
att(879,701).
att(898,706).
att(911,524).
att(690,1043).
att(1403,794).
att(840,712).
att(703,1105).
att(907,528).
att(848,722).
att(564,1508).
att(852,719).
att(481,179).
att(612,1183).
att(336,661).
att(850,719).
att(333,661).
att(1405,1146).
att(482,229).
att(1407,815).
att(320,671).
att(1410,832).
att(609,1245).
att(316,695).
att(1403,832).
att(317,696).
att(323,661).
att(316,693).
att(1476,748).
att(336,1098).
att(911,578).
att(690,999).
att(1477,747).
att(1407,1138).
att(684,993).
att(329,585).
att(684,1056).
att(1403,816).
att(1408,822).
att(1474,745).
att(316,592).
att(692,934).
att(560,1489).
att(1394,1180).
att(564,1461).
att(317,596).
att(1397,1135).
att(906,547).
att(907,566).
att(1409,815).
att(317,603).
att(339,605).
att(1484,743).
att(916,566).
att(1410,1180).
att(320,600).
att(320,647).
att(1482,742).
att(1480,748).
att(840,727).
att(907,547).
att(317,642).
att(562,1487).
att(1478,743).
att(692,985).
att(320,592).
att(326,592).
att(545,1460).
att(561,1501).
att(326,647).
att(587,950).
att(583,1273).
att(506,427).
att(1380,815).
att(1365,1240).
att(478,1460).
att(575,1275).
att(913,622).
att(906,608).
att(685,645).
att(481,1509).
att(916,658).
att(480,1487).
att(506,416).
att(510,416).
att(1368,1289).
att(514,384).
att(514,386).
att(480,1486).
att(587,1235).
att(895,529).
att(1405,782).
att(329,469).
att(1373,1278).
att(313,470).
att(609,1231).
att(1394,773).
att(1394,767).
att(904,526).
att(587,1290).
att(913,674).
att(1379,1277).
att(685,626).
att(1378,935).
att(1379,1284).
att(916,702).
att(1408,767).
att(914,706).
att(466,254).
att(685,602).
att(1397,794).
att(1397,796).
att(1410,979).
att(438,1436).
att(435,1454).
att(441,1435).
att(548,1294).
att(545,1229).
att(954,608).
att(570,996).
att(684,355).
att(682,305).
att(560,996).
att(570,983).
att(316,132).
att(956,580).
att(317,421).
att(564,1003).
att(954,578).
att(678,312).
att(678,309).
att(970,620).
att(954,566).
att(441,1461).
att(525,593).
att(966,702).
att(448,229).
att(560,1227).
att(434,268).
att(448,181).
att(970,710).
att(960,701).
att(964,677).
att(964,675).
att(570,952).
att(525,629).
att(434,1435).
att(441,259).
att(521,599).
att(960,683).
att(444,268).
att(954,654).
att(441,257).
att(682,133).
att(1410,1234).
att(1410,1236).
att(482,1179).
att(339,173).
att(964,726).
att(570,591).
att(1402,949).
att(1122,530).
att(1088,580).
att(1397,1225).
att(956,715).
att(688,346).
att(1405,1222).
att(680,432).
att(339,220).
att(690,133).
att(968,730).
att(1125,541).
att(966,715).
att(564,632).
att(964,712).
att(1014,1339).
att(548,595).
att(678,422).
att(1004,1339).
att(1088,553).
att(484,1245).
att(564,584).
att(946,1382).
att(339,425).
att(444,1496).
att(329,118).
att(567,1052).
att(1118,613).
att(1014,1382).
att(317,122).
att(1112,572).
att(444,1487).
att(545,942).
att(1405,989).
att(454,1509).
att(1001,1408).
att(320,126).
att(684,377).
att(1118,566).
att(457,1509).
att(317,175).
att(441,1507).
att(1006,1394).
att(705,432).
att(480,1136).
att(1123,611).
att(567,1048).
att(954,723).
att(1127,578).
att(564,1041).
att(441,1509).
att(1405,992).
att(1023,614).
att(1020,630).
att(628,584).
att(391,1437).
att(1029,648).
att(1011,566).
att(1008,566).
att(539,1294).
att(1029,625).
att(434,437).
att(527,1273).
att(391,1463).
att(628,643).
att(887,723).
att(1029,613).
att(395,1436).
att(537,948).
att(631,639).
att(615,632).
att(539,948).
att(1023,677).
att(653,584).
att(536,1183).
att(1020,679).
att(536,1185).
att(402,124).
att(395,177).
att(395,230).
att(617,1048).
att(1008,648).
att(615,1041).
att(1047,1382).
att(525,1171).
att(621,602).
att(532,1181).
att(395,222).
att(649,604).
att(1011,611).
att(404,177).
att(397,224).
att(523,1183).
att(1047,1376).
att(448,134).
att(561,1181).
att(532,985).
att(1011,706).
att(400,1483).
att(1017,712).
att(1026,710).
att(525,1091).
att(1023,709).
att(1029,719).
att(539,593).
att(1020,702).
att(560,1239).
att(560,1235).
att(441,229).
att(535,591).
att(564,1193).
att(539,1099).
att(567,1134).
att(1059,1380).
att(402,1507).
att(539,996).
att(391,1490).
att(527,945).
att(527,1003).
att(532,1283).
att(402,1428).
att(1059,1408).
att(397,1463).
att(404,1481).
att(402,1483).
att(539,1050).
att(448,431).
att(954,524).
att(972,553).
att(435,126).
att(1084,713).
att(678,1374).
att(1068,701).
att(1081,701).
att(1071,677).
att(690,1405).
att(1060,974).
att(1079,702).
att(1066,929).
att(1164,616).
att(1199,559).
att(684,1340).
att(1206,580).
att(1071,727).
att(1206,566).
att(1071,724).
att(1215,559).
att(1165,566).
att(1068,722).
att(1084,730).
att(1071,715).
att(1014,740).
att(1014,745).
att(1069,1228).
att(705,1381).
att(1072,1228).
att(1072,1289).
att(1164,687).
att(1209,660).
att(1006,749).
att(940,748).
att(1196,616).
att(937,743).
att(1202,586).
att(1209,625).
att(1165,648).
att(1206,625).
att(1202,683).
att(1215,677).
att(1186,949).
att(1213,1230).
att(1088,706).
att(1064,781).
att(1060,789).
att(1210,1276).
att(1122,648).
att(1075,765).
att(1194,1276).
att(1072,782).
att(1065,763).
att(1210,1286).
att(1197,1276).
att(1075,782).
att(1339,1339).
att(1122,711).
att(1339,1373).
att(1189,1228).
att(1071,586).
att(1081,622).
att(1079,616).
att(1087,580).
att(1072,1146).
att(1112,730).
att(1036,616).
att(1077,541).
att(1082,785).
att(1072,818).
att(1085,1133).
att(1122,723).
att(1084,566).
att(1066,1182).
att(1120,727).
att(1081,683).
att(1084,679).
att(1200,975).
att(1074,658).
att(1200,984).
att(1064,830).
att(1037,676).
att(1190,992).
att(1210,974).
att(1066,827).
att(1062,1146).
att(1072,822).
att(1084,622).
att(1104,747).
att(1365,1341).
att(1373,1373).
att(1365,1397).
att(1373,1382).
att(1374,1374).
att(1376,1382).
att(1378,1378).
att(1380,1374).
att(1380,1380).
att(1381,1381).
att(1382,1373).
att(628,1408).
att(525,1373).
att(540,1410).
att(536,1381).
att(523,1341).
att(682,940).
att(525,1397).
att(527,1397).
att(540,1340).
att(1049,744).
att(1047,742).
att(1053,748).
att(1051,742).
att(537,1341).
att(1394,1405).
att(1209,729).
att(1397,1394).
att(1397,1373).
att(1407,1368).
att(1407,1376).
att(1402,1402).
att(1165,723).
att(1403,1403).
att(1206,719).
att(1199,710).
att(1167,721).
att(1397,1404).
att(1196,709).
att(1215,709).
att(1408,1402).
att(575,1410).
att(1202,726).
att(609,1404).
att(1055,745).
att(1055,748).
att(619,1380).
att(1059,744).
att(615,1341).
att(981,744).
att(1403,1339).
att(655,1341).
att(1405,1341).
att(577,592).
att(587,1104).
att(480,1340).
att(609,603).
att(575,1094).
att(583,1109).
att(642,748).
att(573,596).
att(589,988).
att(575,1055).
att(573,991).
att(589,1109).
att(619,981).
att(579,463).
att(615,1006).
att(609,463).
att(617,1040).
att(587,476).
att(589,472).
att(651,1049).
att(612,694).
att(488,1409).
att(587,634).
att(587,646).
att(466,1374).
att(589,663).
att(609,695).
att(682,606).
att(685,1055).
att(680,1042).
att(682,600).
att(603,744).
att(684,601).
att(684,647).
att(684,596).
att(596,743).
att(682,997).
att(585,743).
att(703,1045).
att(678,1055).
att(612,940).
att(579,1055).
att(612,1053).
att(575,931).
att(685,667).
att(612,1054).
att(548,1341).
att(682,646).
att(564,1373).
att(684,636).
att(682,627).
att(612,946).
att(692,646).
att(690,627).
att(684,661).
att(564,1382).
att(523,667).
att(561,1001).
att(532,641).
att(404,1397).
att(521,636).
att(535,477).
att(562,1000).
att(560,991).
att(560,1059).
att(535,472).
att(540,463).
att(560,981).
att(540,636).
att(399,1381).
att(539,647).
att(521,1094).
att(539,663).
att(404,1365).
att(532,598).
att(699,745).
att(698,740).
att(690,386).
att(564,607).
att(561,600).
att(521,499).
att(686,740).
att(561,641).
att(567,647).
att(523,463).
att(521,463).
att(536,463).
att(532,691).
att(535,493).
att(551,1107).
att(682,386).
att(684,436).
att(567,1094).
att(525,498).
att(703,436).
att(527,500).
att(562,1042).
att(532,474).
att(561,1092).
att(619,646).
att(653,664).
att(649,627).
att(617,661).
att(494,1381).
att(575,503).
att(619,603).
att(671,745).
att(619,647).
att(670,745).
att(511,1381).
att(617,501).
att(540,1092).
att(540,1094).
att(617,491).
att(536,1042).
att(539,594).
att(525,606).
att(527,1092).
att(521,1047).
att(521,1049).
att(527,1006).
att(525,1006).
att(628,666).
att(649,686).
att(532,1001).
att(628,693).
att(1075,936).
att(1255,306).
att(1453,1138).
att(1355,209).
att(1336,172).
att(1066,1285).
att(1066,1279).
att(1361,223).
att(1069,1275).
att(1445,1137).
att(1207,626).
att(1449,1178).
att(1349,213).
att(1449,1191).
att(1253,23).
att(1065,1043).
att(1392,767).
att(1344,269).
att(1457,1238).
att(1260,311).
att(1347,264).
att(1069,999).
att(1336,215).
att(1331,169).
att(1340,144).
att(1472,1226).
att(1355,225).
att(1203,639).
att(1085,1173).
att(1203,645).
att(1472,1137).
att(1062,1229).
att(1445,832).
att(1457,825).
att(1340,168).
att(1189,639).
att(1468,818).
att(1331,378).
att(1082,1136).
att(1333,428).
att(1358,133).
att(1082,1179).
att(1447,785).
att(1472,1140).
att(1349,186).
att(1210,629).
att(1336,123).
att(1085,1231).
att(1340,229).
att(1072,1229).
att(1331,133).
att(1470,1137).
att(1377,808).
att(1255,184).
att(1085,1090).
att(1085,1097).
att(1455,927).
att(1470,989).
att(1468,989).
att(1472,986).
att(1064,591).
att(1064,593).
att(1082,595).
att(1218,418).
att(1255,174).
att(1250,117).
att(1250,125).
att(1062,623).
att(1388,769).
att(1468,1278).
att(1075,1058).
att(1372,808).
att(1255,418).
att(1066,1050).
att(1370,769).
att(1370,779).
att(1447,1284).
att(1329,176).
att(1339,1499).
att(1379,116).
att(1347,39).
att(1160,629).
att(1323,120).
att(1319,176).
att(1148,639).
att(1160,599).
att(1150,623).
att(1152,645).
att(1368,227).
att(1382,170).
att(1358,25).
att(1336,31).
att(1349,310).
att(1189,934).
att(1319,225).
att(1380,122).
att(1210,1229).
att(1200,1283).
att(1158,633).
att(1376,266).
att(1154,599).
att(1317,135).
att(1186,1171).
att(1365,270).
att(1156,1046).
att(1313,388).
att(1368,266).
att(1213,1173).
att(1152,639).
att(1148,604).
att(1317,123).
att(1162,602).
att(1148,584).
att(1148,593).
att(1325,415).
att(1203,1105).
att(1210,1050).
att(1186,1095).
att(1062,1185).
att(1468,808).
att(1310,269).
att(1194,1038).
att(1197,1046).
att(1470,808).
att(1472,805).
att(1190,1105).
att(1376,437).
att(1066,1136).
att(1190,599).
att(1210,1046).
att(1472,785).
att(1207,1050).
att(1331,390).
att(1447,789).
att(1329,269).
att(1378,134).
att(1189,985).
att(1323,225).
att(1315,210).
att(1341,1438).
att(1323,209).
att(1203,1108).
att(1333,352).
att(1315,262).
att(1313,262).
att(1197,1058).
att(1368,128).
att(1207,934).
att(1349,345).
att(1358,350).
att(1148,347).
att(1145,430).
att(1323,767).
att(1148,389).
att(1412,1002).
att(1408,229).
att(1394,257).
att(1150,344).
att(1394,214).
att(1145,378).
att(1160,306).
att(1403,261).
att(1156,388).
att(1162,378).
att(1156,347).
att(1394,1439).
att(1148,377).
att(1410,270).
att(1150,25).
att(1152,319).
att(1406,1132).
att(1144,390).
att(1407,1454).
att(1156,309).
att(1406,1172).
att(1403,1460).
att(1158,24).
att(1304,221).
att(1158,312).
att(1404,1437).
att(1150,351).
att(1156,25).
att(1416,1226).
att(1405,1460).
att(1378,1462).
att(1152,215).
att(1378,1465).
att(1365,1463).
att(1368,1454).
att(1158,115).
att(1203,41).
att(1158,121).
att(1405,384).
att(1313,1172).
att(1378,1487).
att(1410,436).
att(1144,267).
att(1194,312).
att(1403,382).
att(1310,1135).
att(1381,1454).
att(1394,136).
att(1197,309).
att(1406,944).
att(1406,935).
att(1401,989).
att(1317,1141).
att(1329,817).
att(1158,426).
att(1401,975).
att(1406,929).
att(1148,415).
att(1310,792).
att(1378,1496).
att(1311,789).
att(1317,1191).
att(1313,815).
att(1160,117).
att(1145,176).
att(1148,125).
att(1158,135).
att(1374,1506).
att(1190,41).
att(1158,422).
att(1218,225).
att(1308,355).
att(1377,1176).
att(1218,209).
att(1247,252).
att(1388,1291).
att(1390,926).
att(1293,428).
att(1377,1228).
att(1302,350).
att(1304,352).
att(1386,1272).
att(1418,769).
att(1364,1222).
att(1364,1146).
att(1255,210).
att(1260,120).
att(1390,1178).
att(1390,1191).
att(1375,1133).
att(1218,174).
att(1263,223).
att(1302,33).
att(1372,1238).
att(1302,11).
att(1364,1132).
att(1399,815).
att(1403,1485).
att(1377,989).
att(1403,1487).
att(1393,786).
att(1397,1485).
att(1393,825).
att(1377,992).
att(1367,989).
att(1396,785).
att(1144,311).
att(1401,1184).
att(1408,1490).
att(1412,1172).
att(1394,1507).
att(1297,174).
att(1416,1132).
att(1416,1138).
att(1397,1507).
att(1406,781).
att(1399,763).
att(1293,417).
att(1392,974).
att(1372,941).
att(1401,794).
att(1396,769).
att(1367,1274).
att(1367,1282).
att(1304,347).
att(1270,377).
att(1293,115).
att(1406,765).
att(1412,1143).
att(1295,130).
att(1304,432).
att(1386,976).
att(1297,418).
att(1266,818).
att(1266,815).
att(1066,420).
att(1260,824).
att(1085,186).
att(1339,1004).
att(1062,174).
att(1263,1142).
att(1085,345).
att(1333,1276).
att(1066,388).
att(1347,929).
att(1263,782).
att(1062,378).
att(1361,995).
att(1266,785).
att(1255,815).
att(1075,133).
att(1361,992).
att(1218,767).
att(1082,346).
att(1293,805).
att(1253,933).
att(1220,1222).
att(1066,264).
att(1299,771).
att(1263,927).
att(1301,786).
att(1220,1274).
att(1304,773).
att(1297,796).
att(1250,933).
att(1218,1138).
att(1263,1169).
att(1065,219).
att(1253,1170).
att(1263,1230).
att(1220,1238).
att(1062,262).
att(1072,219).
att(1250,1222).
att(1361,785).
att(1361,824).
att(1340,689).
att(1336,794).
att(1373,1014).
att(1352,763).
att(1210,388).
att(1203,184).
att(1340,463).
att(1194,422).
att(1378,1109).
att(1373,1042).
att(1194,135).
att(1336,824).
att(1355,825).
att(1197,130).
att(1310,926).
att(1331,763).
att(1358,830).
att(1213,308).
att(1382,1042).
att(1378,1096).
att(1160,262).
att(1210,307).
att(1160,269).
att(1373,1098).
att(1310,1240).
att(1365,607).
att(1368,1100).
att(1327,1291).
att(1210,309).
att(1194,392).
att(1336,769).
att(1333,751).
att(1378,605).
att(1329,926).
att(1186,378).
att(1329,932).
att(1379,1100).
att(1380,1051).
att(1355,767).
att(1361,775).
att(1319,926).
att(1358,781).
att(1349,1277).
att(1336,1174).
att(1213,211).
att(1189,267).
att(1341,1049).
att(1190,258).
att(1331,1184).
att(1213,269).
att(1066,356).
att(1210,256).
att(1062,390).
att(1361,1274).
att(1197,258).
att(1358,1289).
att(1213,127).
att(1213,186).
att(1340,636).
att(1189,166).
att(1207,420).
att(1213,180).
att(1085,33).
att(1361,1234).
att(1085,29).
att(1213,166).
att(1189,210).
att(1197,178).
att(1207,184).
att(1075,33).
att(1072,31).
att(1154,1223).
att(1407,1047).
att(1162,1174).
att(1365,503).
att(1145,1223).
att(1376,499).
att(1186,771).
att(1382,502).
att(1394,598).
att(1403,1100).
att(1374,504).
att(1394,607).
att(1162,818).
att(1410,1092).
att(1410,1094).
att(1154,1137).
att(1407,594).
att(1158,785).
att(1306,989).
att(1407,624).
att(1160,1137).
att(1403,624).
att(1394,664).
att(1156,1146).
att(1403,647).
att(1158,1140).
att(1160,1146).
att(1378,624).
att(1186,1146).
att(1203,815).
att(1380,1104).
att(1189,818).
att(1213,799).
att(1186,1178).
att(1203,1138).
att(1158,989).
att(1189,1137).
att(1197,1143).
att(1158,976).
att(1190,1137).
att(1189,794).
att(329,743).
att(1186,763).
att(323,748).
att(1397,1004).
att(1213,792).
att(1365,500).
att(1380,693).
att(339,741).
att(1365,502).
att(1156,1276).
att(1158,951).
att(1189,786).
att(1404,937).
att(1200,763).
att(1382,697).
att(1299,1178).
att(1293,1286).
att(1301,1223).
att(1302,1178).
att(1301,818).
att(1293,1147).
att(1220,933).
att(1250,995).
att(1263,1002).
att(1253,995).
att(1306,808).
att(1293,1178).
att(1304,830).
att(1257,974).
att(1156,767).
att(1404,640).
att(1145,786).
att(1154,792).
att(1144,1142).
att(1306,992).
att(1408,666).
att(1403,697).
att(1297,979).
att(1410,664).
att(1293,1272).
att(1394,498).
att(1299,1228).
att(1270,1291).
att(1148,781).
att(1144,802).
att(1403,504).
att(1145,792).
att(1148,767).
att(1306,1228).
att(1299,951).
