arg(1..437).
att(22,394).
att(67,256).
att(16,415).
att(72,192).
att(317,42).
att(77,226).
att(15,350).
att(73,241).
att(228,432).
att(389,77).
att(23,409).
att(404,132).
att(407,135).
att(386,23).
att(79,433).
att(418,94).
att(72,273).
att(427,45).
att(423,114).
att(401,275).
att(410,320).
att(299,170).
att(403,303).
att(417,116).
att(299,184).
att(64,236).
att(296,167).
att(27,421).
att(68,188).
att(381,16).
att(305,86).
att(22,398).
att(421,59).
att(72,232).
att(20,410).
att(299,101).
att(404,198).
att(355,19).
att(424,94).
att(72,327).
att(91,428).
att(427,79).
att(407,371).
att(349,28).
att(63,246).
att(351,30).
att(61,236).
att(421,118).
att(345,36).
att(404,278).
att(399,368).
att(407,284).
att(68,362).
att(344,47).
att(344,44).
att(423,251).
att(347,7).
att(66,359).
att(70,344).
att(312,432).
att(425,169).
att(309,235).
att(353,6).
att(70,305).
att(296,221).
att(21,149).
att(192,28).
att(427,224).
att(25,131).
att(417,272).
att(417,287).
att(188,33).
att(258,430).
att(206,2).
att(21,185).
att(350,58).
att(243,434).
att(423,202).
att(352,49).
att(36,345).
att(292,26).
att(239,430).
att(418,337).
att(331,86).
att(300,19).
att(318,304).
att(342,133).
att(289,12).
att(426,284).
att(294,40).
att(419,380).
att(348,170).
att(36,343).
att(423,375).
att(277,14).
att(29,192).
att(346,167).
att(423,281).
att(348,178).
att(327,148).
att(31,277).
att(420,281).
att(424,337).
att(364,39).
att(20,282).
att(356,53).
att(20,266).
att(11,249).
att(359,42).
att(16,336).
att(342,221).
att(362,74).
att(339,199).
att(372,27).
att(17,205).
att(21,379).
att(373,40).
att(77,84).
att(362,68).
att(26,292).
att(426,368).
att(16,189).
att(206,65).
att(362,27).
att(424,378).
att(427,375).
att(17,301).
att(366,123).
att(366,121).
att(229,4).
att(191,432).
att(362,119).
att(33,409).
att(210,430).
att(16,145).
att(20,309).
att(25,250).
att(33,97).
att(110,211).
att(36,169).
att(44,402).
att(240,14).
att(44,404).
att(51,407).
att(363,80).
att(123,240).
att(53,399).
att(47,404).
att(245,39).
att(236,38).
att(60,403).
att(32,50).
att(36,111).
att(33,46).
att(121,335).
att(35,100).
att(356,191).
att(8,320).
att(5,209).
att(369,184).
att(361,130).
att(110,245).
att(40,126).
att(383,127).
att(117,356).
att(266,7).
att(108,394).
att(28,118).
att(393,58).
att(36,290).
att(110,335).
att(31,329).
att(123,369).
att(117,339).
att(388,54).
att(33,230).
att(32,264).
att(388,44).
att(31,202).
att(40,324).
att(385,66).
att(356,316).
att(270,12).
att(393,158).
att(123,425).
att(397,110).
att(115,398).
att(110,384).
att(266,14).
att(388,107).
att(395,117).
att(273,35).
att(104,192).
att(273,39).
att(34,177).
att(388,89).
att(376,338).
att(391,125).
att(416,8).
att(282,75).
att(8,88).
att(4,112).
att(276,73).
att(413,7).
att(60,188).
att(60,192).
att(395,178).
att(63,357).
att(4,48).
att(384,151).
att(393,170).
att(383,151).
att(383,128).
att(396,86).
att(402,49).
att(186,429).
att(385,308).
att(398,49).
att(401,62).
att(410,20).
att(10,116).
att(10,114).
att(61,421).
att(49,249).
att(73,406).
att(66,425).
att(63,400).
att(68,421).
att(4,260).
att(58,359).
att(8,214).
att(49,352).
att(301,1).
att(9,220).
att(47,344).
att(2,227).
att(1,251).
att(407,51).
att(3,156).
att(58,335).
att(406,12).
att(406,25).
att(42,270).
att(44,266).
att(415,38).
att(407,187).
att(422,10).
att(305,71).
att(412,26).
att(47,388).
att(9,135).
att(3,135).
att(6,260).
att(409,33).
att(309,34).
att(51,356).
att(404,89).
att(2,159).
att(299,30).
att(322,2).
att(413,35).
att(291,23).
att(42,352).
att(60,362).
att(309,36).
att(53,346).
att(69,234).
att(73,202).
att(67,257).
att(66,256).
att(178,346).
att(77,217).
att(403,248).
att(70,259).
att(178,339).
att(407,243).
att(407,231).
att(65,194).
att(399,210).
att(73,257).
att(173,282).
att(421,27).
att(224,435).
att(73,260).
att(77,238).
att(410,167).
att(404,136).
att(318,71).
att(399,235).
att(73,135).
att(20,345).
att(426,53).
att(63,90).
att(342,6).
att(73,156).
att(68,161).
att(417,117).
att(70,179).
att(426,62).
att(407,316).
att(407,308).
att(20,416).
att(425,42).
att(173,335).
att(419,49).
att(74,179).
att(399,321).
att(20,343).
att(13,367).
att(64,179).
att(420,47).
att(403,218).
att(173,407).
att(56,179).
att(139,211).
att(148,245).
att(60,161).
att(417,167).
att(139,192).
att(130,247).
att(151,211).
att(154,211).
att(128,247).
att(154,192).
att(418,167).
att(69,293).
att(56,83).
att(130,208).
att(10,24).
att(421,269).
att(75,275).
att(69,315).
att(424,133).
att(64,292).
att(315,434).
att(63,253).
att(417,248).
att(167,424).
att(339,75).
att(77,307).
att(67,303).
att(154,236).
att(251,428).
att(426,210).
att(426,207).
att(13,182).
att(12,144).
att(95,247).
att(427,265).
att(86,247).
att(421,228).
att(86,245).
att(101,273).
att(22,179).
att(12,159).
att(29,134).
att(110,399).
att(29,137).
att(92,344).
att(32,295).
att(89,344).
att(357,19).
att(359,14).
att(22,105).
att(23,100).
att(78,366).
att(14,48).
att(28,100).
att(251,436).
att(158,232).
att(15,310).
att(73,82).
att(69,126).
att(15,336).
att(22,280).
att(160,211).
att(19,380).
att(362,65).
att(372,23).
att(75,103).
att(107,388).
att(158,196).
att(363,26).
att(29,289).
att(357,23).
att(202,432).
att(22,223).
att(163,285).
att(15,253).
att(178,282).
att(12,209).
att(23,230).
att(178,229).
att(92,402).
att(181,222).
att(30,217).
att(163,232).
att(89,402).
att(14,257).
att(50,426).
att(117,302).
att(122,279).
att(116,245).
att(265,393).
att(33,95).
att(48,425).
att(34,95).
att(385,7).
att(35,136).
att(78,90).
att(52,400).
att(50,407).
att(121,326).
att(432,266).
att(120,236).
att(429,317).
att(34,113).
att(122,342).
att(143,435).
att(375,437).
att(36,117).
att(252,403).
att(127,223).
att(225,204).
att(108,328).
att(115,155).
att(191,247).
att(261,405).
att(125,256).
att(433,331).
att(395,33).
att(210,249).
att(261,404).
att(199,204).
att(41,425).
att(2,330).
att(14,66).
att(19,49).
att(23,49).
att(210,352).
att(34,203).
att(24,48).
att(107,237).
att(31,319).
att(104,263).
att(228,266).
att(29,118).
att(32,308).
att(110,422).
att(428,398).
att(432,385).
att(114,327).
att(89,171).
att(27,46).
att(435,384).
att(269,421).
att(30,42).
att(80,250).
att(29,48).
att(30,49).
att(396,21).
att(32,207).
att(32,154).
att(100,247).
att(437,396).
att(79,246).
att(402,7).
att(430,418).
att(199,366).
att(80,152).
att(98,84).
att(122,405).
att(34,181).
att(26,18).
att(218,352).
att(31,136).
att(111,359).
att(210,356).
att(86,99).
att(124,397).
att(118,369).
att(55,240).
att(403,33).
att(437,423).
att(6,89).
att(399,19).
att(56,340).
att(9,92).
att(401,33).
att(9,107).
att(410,8).
att(46,188).
att(133,366).
att(47,310).
att(57,206).
att(47,306).
att(130,357).
att(2,44).
att(63,414).
att(128,357).
att(404,7).
att(157,318).
att(401,3).
att(58,226).
att(6,107).
att(403,7).
att(44,237).
att(133,350).
att(4,72).
att(261,205).
att(6,44).
att(45,236).
att(45,249).
att(50,283).
att(63,354).
att(231,249).
att(142,385).
att(185,428).
att(45,222).
att(5,62).
att(248,240).
att(9,54).
att(5,76).
att(136,404).
att(142,362).
att(151,384).
att(70,343).
att(68,347).
att(142,363).
att(53,185).
att(47,152).
att(52,204).
att(157,366).
att(8,195).
att(56,415).
att(265,273).
att(35,66).
att(252,246).
att(142,425).
att(8,218).
att(8,203).
att(269,247).
att(41,313).
att(119,171).
att(43,305).
att(53,360).
att(42,351).
att(117,174).
att(50,296).
att(43,279).
att(60,351).
att(248,266).
att(10,195).
att(269,211).
att(5,157).
att(113,176).
att(31,18).
att(44,364).
att(52,384).
att(3,173).
att(261,342).
att(252,317).
att(4,170).
att(41,369).
att(2,128).
att(41,366).
att(47,377).
att(417,40).
att(6,235).
att(41,359).
att(8,167).
att(248,352).
att(48,369).
att(50,356).
att(10,154).
att(298,429).
att(57,376).
att(44,306).
att(293,434).
att(338,421).
att(62,144).
att(421,65).
att(172,291).
att(74,194).
att(142,87).
att(133,137).
att(186,317).
att(75,225).
att(71,304).
att(420,16).
att(151,93).
att(423,12).
att(226,431).
att(223,430).
att(163,351).
att(65,269).
att(181,351).
att(94,424).
att(186,279).
att(72,135).
att(172,362).
att(177,394).
att(169,369).
att(17,382).
att(163,370).
att(70,186).
att(166,357).
att(169,359).
att(70,183).
att(186,359).
att(64,132).
att(15,278).
att(20,374).
att(167,215).
att(169,335).
att(68,106).
att(11,380).
att(177,357).
att(129,266).
att(141,204).
att(144,196).
att(147,232).
att(56,166).
att(130,277).
att(135,232).
att(47,183).
att(41,84).
att(42,103).
att(47,159).
att(6,33).
att(72,371).
att(62,341).
att(55,93).
att(150,192).
att(130,310).
att(177,400).
att(139,226).
att(5,5).
att(340,428).
att(56,122).
att(53,50).
att(133,215).
att(76,278).
att(51,50).
att(332,437).
att(8,8).
att(42,59).
att(156,273).
att(66,214).
att(68,194).
att(142,161).
att(144,245).
att(169,425).
att(68,217).
att(151,155).
att(64,320).
att(135,273).
att(66,303).
att(153,236).
att(323,434).
att(156,232).
att(15,180).
att(89,292).
att(338,192).
att(158,182).
att(330,204).
att(88,270).
att(80,355).
att(321,236).
att(65,27).
att(241,429).
att(91,232).
att(21,181).
att(17,103).
att(104,294).
att(16,92).
att(24,166).
att(228,362).
att(228,357).
att(199,391).
att(15,122).
att(91,335).
att(14,125).
att(14,123).
att(16,119).
att(97,366).
att(107,306).
att(107,310).
att(319,318).
att(228,421).
att(86,328).
att(312,266).
att(18,111).
att(98,226).
att(103,335).
att(89,237).
att(104,223).
att(24,118).
att(431,179).
att(67,123).
att(180,212).
att(16,325).
att(61,41).
att(429,182).
att(64,103).
att(178,302).
att(61,120).
att(159,196).
att(334,313).
att(429,83).
att(184,256).
att(95,409).
att(433,99).
att(75,117).
att(428,179).
att(79,384).
att(321,327).
att(61,52).
att(20,287).
att(94,418).
att(65,61).
att(21,203).
att(65,68).
att(180,288).
att(431,233).
att(430,267).
att(173,165).
att(169,240).
att(67,66).
att(163,233).
att(73,44).
att(64,59).
att(183,236).
att(86,409).
att(181,176).
att(178,165).
att(338,362).
att(27,194).
att(73,72).
att(160,137).
att(177,222).
att(101,412).
att(163,152).
att(431,152).
att(190,208).
att(92,46).
att(124,277).
att(209,196).
att(429,328).
att(122,297).
att(110,311).
att(126,294).
att(434,323).
att(80,106).
att(109,332).
att(264,359).
att(434,253).
att(257,369).
att(252,414).
att(127,315).
att(242,366).
att(101,43).
att(126,323).
att(210,197).
att(191,152).
att(432,377).
att(191,134).
att(218,185).
att(220,246).
att(121,217).
att(261,354).
att(124,197).
att(195,152).
att(123,214).
att(207,256).
att(78,48).
att(108,324).
att(251,402).
att(257,425).
att(269,343).
att(218,134).
att(261,412).
att(111,233).
att(242,425).
att(110,268).
att(198,245).
att(268,407).
att(190,246).
att(261,381).
att(431,289).
att(269,377).
att(43,412).
att(202,205).
att(239,349).
att(203,185).
att(268,397).
att(92,129).
att(14,67).
att(89,153).
att(325,185).
att(103,233).
att(89,141).
att(107,260).
att(321,131).
att(94,137).
att(312,179).
att(312,161).
att(218,355).
att(325,83).
att(85,171).
att(116,351).
att(436,377).
att(104,150).
att(370,432).
att(13,13).
att(14,14).
att(79,237).
att(199,392).
att(107,129).
att(17,17).
att(79,241).
att(432,347).
att(87,212).
att(18,18).
att(122,353).
att(20,20).
att(110,365).
att(24,18).
att(105,196).
att(203,271).
att(84,196).
att(22,22).
att(27,74).
att(23,23).
att(79,143).
att(191,377).
att(29,66).
att(98,103).
att(122,381).
att(127,374).
att(104,94).
att(118,292).
att(115,382).
att(113,390).
att(437,413).
att(29,29).
att(78,172).
att(154,422).
att(58,307).
att(51,198).
att(231,250).
att(45,267).
att(60,307).
att(139,422).
att(127,46).
att(151,349).
att(151,355).
att(48,256).
att(43,149).
att(142,370).
att(57,216).
att(57,219).
att(235,134).
att(147,352).
att(269,171).
att(3,75).
att(243,93).
att(5,71).
att(50,152).
att(133,355).
att(51,147).
att(52,134).
att(53,147).
att(156,393).
att(252,102).
att(129,403).
att(43,84).
att(154,280).
att(230,188).
att(1,26).
att(136,364).
att(139,280).
att(47,129).
att(31,14).
att(109,81).
att(122,145).
att(265,294).
att(119,166).
att(34,21).
att(124,140).
att(238,270).
att(231,355).
att(207,171).
att(109,182).
att(248,355).
att(50,364).
att(45,294).
att(43,297).
att(53,368).
att(57,358).
att(251,208).
att(147,426).
att(265,323).
att(147,424).
att(42,382).
att(124,185).
att(110,106).
att(34,34).
att(32,7).
att(258,216).
att(57,386).
att(230,357).
att(40,26).
att(124,84).
att(47,387).
att(49,380).
att(119,111).
att(119,118).
att(115,59).
att(56,293).
att(252,143).
att(51,337).
att(45,215).
att(36,8).
att(239,223).
att(294,434).
att(35,39).
att(252,237).
att(40,40).
att(275,273).
att(150,176).
att(168,317).
att(62,157).
att(139,88).
att(275,270).
att(168,305).
att(172,373).
att(136,129).
att(156,182).
att(176,335).
att(412,433).
att(74,228).
att(298,200).
att(135,149).
att(174,282).
att(416,432).
att(64,195).
att(333,410).
att(142,124).
att(177,392).
att(128,169).
att(142,116).
att(164,236).
att(133,180).
att(58,29).
att(74,269).
att(135,182).
att(136,183).
att(180,274).
att(298,299).
att(154,120).
att(176,394).
att(63,89).
att(142,41).
att(160,378).
att(171,359).
att(172,310).
att(161,391).
att(174,348).
att(178,371).
att(411,437).
att(298,279).
att(162,392).
att(164,327).
att(133,94).
att(72,158).
att(411,430).
att(334,414).
att(184,303).
att(287,309).
att(130,109).
att(177,271).
att(275,282).
att(64,163).
att(133,118).
att(186,326).
att(275,395).
att(174,401).
att(375,208).
att(47,89).
att(272,385).
att(55,172).
att(133,290).
att(258,45).
att(137,192).
att(287,385).
att(287,394).
att(161,421).
att(287,395).
att(41,97).
att(168,393).
att(272,359).
att(272,363).
att(150,223).
att(57,82).
att(133,337).
att(244,435).
att(45,45).
att(147,314).
att(298,313).
att(287,363).
att(281,331).
att(147,250).
att(295,398).
att(130,202).
att(49,49).
att(246,432).
att(61,312).
att(53,51).
att(138,259).
att(61,338).
att(148,209).
att(290,418).
att(128,264).
att(44,18).
att(42,11).
att(54,54).
att(375,245).
att(55,52).
att(130,251).
att(186,412).
att(56,56).
att(137,240).
att(56,44).
att(58,58).
att(74,338).
att(60,60).
att(173,112).
att(324,247).
att(319,277).
att(329,206).
att(96,322).
att(303,240).
att(181,100).
att(186,99).
att(163,159).
att(173,109).
att(75,30).
att(315,205).
att(186,83).
att(178,162).
att(227,388).
att(186,81).
att(91,306).
att(324,205).
att(319,310).
att(173,55).
att(338,233).
att(81,204).
att(163,91).
att(178,46).
att(349,431).
att(333,285).
att(435,55).
att(73,9).
att(181,41).
att(181,59).
att(100,326).
att(86,320).
att(94,215).
att(86,324).
att(428,106).
att(341,245).
att(73,1).
att(78,293).
att(96,361).
att(184,48).
att(98,278).
att(316,250).
att(105,344).
att(15,56).
att(20,123).
att(325,145).
att(266,436).
att(88,256).
att(83,283).
att(99,331).
att(83,279).
att(22,127).
att(308,152).
att(308,134).
att(87,309).
att(333,222).
att(266,432).
att(354,429).
att(279,429).
att(353,428).
att(325,237).
att(181,217).
att(66,123).
att(66,125).
att(169,256).
att(172,267).
att(338,343).
att(429,186).
att(68,119).
att(175,256).
att(93,366).
att(162,326).
att(308,355).
att(334,373).
att(99,396).
att(170,135).
att(61,61).
att(102,391).
att(435,120).
att(312,343).
att(68,58).
att(63,70).
att(68,60).
att(319,406).
att(62,62).
att(87,363).
att(186,241).
att(87,359).
att(81,331).
att(100,409).
att(166,171).
att(20,218).
att(165,247).
att(27,312).
att(180,137).
att(433,138).
att(168,240).
att(76,54).
att(185,236).
att(68,61).
att(70,74).
att(69,69).
att(74,60).
att(61,68).
att(182,245).
att(61,74).
att(84,419).
att(93,400).
att(179,236).
att(435,183).
att(182,232).
att(430,150).
att(177,176).
att(158,156).
att(75,71).
att(329,372).
att(68,27).
att(22,258).
att(91,370).
att(74,61).
att(74,68).
att(29,218).
att(160,150).
att(172,90).
att(329,357).
att(337,350).
att(64,72).
att(163,138).
att(77,77).
att(255,366).
att(122,278).
att(263,394).
att(92,47).
att(118,311).
att(253,357).
att(228,242).
att(78,107).
att(210,337).
att(437,190).
att(107,119).
att(214,256).
att(202,201).
att(321,59).
att(114,198).
att(256,369).
att(195,260).
att(220,143).
att(225,129).
att(126,315).
att(119,221).
att(253,331).
att(27,7).
att(207,194).
att(103,59).
att(199,242).
att(217,233).
att(227,155).
att(107,47).
att(299,429).
att(195,129).
att(112,209).
att(301,433).
att(225,175).
att(111,257).
att(241,425).
att(109,257).
att(95,11).
att(223,188).
att(114,132).
att(435,324).
att(124,238).
att(195,183).
att(429,298).
att(104,22).
att(110,130).
att(127,258).
att(322,428).
att(126,234).
att(127,239).
att(124,268).
att(317,429).
att(210,135).
att(227,105).
att(203,177).
att(91,129).
att(83,168).
att(330,85).
att(100,230).
att(190,349).
att(85,141).
att(91,138).
att(104,258).
att(103,238).
att(104,243).
att(105,237).
att(307,164).
att(78,199).
att(96,197).
att(324,134).
att(79,220).
att(226,270).
att(83,81).
att(87,165).
att(96,140).
att(81,81).
att(111,390).
att(307,84).
att(100,141).
att(224,286).
att(94,180).
att(437,390).
att(199,390).
att(94,162).
att(97,242).
att(197,266).
att(93,164).
att(100,162).
att(219,372).
att(13,35).
att(338,41).
att(24,28).
att(90,90).
att(91,91).
att(29,67).
att(95,95).
att(109,387).
att(312,118).
att(197,356).
att(224,216).
att(207,284).
att(124,365).
att(124,382).
att(207,295).
att(225,214).
att(91,116).
att(80,187).
att(18,26).
att(193,350).
att(325,120).
att(254,185).
att(51,210).
att(258,150).
att(234,267).
att(58,321).
att(145,296).
att(268,140).
att(144,364).
att(390,245).
att(140,322).
att(375,301).
att(146,346).
att(137,318).
att(56,221).
att(41,238).
att(269,162).
att(382,270).
att(243,150).
att(269,166).
att(43,169).
att(263,188).
att(145,388).
att(46,141).
att(387,344).
att(50,147).
att(268,96).
att(50,144).
att(252,106).
att(268,93).
att(60,269).
att(44,89).
att(142,333).
att(44,92).
att(140,361).
att(261,122).
att(53,170).
att(41,162).
att(382,335).
att(43,162).
att(47,136).
att(145,420).
att(368,407).
att(260,292).
att(261,293).
att(263,270).
att(221,118).
att(143,421).
att(365,407).
att(375,423).
att(241,279).
att(269,295).
att(241,273).
att(199,106).
att(199,97).
att(117,173).
att(387,388).
att(155,425).
att(145,405).
att(252,278).
att(50,380).
att(261,311).
att(110,110).
att(146,426).
att(239,284).
att(123,184).
att(116,91).
att(387,357).
att(195,116).
att(228,41).
att(115,113).
att(257,213).
att(255,318).
att(263,335).
att(390,419).
att(117,121).
att(115,115).
att(127,104).
att(59,382).
att(117,117).
att(258,315).
att(242,326).
att(199,41).
att(119,119).
att(233,335).
att(254,152).
att(233,352).
att(251,143).
att(257,256).
att(141,409).
att(368,426).
att(53,308).
att(41,303).
att(387,403).
att(124,124).
att(125,125).
att(127,127).
att(248,303).
att(169,390).
att(336,420).
att(137,84).
att(298,328).
att(332,423).
att(55,68).
att(56,69).
att(129,129).
att(146,164).
att(172,374).
att(362,432).
att(314,426).
att(298,326).
att(133,133).
att(284,389).
att(165,360).
att(297,200).
att(135,135).
att(287,392).
att(145,81).
att(271,247).
att(284,280).
att(289,245).
att(129,183).
att(150,106).
att(172,293).
att(295,226).
att(326,391).
att(58,14).
att(161,343).
att(278,340).
att(53,39).
att(314,398).
att(290,274).
att(314,399).
att(295,233).
att(293,267).
att(186,298).
att(154,119).
att(58,35).
att(47,39).
att(53,5).
att(136,107).
att(176,379).
att(168,213).
att(169,214).
att(274,296).
att(295,131).
att(130,123).
att(175,214).
att(154,60).
att(175,217).
att(169,303).
att(287,213).
att(164,226).
att(165,302).
att(252,63).
att(257,48).
att(46,95).
att(242,41).
att(234,126).
att(145,189).
att(143,201).
att(139,338).
att(387,237).
att(374,267).
att(139,312).
att(280,362).
att(269,60).
att(286,393).
att(151,218).
att(138,254).
att(153,198).
att(139,207).
att(297,317).
att(138,217).
att(269,61).
att(382,233).
att(269,68).
att(274,424).
att(43,72).
att(137,137).
att(375,143).
att(269,27).
att(379,236).
att(131,226).
att(152,250).
att(385,432).
att(133,221).
att(143,143).
att(144,144).
att(261,15).
att(146,197).
att(295,351).
att(383,435).
att(286,419).
att(286,427).
att(145,145).
att(379,222).
att(129,230).
att(295,289).
att(148,148).
att(385,436).
att(130,252).
att(136,235).
att(154,139).
att(152,152).
att(134,250).
att(135,260).
att(87,294).
att(99,364).
att(332,206).
att(97,390).
att(183,100).
att(328,188).
att(62,5).
att(173,121).
att(193,420).
att(74,23).
att(160,181).
att(189,420).
att(160,160).
att(177,162).
att(61,35).
att(64,26).
att(324,271).
att(430,22).
att(193,405).
att(184,123).
att(169,48).
att(93,326).
att(94,337).
att(61,7).
att(161,84).
att(324,328).
att(341,255).
att(88,214).
att(435,58).
att(96,332).
att(162,41).
att(303,233).
att(224,411).
att(328,285).
att(183,46).
att(433,108).
att(186,43).
att(316,254).
att(330,242).
att(436,49).
att(314,266).
att(220,349).
att(302,282).
att(302,283).
att(103,217).
att(307,131).
att(312,141).
att(81,233).
att(314,236).
att(197,424).
att(163,47).
att(435,70).
att(435,107).
att(435,89).
att(272,149).
att(329,358).
att(430,160).
att(295,164).
att(142,20).
att(183,209).
att(287,256).
att(187,218).
att(175,257).
att(333,416).
att(136,47).
att(161,326).
att(180,242).
att(431,80).
att(400,431).
att(431,98).
att(176,263).
att(272,161).
att(164,164).
att(332,317).
att(275,182).
att(433,115).
att(302,348).
att(402,436).
att(275,174).
att(284,137).
att(81,412).
att(187,231).
att(306,404).
att(310,402).
att(329,300).
att(87,345).
att(403,432).
att(430,258).
att(63,25).
att(430,243).
att(174,165).
att(81,354).
att(171,171).
att(160,243).
att(275,90).
att(61,65).
att(432,248).
att(178,173).
att(332,376).
att(168,84).
att(332,369).
att(332,372).
att(91,382).
att(333,323).
att(310,388).
att(166,85).
att(66,14).
att(94,378).
att(168,81).
att(169,88).
att(180,180).
att(181,181).
att(302,395).
att(70,23).
att(320,370).
att(74,65).
att(311,292).
att(183,183).
att(184,184).
att(328,357).
att(68,25).
att(315,294).
att(287,87).
att(70,25).
att(159,144).
att(355,352).
att(90,55).
att(207,330).
att(196,196).
att(105,111).
att(325,56).
att(214,257).
att(85,123).
att(200,200).
att(312,61).
att(228,269).
att(432,308).
att(116,195).
att(345,296).
att(204,204).
att(435,252).
att(79,44).
att(214,175).
att(435,248).
att(205,205).
att(193,241).
att(194,242).
att(88,66).
att(312,27).
att(206,206).
att(227,129).
att(358,262).
att(201,253).
att(209,198).
att(209,209).
att(354,299).
att(219,161).
att(255,364).
att(345,395).
att(97,66).
att(79,63).
att(98,77).
att(92,28).
att(220,172).
att(189,145).
att(250,355).
att(241,412).
att(79,60).
att(319,17).
att(198,144).
att(319,13).
att(86,34).
att(360,346).
att(208,262).
att(214,111).
att(259,370).
att(233,351).
att(111,184).
att(201,81).
att(345,363).
att(343,357).
att(195,163).
att(210,148).
att(202,183).
att(219,386).
att(193,353).
att(84,144).
att(96,264).
att(96,268).
att(325,167).
att(328,99).
att(180,24).
att(319,130).
att(420,429).
att(303,175).
att(416,282).
att(204,313).
att(329,82).
att(79,195).
att(184,14).
att(311,169).
att(197,347).
att(332,83).
att(189,415).
att(196,327).
att(316,187).
att(347,403).
att(320,138).
att(310,171).
att(320,153).
att(187,19).
att(302,102).
att(215,326).
att(353,420).
att(88,184).
att(345,401).
att(324,91).
att(345,410).
att(90,166).
att(421,436).
att(90,183).
att(87,175).
att(308,80).
att(333,126).
att(302,84).
att(311,85).
att(94,167).
att(413,211).
att(158,12).
att(90,172).
att(93,162).
att(226,289).
att(349,384).
att(189,353).
att(81,186).
att(217,382).
att(355,398).
att(341,112).
att(189,294).
att(190,281).
att(206,357).
att(213,213).
att(214,214).
att(225,334).
att(333,41).
att(303,111).
att(416,350).
att(215,215).
att(178,3).
att(330,44).
att(102,172).
att(321,80).
att(338,60).
att(190,375).
att(311,118).
att(189,336).
att(406,285).
att(88,125).
att(96,103).
att(412,317).
att(81,43).
att(191,308).
att(416,313).
att(204,391).
att(422,240).
att(193,336).
att(334,68).
att(416,309).
att(311,46).
att(211,384).
att(338,68).
att(409,247).
att(411,244).
att(224,224).
att(225,225).
att(84,103).
att(320,114).
att(105,85).
att(247,188).
att(375,347).
att(50,210).
att(112,62).
att(229,229).
att(392,270).
att(146,422).
att(365,364).
att(200,425).
att(231,235).
att(57,330).
att(371,367).
att(234,260).
att(232,232).
att(122,47).
att(55,338).
att(143,349).
att(243,239).
att(382,351).
att(239,258).
att(239,239).
att(258,239).
att(258,243).
att(240,240).
att(253,99).
att(244,244).
att(113,21).
att(258,181).
att(297,425).
att(232,273).
att(208,423).
att(50,239).
att(115,21).
att(152,355).
att(230,141).
att(232,283).
att(265,173).
att(119,28).
att(239,133).
att(392,204).
att(374,294).
att(248,248).
att(43,170).
att(45,160).
att(258,104).
att(230,162).
att(377,385).
att(115,34).
att(378,274).
att(122,29).
att(368,314).
att(50,133).
att(52,151).
att(264,85).
att(146,347).
att(258,160).
att(387,310).
att(138,390).
att(387,306).
att(48,184).
att(140,314).
att(108,33).
att(231,80).
att(251,52).
att(150,284).
att(142,312).
att(261,119).
att(153,278).
att(129,387).
att(268,124).
att(238,103).
att(245,327).
att(378,326).
att(138,278).
att(89,6).
att(220,120).
att(240,359).
att(221,119).
att(116,187).
att(124,128).
att(234,374).
att(114,170).
att(267,294).
att(107,39).
att(124,139).
att(232,393).
att(86,39).
att(112,157).
att(218,80).
att(353,200).
att(201,99).
att(78,14).
att(377,402).
att(379,398).
att(78,35).
att(269,338).
att(269,312).
att(252,338).
att(203,113).
att(107,7).
att(241,297).
att(228,60).
att(270,196).
att(256,213).
att(231,316).
att(251,251).
att(237,306).
att(343,266).
att(262,206).
att(273,192).
att(235,308).
att(207,123).
att(228,74).
att(239,338).
att(276,196).
att(354,279).
att(262,247).
att(255,255).
att(264,227).
att(257,303).
att(373,425).
att(228,68).
att(118,119).
att(109,123).
att(243,330).
att(231,218).
att(288,204).
att(257,257).
att(240,425).
att(349,211).
att(265,239).
att(264,242).
att(358,206).
att(221,18).
att(235,218).
att(259,259).
att(124,110).
att(252,248).
att(262,262).
att(238,217).
att(265,265).
att(288,212).
att(390,351).
att(228,24).
att(267,267).
att(268,268).
att(40,434).
att(140,106).
att(147,167).
att(270,270).
att(294,323).
att(48,14).
att(273,273).
att(274,274).
att(273,283).
att(378,94).
att(155,162).
att(156,158).
att(278,278).
att(283,273).
att(138,187).
att(239,33).
att(243,40).
att(239,34).
att(272,378).
att(138,163).
att(280,280).
att(55,25).
att(174,275).
att(182,371).
att(140,118).
att(365,52).
att(284,284).
att(135,158).
att(276,322).
att(155,103).
att(281,324).
att(287,272).
att(277,332).
att(131,159).
att(287,287).
att(137,103).
att(279,317).
att(293,315).
att(59,12).
att(59,30).
att(290,290).
att(147,127).
att(289,226).
att(137,48).
att(55,40).
att(270,335).
att(171,311).
att(284,320).
att(59,39).
att(287,333).
att(164,307).
att(297,253).
att(57,33).
att(33,428).
att(266,385).
att(138,64).
att(149,48).
att(282,339).
att(288,327).
att(272,254).
att(336,415).
att(131,120).
att(273,393).
att(186,304).
att(276,356).
att(293,234).
att(276,361).
att(266,402).
att(370,233).
att(264,47).
att(131,295).
att(392,155).
att(242,123).
att(299,205).
att(381,189).
att(140,268).
att(387,183).
att(282,395).
att(296,212).
att(368,150).
att(370,134).
att(371,135).
att(387,129).
att(238,42).
att(138,195).
att(269,65).
att(435,7).
att(271,349).
att(389,93).
att(318,204).
att(131,209).
att(317,205).
att(149,260).
att(296,288).
att(152,254).
att(297,392).
att(436,7).
att(309,240).
att(147,210).
att(239,69).
att(291,291).
att(147,154).
att(313,270).
att(146,147).
att(140,159).
att(261,38).
att(288,418).
att(231,19).
att(295,295).
att(280,370).
att(378,180).
att(43,71).
att(138,136).
att(147,248).
att(373,102).
att(299,313).
att(301,301).
att(409,357).
att(322,276).
att(168,111).
att(306,306).
att(307,307).
att(334,225).
att(130,5).
att(186,101).
att(316,308).
att(171,111).
att(341,198).
att(312,312).
att(411,352).
att(171,118).
att(183,107).
att(436,14).
att(436,19).
att(287,116).
att(413,372).
att(185,106).
att(314,314).
att(315,315).
att(316,316).
att(99,281).
att(180,121).
att(87,333).
att(333,234).
att(304,199).
att(161,118).
att(317,305).
att(93,311).
att(416,363).
att(333,268).
att(415,342).
att(336,267).
att(437,39).
att(96,365).
att(161,106).
att(87,287).
att(83,324).
att(323,323).
att(91,195).
att(303,257).
att(329,153).
att(223,422).
att(305,369).
att(173,75).
att(102,303).
att(169,66).
att(175,66).
att(315,234).
att(183,47).
att(317,359).
att(310,237).
att(94,218).
att(318,366).
att(186,42).
att(315,260).
att(309,363).
att(193,415).
att(219,358).
att(331,205).
att(178,75).
att(434,69).
att(330,181).
att(84,209).
att(336,171).
att(105,209).
att(325,261).
att(309,385).
att(79,334).
att(186,66).
att(314,146).
att(336,353).
att(192,84).
att(327,245).
att(274,155).
att(274,152).
att(317,396).
att(129,44).
att(411,427).
att(339,247).
att(278,132).
att(290,242).
att(138,72).
att(309,410).
att(337,378).
att(271,176).
att(301,423).
att(182,260).
att(297,99).
att(335,249).
att(272,169).
att(295,103).
att(336,381).
att(161,194).
att(132,76).
att(177,203).
att(339,282).
att(289,131).
att(211,93).
att(295,120).
att(303,390).
att(271,84).
att(142,8).
att(175,184).
att(200,168).
att(130,23).
att(348,282).
att(290,159).
att(350,288).
att(177,181).
att(171,85).
att(338,312).
att(180,187).
att(180,167).
att(334,334).
att(159,148).
att(284,106).
att(337,337).
att(154,10).
att(348,313).
att(286,105).
att(315,293).
att(83,66).
att(192,213).
att(406,179).
att(339,357).
att(192,226).
att(343,343).
att(223,230).
att(360,389).
att(105,125).
att(346,352).
att(346,346).
att(197,198).
att(408,171).
att(320,47).
att(215,180).
att(192,256).
att(351,351).
att(200,241).
att(408,96).
att(220,151).
att(311,18).
att(414,161).
att(69,434).
att(90,68).
att(319,73).
att(354,354).
att(320,64).
att(81,76).
att(355,355).
att(220,163).
att(360,314).
att(416,87).
att(192,292).
att(357,188).
att(88,14).
att(353,381).
att(334,6).
att(102,61).
att(197,147).
att(412,81).
att(200,340).
att(361,196).
att(412,83).
att(214,184).
att(212,215).
att(414,102).
att(94,12).
att(342,405).
att(348,407).
att(350,391).
att(366,204).
att(319,31).
att(102,24).
att(223,94).
att(197,180).
att(103,30).
att(223,106).
att(303,184).
att(223,378).
att(422,213).
att(177,21).
att(348,426).
att(422,226).
att(161,24).
att(376,206).
att(229,168).
att(412,297).
att(87,142).
att(226,390).
att(310,183).
att(411,323).
att(196,364).
att(166,28).
att(326,103).
att(415,294).
att(415,297).
att(346,426).
att(222,176).
att(326,41).
att(215,337).
att(416,326).
att(83,101).
att(324,86).
att(333,110).
att(177,34).
att(302,94).
att(180,39).
att(408,197).
att(376,262).
att(336,118).
att(361,322).
att(84,148).
att(315,86).
att(161,27).
att(415,310).
att(201,387).
att(303,125).
att(323,126).
att(206,409).
att(366,313).
att(306,120).
att(363,296).
att(244,143).
att(336,43).
att(227,330).
att(356,356).
att(183,6).
att(226,307).
att(416,323).
att(415,193).
att(81,101).
att(208,351).
att(416,256).
att(197,307).
att(303,42).
att(193,315).
att(359,369).
att(99,86).
att(360,360).
att(246,90).
att(338,65).
att(90,119).
att(83,108).
att(215,209).
att(362,362).
att(93,119).
att(254,187).
att(203,34).
att(229,310).
att(194,27).
att(264,136).
att(366,366).
att(259,156).
att(377,355).
att(111,14).
att(361,397).
att(356,399).
att(366,391).
att(353,179).
att(356,407).
att(370,370).
att(372,376).
att(202,29).
att(369,359).
att(372,372).
att(202,27).
att(354,168).
att(241,242).
att(114,26).
att(256,169).
att(257,184).
att(375,382).
att(386,340).
att(263,177).
att(237,129).
att(351,84).
att(368,295).
att(116,30).
att(376,376).
att(116,26).
att(378,378).
att(246,143).
att(237,153).
att(118,28).
att(391,204).
att(379,379).
att(380,380).
att(354,81).
att(382,382).
att(363,410).
att(256,88).
att(386,219).
att(259,91).
att(378,290).
att(191,7).
att(122,16).
att(140,382).
att(140,365).
att(393,232).
att(241,186).
att(394,211).
att(393,245).
att(390,238).
att(246,306).
att(264,121).
att(259,114).
att(371,209).
att(395,247).
att(256,111).
att(222,271).
att(264,115).
att(246,201).
att(264,125).
att(378,337).
att(387,198).
att(207,10).
att(97,38).
att(397,270).
att(79,33).
att(91,7).
att(237,387).
att(347,216).
att(279,182).
att(223,126).
att(283,182).
att(319,4).
att(201,43).
att(214,66).
att(259,320).
att(264,330).
att(345,250).
att(193,122).
att(219,46).
att(388,344).
att(267,315).
att(276,96).
att(241,298).
att(392,351).
att(259,198).
att(351,233).
att(202,63).
att(253,254).
att(220,74).
att(279,255).
att(354,241).
att(373,414).
att(220,63).
att(79,7).
att(349,155).
att(349,152).
att(197,50).
att(270,233).
att(385,385).
att(343,161).
att(349,93).
att(386,386).
att(390,380).
att(279,256).
att(343,164).
att(237,209).
att(377,409).
att(395,366).
att(233,217).
att(266,250).
att(392,392).
att(194,68).
att(254,231).
att(146,167).
att(234,40).
att(388,404).
att(365,110).
att(143,101).
att(145,101).
att(383,427).
att(137,184).
att(289,390).
att(404,188).
att(262,300).
att(397,397).
att(295,218).
att(279,328).
att(288,215).
att(365,42).
att(152,80).
att(274,337).
att(379,120).
att(399,266).
att(279,213).
att(368,49).
att(381,122).
att(134,187).
att(292,303).
att(272,218).
att(294,234).
att(292,257).
att(292,260).
att(284,330).
att(291,149).
att(317,81).
att(279,354).
att(371,72).
att(137,125).
att(280,214).
att(403,266).
att(134,80).
att(379,59).
att(405,279).
att(271,238).
att(174,199).
att(143,74).
att(174,210).
att(171,221).
att(365,24).
att(305,81).
att(305,83).
att(143,63).
att(276,280).
att(299,81).
att(371,13).
att(262,386).
att(317,149).
att(387,148).
att(301,253).
att(399,346).
att(309,134).
att(399,356).
att(322,171).
att(299,241).
att(404,344).
att(140,319).
att(373,242).
att(405,350).
att(143,252).
att(368,139).
att(237,47).
att(370,138).
att(309,176).
att(233,42).
att(410,350).
att(400,384).
att(387,92).
att(242,14).
att(387,107).
att(404,388).
att(381,186).
att(418,204).
att(392,97).
att(145,133).
att(402,385).
att(386,82).
att(257,14).
att(299,340).
att(131,218).
att(373,172).
att(251,26).
att(296,326).
att(146,207).
att(271,390).
att(317,241).
att(373,111).
att(404,402).
att(238,19).
att(145,167).
att(403,403).
att(297,298).
att(389,111).
att(296,215).
att(146,235).
att(268,31).
att(404,404).
att(421,204).
att(137,136).
att(370,91).
att(333,203).
att(307,321).
att(332,190).
att(129,6).
att(407,407).
att(408,408).
att(419,249).
att(174,117).
att(309,274).
att(274,41).
att(284,123).
att(287,113).
att(296,392).
att(328,324).
att(411,411).
att(317,340).
att(410,421).
att(332,257).
att(418,313).
att(329,269).
att(412,412).
att(405,420).
att(418,296).
att(413,406).
att(299,297).
att(311,221).
att(284,58).
att(406,413).
att(332,135).
att(168,72).
att(333,133).
att(87,195).
att(418,350).
att(102,334).
att(102,312).
att(332,156).
att(169,67).
att(331,253).
att(415,353).
att(105,330).
att(424,296).
att(174,72).
att(309,345).
att(287,64).
att(169,30).
att(419,352).
att(413,364).
att(414,373).
att(105,199).
att(411,286).
att(424,350).
att(102,225).
att(416,345).
att(161,60).
att(305,354).
att(287,20).
att(287,27).
att(324,231).
att(211,52).
att(342,193).
att(192,88).
att(289,144).
att(342,189).
att(425,359).
att(146,72).
att(339,302).
att(143,29).
att(298,158).
att(275,133).
att(164,235).
att(375,17).
att(208,52).
att(155,66).
att(204,59).
att(281,95).
att(290,167).
att(298,101).
att(141,33).
att(335,233).
att(161,199).
att(200,43).
att(284,139).
att(346,131).
att(284,151).
att(284,154).
att(344,237).
att(137,29).
att(176,203).
att(290,148).
att(290,133).
att(277,175).
att(165,173).
att(344,292).
att(188,141).
att(200,135).
att(294,126).
att(306,387).
att(287,178).
att(174,167).
att(310,387).
att(129,12).
att(200,186).
att(420,424).
att(156,35).
att(206,82).
att(302,275).
att(204,88).
att(342,336).
att(297,41).
att(424,424).
att(275,117).
att(352,216).
att(346,215).
att(281,108).
att(329,23).
att(360,368).
att(426,426).
att(331,409).
att(342,353).
att(415,186).
att(223,258).
att(357,155).
att(223,239).
att(223,243).
att(333,26).
att(310,76).
att(189,325).
att(361,185).
att(361,179).
att(215,167).
att(189,261).
att(9,299).
att(347,380).
att(223,128).
att(412,186).
att(4,262).
att(3,282).
att(70,433).
att(311,28).
att(9,279).
att(361,105).
att(414,172).
att(201,252).
att(212,180).
att(310,24).
att(363,256).
att(208,324).
att(345,287).
att(10,400).
att(229,109).
att(412,103).
att(229,112).
att(363,250).
att(359,213).
att(197,157).
att(93,28).
att(102,67).
att(200,341).
att(356,197).
att(81,26).
att(222,120).
att(8,363).
att(208,190).
att(342,415).
att(9,359).
att(3,348).
att(99,21).
att(105,28).
att(362,155).
att(346,347).
att(223,104).
att(361,140).
att(5,318).
att(192,307).
att(354,298).
att(176,25).
att(366,326).
att(406,329).
att(9,425).
att(302,173).
att(247,100).
att(275,5).
att(31,200).
att(275,9).
att(212,290).
att(240,88).
att(240,103).
att(3,401).
att(1,385).
att(415,281).
att(161,65).
att(222,177).
att(165,3).
att(328,115).
att(192,387).
att(179,38).
att(306,107).
att(7,403).
att(208,281).
att(310,107).
att(3,395).
att(35,196).
att(3,391).
att(206,329).
att(326,121).
att(174,4).
att(310,92).
att(415,324).
att(2,388).
att(310,95).
att(245,144).
att(363,379).
att(32,283).
att(247,141).
att(36,309).
att(219,338).
att(222,230).
att(336,58).
att(328,108).
att(1,423).
att(36,285).
att(412,242).
att(60,432).
att(36,282).
att(314,62).
att(34,222).
att(306,47).
att(60,431).
att(406,138).
att(247,162).
att(310,47).
att(306,44).
att(197,330).
att(31,247).
att(414,234).
att(56,434).
att(416,194).
att(232,135).
att(384,93).
att(411,150).
att(38,236).
att(343,103).
att(209,12).
att(395,146).
att(189,15).
att(270,59).
att(394,149).
att(367,371).
att(22,430).
att(194,25).
att(376,358).
att(20,432).
att(198,12).
att(245,198).
att(373,374).
att(354,186).
att(190,39).
att(253,86).
att(395,182).
att(383,143).
att(360,50).
att(351,103).
att(233,148).
att(345,111).
att(384,131).
att(194,33).
att(246,153).
att(345,114).
att(282,112).
att(343,46).
att(276,124).
att(276,120).
att(345,48).
att(353,122).
att(250,80).
att(396,250).
att(378,308).
att(351,59).
att(17,437).
att(237,89).
att(267,108).
att(237,92).
att(394,271).
att(279,132).
att(288,180).
att(285,91).
att(197,104).
att(396,328).
att(413,59).
att(288,94).
att(213,125).
att(213,123).
att(216,49).
att(201,44).
att(351,209).
att(219,60).
att(383,286).
att(349,254).
att(395,302).
att(391,326).
att(270,209).
att(201,63).
att(259,191).
att(407,185).
att(7,266).
att(189,44).
att(263,203).
att(410,161).
att(219,76).
att(76,428).
att(360,180).
att(219,74).
att(193,44).
att(410,87).
att(5,204).
att(383,411).
att(395,351).
att(270,238).
att(4,208).
att(193,76).
att(194,65).
att(347,169).
att(384,349).
att(237,221).
att(396,271).
att(283,156).
att(250,235).
att(405,241).
att(288,337).
att(301,114).
att(317,43).
att(300,330).
att(405,145).
att(398,216).
att(401,233).
att(276,209).
att(377,125).
att(379,113).
att(403,134).
att(80,428).
att(271,199).
att(271,203).
att(389,24).
att(367,72).
att(390,30).
att(405,336).
att(370,64).
att(280,207).
att(305,162).
att(19,419).
att(296,162).
att(25,400).
att(381,15).
att(405,193).
att(405,189).
att(313,97).
att(367,18).
att(322,124).
att(270,390).
att(262,380).
att(407,197).
att(309,116).
att(373,27).
att(345,18).
att(418,137).
att(389,139).
att(345,20).
att(364,148).
att(73,317).
att(367,148).
att(317,169).
att(98,431).
att(318,159).
att(373,151).
att(353,15).
att(410,416).
att(405,415).
att(367,158).
att(256,14).
att(65,362).
att(335,59).
att(339,41).
att(420,253).
att(339,50).
att(73,372).
att(317,260).
att(392,121).
att(426,164).
att(322,268).
att(410,345).
att(426,179).
att(255,5).
att(263,38).
att(420,145).
att(263,33).
att(267,40).
att(293,69).
att(192,29).
att(427,216).
att(32,346).
att(342,85).
att(32,350).
att(36,363).
att(425,213).
att(346,120).
att(328,316).
att(420,336).
att(344,120).
att(309,287).
att(418,326).
att(350,41).
att(272,65).
att(300,27).
att(314,191).
att(420,193).
att(318,341).
att(346,50).
att(23,188).
att(23,204).
att(34,394).
att(328,148).
att(350,159).
att(208,17).
att(339,147).
att(174,71).
att(322,365).
att(302,157).
att(168,26).
att(317,371).
att(272,34).
att(348,162).
att(32,356).
att(414,374).
att(165,75).
att(164,30).
att(298,5).
att(359,59).
att(387,6).
att(204,121).
att(356,50).
att(423,406).
att(277,130).
att(127,430).
att(350,254).
att(12,245).
att(277,136).
att(280,139).
att(423,413).
att(145,16).
att(280,154).
att(335,217).
att(327,209).
att(21,222).
att(274,167).
att(365,2).
att(16,192).
att(21,236).
att(12,196).
att(335,238).
att(131,77).
att(149,14).
att(357,100).
att(297,108).
att(361,124).
att(211,119).
att(331,281).
att(339,275).
att(14,270).
att(366,41).
att(376,82).
att(366,169).
att(211,151).
att(7,347).
att(314,12).
att(244,11).
att(38,185).
att(346,368).
att(35,149).
att(356,147).
att(415,133).
att(416,167).
att(422,125).
att(10,349).
att(3,373).
att(212,167).
att(4,332).
att(360,304).
att(406,108).
att(240,123).
att(142,436).
att(222,115).
att(366,238).
att(366,242).
att(361,268).
att(222,113).
att(361,264).
att(212,218).
att(356,209).
att(357,230).
att(306,6).
att(200,304).
att(310,6).
att(246,29).
att(33,216).
att(395,50).
att(32,223).
att(391,41).
att(372,329).
att(394,46).
att(363,333).
att(385,48).
att(32,314).
att(277,4).
att(280,10).
att(232,158).
att(222,181).
att(369,214).
att(422,269).
att(359,303).
att(406,191).
att(40,323).
att(240,125).
att(384,52).
att(422,207).
att(4,409).
att(416,228).
att(422,154).
att(363,378).
att(32,152).
att(394,100).
att(273,13).
att(361,365).
att(1,406).
att(416,308).
att(384,166).
att(262,27).
att(396,116).
att(31,256).
att(229,136).
att(8,408).
att(37,131).
att(384,97).
att(413,252).
att(240,184).
att(4,412).
att(416,195).
att(359,382).
att(35,256).
att(376,329).
att(422,128).
att(356,368).
att(40,267).
att(246,95).
att(395,141).
att(8,87).
att(343,95).
att(393,135).
att(262,60).
att(388,153).
att(394,177).
att(283,13).
att(282,13).
att(197,39).
att(353,101).
att(276,24).
att(222,203).
att(355,49).
att(345,60).
att(398,120).
att(282,117).
att(360,62).
att(276,110).
att(373,334).
att(343,74).
att(163,432).
att(160,430).
att(67,425).
att(285,64).
att(353,56).
att(396,144).
att(411,13).
att(343,191).
att(283,170).
att(288,167).
att(405,118).
att(430,430).
att(431,428).
att(345,195).
att(5,255).
att(401,109).
att(395,275).
att(400,85).
att(432,436).
att(407,50).
att(433,433).
att(415,15).
att(399,112).
att(9,237).
att(406,17).
att(4,143).
att(8,256).
att(435,435).
att(408,24).
att(401,41).
att(273,158).
att(2,263).
att(1,137).
att(437,435).
att(437,437).
att(7,134).
att(301,70).
att(9,143).
att(404,183).
att(345,142).
att(353,261).
att(6,237).
att(355,235).
att(226,77).
att(216,19).
att(266,191).
att(353,136).
att(397,365).
att(219,19).
att(301,18).
att(345,178).
att(402,175).
att(276,151).
att(404,100).
att(285,163).
att(410,126).
att(391,390).
