arg(1..300).
att(1,1).
att(3,2).
att(2,1).
att(2,3).
att(4,4).
att(6,5).
att(5,4).
att(5,6).
att(5,2).
att(5,1).
att(7,7).
att(9,8).
att(8,7).
att(8,9).
att(8,2).
att(8,1).
att(8,5).
att(8,4).
att(10,10).
att(12,11).
att(11,10).
att(11,12).
att(11,2).
att(11,1).
att(11,5).
att(11,4).
att(11,8).
att(11,7).
att(13,13).
att(15,14).
att(14,13).
att(14,15).
att(14,2).
att(14,1).
att(14,5).
att(14,4).
att(14,8).
att(14,7).
att(14,11).
att(14,10).
att(16,16).
att(18,17).
att(17,16).
att(17,18).
att(17,2).
att(17,1).
att(17,5).
att(17,4).
att(17,8).
att(17,7).
att(17,11).
att(17,10).
att(17,14).
att(17,13).
att(19,19).
att(21,20).
att(20,19).
att(20,21).
att(20,2).
att(20,1).
att(20,5).
att(20,4).
att(20,8).
att(20,7).
att(20,11).
att(20,10).
att(20,14).
att(20,13).
att(20,17).
att(20,16).
att(22,22).
att(24,23).
att(23,22).
att(23,24).
att(23,2).
att(23,1).
att(23,5).
att(23,4).
att(23,8).
att(23,7).
att(23,11).
att(23,10).
att(23,14).
att(23,13).
att(23,17).
att(23,16).
att(23,20).
att(23,19).
att(25,25).
att(27,26).
att(26,25).
att(26,27).
att(26,2).
att(26,1).
att(26,5).
att(26,4).
att(26,8).
att(26,7).
att(26,11).
att(26,10).
att(26,14).
att(26,13).
att(26,17).
att(26,16).
att(26,20).
att(26,19).
att(26,23).
att(26,22).
att(28,28).
att(30,29).
att(29,28).
att(29,30).
att(29,2).
att(29,1).
att(29,5).
att(29,4).
att(29,8).
att(29,7).
att(29,11).
att(29,10).
att(29,14).
att(29,13).
att(29,17).
att(29,16).
att(29,20).
att(29,19).
att(29,23).
att(29,22).
att(29,26).
att(29,25).
att(31,31).
att(33,32).
att(32,31).
att(32,33).
att(32,2).
att(32,1).
att(32,5).
att(32,4).
att(32,8).
att(32,7).
att(32,11).
att(32,10).
att(32,14).
att(32,13).
att(32,17).
att(32,16).
att(32,20).
att(32,19).
att(32,23).
att(32,22).
att(32,26).
att(32,25).
att(32,29).
att(32,28).
att(34,34).
att(36,35).
att(35,34).
att(35,36).
att(35,2).
att(35,1).
att(35,5).
att(35,4).
att(35,8).
att(35,7).
att(35,11).
att(35,10).
att(35,14).
att(35,13).
att(35,17).
att(35,16).
att(35,20).
att(35,19).
att(35,23).
att(35,22).
att(35,26).
att(35,25).
att(35,29).
att(35,28).
att(35,32).
att(35,31).
att(37,37).
att(39,38).
att(38,37).
att(38,39).
att(38,2).
att(38,1).
att(38,5).
att(38,4).
att(38,8).
att(38,7).
att(38,11).
att(38,10).
att(38,14).
att(38,13).
att(38,17).
att(38,16).
att(38,20).
att(38,19).
att(38,23).
att(38,22).
att(38,26).
att(38,25).
att(38,29).
att(38,28).
att(38,32).
att(38,31).
att(38,35).
att(38,34).
att(40,40).
att(42,41).
att(41,40).
att(41,42).
att(41,2).
att(41,1).
att(41,5).
att(41,4).
att(41,8).
att(41,7).
att(41,11).
att(41,10).
att(41,14).
att(41,13).
att(41,17).
att(41,16).
att(41,20).
att(41,19).
att(41,23).
att(41,22).
att(41,26).
att(41,25).
att(41,29).
att(41,28).
att(41,32).
att(41,31).
att(41,35).
att(41,34).
att(41,38).
att(41,37).
att(43,43).
att(45,44).
att(44,43).
att(44,45).
att(44,2).
att(44,1).
att(44,5).
att(44,4).
att(44,8).
att(44,7).
att(44,11).
att(44,10).
att(44,14).
att(44,13).
att(44,17).
att(44,16).
att(44,20).
att(44,19).
att(44,23).
att(44,22).
att(44,26).
att(44,25).
att(44,29).
att(44,28).
att(44,32).
att(44,31).
att(44,35).
att(44,34).
att(44,38).
att(44,37).
att(44,41).
att(44,40).
att(46,46).
att(48,47).
att(47,46).
att(47,48).
att(47,2).
att(47,1).
att(47,5).
att(47,4).
att(47,8).
att(47,7).
att(47,11).
att(47,10).
att(47,14).
att(47,13).
att(47,17).
att(47,16).
att(47,20).
att(47,19).
att(47,23).
att(47,22).
att(47,26).
att(47,25).
att(47,29).
att(47,28).
att(47,32).
att(47,31).
att(47,35).
att(47,34).
att(47,38).
att(47,37).
att(47,41).
att(47,40).
att(47,44).
att(47,43).
att(49,49).
att(51,50).
att(50,49).
att(50,51).
att(50,2).
att(50,1).
att(50,5).
att(50,4).
att(50,8).
att(50,7).
att(50,11).
att(50,10).
att(50,14).
att(50,13).
att(50,17).
att(50,16).
att(50,20).
att(50,19).
att(50,23).
att(50,22).
att(50,26).
att(50,25).
att(50,29).
att(50,28).
att(50,32).
att(50,31).
att(50,35).
att(50,34).
att(50,38).
att(50,37).
att(50,41).
att(50,40).
att(50,44).
att(50,43).
att(50,47).
att(50,46).
att(52,52).
att(54,53).
att(53,52).
att(53,54).
att(53,2).
att(53,1).
att(53,5).
att(53,4).
att(53,8).
att(53,7).
att(53,11).
att(53,10).
att(53,14).
att(53,13).
att(53,17).
att(53,16).
att(53,20).
att(53,19).
att(53,23).
att(53,22).
att(53,26).
att(53,25).
att(53,29).
att(53,28).
att(53,32).
att(53,31).
att(53,35).
att(53,34).
att(53,38).
att(53,37).
att(53,41).
att(53,40).
att(53,44).
att(53,43).
att(53,47).
att(53,46).
att(53,50).
att(53,49).
att(55,55).
att(57,56).
att(56,55).
att(56,57).
att(56,2).
att(56,1).
att(56,5).
att(56,4).
att(56,8).
att(56,7).
att(56,11).
att(56,10).
att(56,14).
att(56,13).
att(56,17).
att(56,16).
att(56,20).
att(56,19).
att(56,23).
att(56,22).
att(56,26).
att(56,25).
att(56,29).
att(56,28).
att(56,32).
att(56,31).
att(56,35).
att(56,34).
att(56,38).
att(56,37).
att(56,41).
att(56,40).
att(56,44).
att(56,43).
att(56,47).
att(56,46).
att(56,50).
att(56,49).
att(56,53).
att(56,52).
att(58,58).
att(60,59).
att(59,58).
att(59,60).
att(59,2).
att(59,1).
att(59,5).
att(59,4).
att(59,8).
att(59,7).
att(59,11).
att(59,10).
att(59,14).
att(59,13).
att(59,17).
att(59,16).
att(59,20).
att(59,19).
att(59,23).
att(59,22).
att(59,26).
att(59,25).
att(59,29).
att(59,28).
att(59,32).
att(59,31).
att(59,35).
att(59,34).
att(59,38).
att(59,37).
att(59,41).
att(59,40).
att(59,44).
att(59,43).
att(59,47).
att(59,46).
att(59,50).
att(59,49).
att(59,53).
att(59,52).
att(59,56).
att(59,55).
att(61,61).
att(63,62).
att(62,61).
att(62,63).
att(62,2).
att(62,1).
att(62,5).
att(62,4).
att(62,8).
att(62,7).
att(62,11).
att(62,10).
att(62,14).
att(62,13).
att(62,17).
att(62,16).
att(62,20).
att(62,19).
att(62,23).
att(62,22).
att(62,26).
att(62,25).
att(62,29).
att(62,28).
att(62,32).
att(62,31).
att(62,35).
att(62,34).
att(62,38).
att(62,37).
att(62,41).
att(62,40).
att(62,44).
att(62,43).
att(62,47).
att(62,46).
att(62,50).
att(62,49).
att(62,53).
att(62,52).
att(62,56).
att(62,55).
att(62,59).
att(62,58).
att(64,64).
att(66,65).
att(65,64).
att(65,66).
att(65,2).
att(65,1).
att(65,5).
att(65,4).
att(65,8).
att(65,7).
att(65,11).
att(65,10).
att(65,14).
att(65,13).
att(65,17).
att(65,16).
att(65,20).
att(65,19).
att(65,23).
att(65,22).
att(65,26).
att(65,25).
att(65,29).
att(65,28).
att(65,32).
att(65,31).
att(65,35).
att(65,34).
att(65,38).
att(65,37).
att(65,41).
att(65,40).
att(65,44).
att(65,43).
att(65,47).
att(65,46).
att(65,50).
att(65,49).
att(65,53).
att(65,52).
att(65,56).
att(65,55).
att(65,59).
att(65,58).
att(65,62).
att(65,61).
att(67,67).
att(69,68).
att(68,67).
att(68,69).
att(68,2).
att(68,1).
att(68,5).
att(68,4).
att(68,8).
att(68,7).
att(68,11).
att(68,10).
att(68,14).
att(68,13).
att(68,17).
att(68,16).
att(68,20).
att(68,19).
att(68,23).
att(68,22).
att(68,26).
att(68,25).
att(68,29).
att(68,28).
att(68,32).
att(68,31).
att(68,35).
att(68,34).
att(68,38).
att(68,37).
att(68,41).
att(68,40).
att(68,44).
att(68,43).
att(68,47).
att(68,46).
att(68,50).
att(68,49).
att(68,53).
att(68,52).
att(68,56).
att(68,55).
att(68,59).
att(68,58).
att(68,62).
att(68,61).
att(68,65).
att(68,64).
att(70,70).
att(72,71).
att(71,70).
att(71,72).
att(71,2).
att(71,1).
att(71,5).
att(71,4).
att(71,8).
att(71,7).
att(71,11).
att(71,10).
att(71,14).
att(71,13).
att(71,17).
att(71,16).
att(71,20).
att(71,19).
att(71,23).
att(71,22).
att(71,26).
att(71,25).
att(71,29).
att(71,28).
att(71,32).
att(71,31).
att(71,35).
att(71,34).
att(71,38).
att(71,37).
att(71,41).
att(71,40).
att(71,44).
att(71,43).
att(71,47).
att(71,46).
att(71,50).
att(71,49).
att(71,53).
att(71,52).
att(71,56).
att(71,55).
att(71,59).
att(71,58).
att(71,62).
att(71,61).
att(71,65).
att(71,64).
att(71,68).
att(71,67).
att(73,73).
att(75,74).
att(74,73).
att(74,75).
att(74,2).
att(74,1).
att(74,5).
att(74,4).
att(74,8).
att(74,7).
att(74,11).
att(74,10).
att(74,14).
att(74,13).
att(74,17).
att(74,16).
att(74,20).
att(74,19).
att(74,23).
att(74,22).
att(74,26).
att(74,25).
att(74,29).
att(74,28).
att(74,32).
att(74,31).
att(74,35).
att(74,34).
att(74,38).
att(74,37).
att(74,41).
att(74,40).
att(74,44).
att(74,43).
att(74,47).
att(74,46).
att(74,50).
att(74,49).
att(74,53).
att(74,52).
att(74,56).
att(74,55).
att(74,59).
att(74,58).
att(74,62).
att(74,61).
att(74,65).
att(74,64).
att(74,68).
att(74,67).
att(74,71).
att(74,70).
att(76,76).
att(78,77).
att(77,76).
att(77,78).
att(77,2).
att(77,1).
att(77,5).
att(77,4).
att(77,8).
att(77,7).
att(77,11).
att(77,10).
att(77,14).
att(77,13).
att(77,17).
att(77,16).
att(77,20).
att(77,19).
att(77,23).
att(77,22).
att(77,26).
att(77,25).
att(77,29).
att(77,28).
att(77,32).
att(77,31).
att(77,35).
att(77,34).
att(77,38).
att(77,37).
att(77,41).
att(77,40).
att(77,44).
att(77,43).
att(77,47).
att(77,46).
att(77,50).
att(77,49).
att(77,53).
att(77,52).
att(77,56).
att(77,55).
att(77,59).
att(77,58).
att(77,62).
att(77,61).
att(77,65).
att(77,64).
att(77,68).
att(77,67).
att(77,71).
att(77,70).
att(77,74).
att(77,73).
att(79,79).
att(81,80).
att(80,79).
att(80,81).
att(80,2).
att(80,1).
att(80,5).
att(80,4).
att(80,8).
att(80,7).
att(80,11).
att(80,10).
att(80,14).
att(80,13).
att(80,17).
att(80,16).
att(80,20).
att(80,19).
att(80,23).
att(80,22).
att(80,26).
att(80,25).
att(80,29).
att(80,28).
att(80,32).
att(80,31).
att(80,35).
att(80,34).
att(80,38).
att(80,37).
att(80,41).
att(80,40).
att(80,44).
att(80,43).
att(80,47).
att(80,46).
att(80,50).
att(80,49).
att(80,53).
att(80,52).
att(80,56).
att(80,55).
att(80,59).
att(80,58).
att(80,62).
att(80,61).
att(80,65).
att(80,64).
att(80,68).
att(80,67).
att(80,71).
att(80,70).
att(80,74).
att(80,73).
att(80,77).
att(80,76).
att(82,82).
att(84,83).
att(83,82).
att(83,84).
att(83,2).
att(83,1).
att(83,5).
att(83,4).
att(83,8).
att(83,7).
att(83,11).
att(83,10).
att(83,14).
att(83,13).
att(83,17).
att(83,16).
att(83,20).
att(83,19).
att(83,23).
att(83,22).
att(83,26).
att(83,25).
att(83,29).
att(83,28).
att(83,32).
att(83,31).
att(83,35).
att(83,34).
att(83,38).
att(83,37).
att(83,41).
att(83,40).
att(83,44).
att(83,43).
att(83,47).
att(83,46).
att(83,50).
att(83,49).
att(83,53).
att(83,52).
att(83,56).
att(83,55).
att(83,59).
att(83,58).
att(83,62).
att(83,61).
att(83,65).
att(83,64).
att(83,68).
att(83,67).
att(83,71).
att(83,70).
att(83,74).
att(83,73).
att(83,77).
att(83,76).
att(83,80).
att(83,79).
att(85,85).
att(87,86).
att(86,85).
att(86,87).
att(86,2).
att(86,1).
att(86,5).
att(86,4).
att(86,8).
att(86,7).
att(86,11).
att(86,10).
att(86,14).
att(86,13).
att(86,17).
att(86,16).
att(86,20).
att(86,19).
att(86,23).
att(86,22).
att(86,26).
att(86,25).
att(86,29).
att(86,28).
att(86,32).
att(86,31).
att(86,35).
att(86,34).
att(86,38).
att(86,37).
att(86,41).
att(86,40).
att(86,44).
att(86,43).
att(86,47).
att(86,46).
att(86,50).
att(86,49).
att(86,53).
att(86,52).
att(86,56).
att(86,55).
att(86,59).
att(86,58).
att(86,62).
att(86,61).
att(86,65).
att(86,64).
att(86,68).
att(86,67).
att(86,71).
att(86,70).
att(86,74).
att(86,73).
att(86,77).
att(86,76).
att(86,80).
att(86,79).
att(86,83).
att(86,82).
att(88,88).
att(90,89).
att(89,88).
att(89,90).
att(89,2).
att(89,1).
att(89,5).
att(89,4).
att(89,8).
att(89,7).
att(89,11).
att(89,10).
att(89,14).
att(89,13).
att(89,17).
att(89,16).
att(89,20).
att(89,19).
att(89,23).
att(89,22).
att(89,26).
att(89,25).
att(89,29).
att(89,28).
att(89,32).
att(89,31).
att(89,35).
att(89,34).
att(89,38).
att(89,37).
att(89,41).
att(89,40).
att(89,44).
att(89,43).
att(89,47).
att(89,46).
att(89,50).
att(89,49).
att(89,53).
att(89,52).
att(89,56).
att(89,55).
att(89,59).
att(89,58).
att(89,62).
att(89,61).
att(89,65).
att(89,64).
att(89,68).
att(89,67).
att(89,71).
att(89,70).
att(89,74).
att(89,73).
att(89,77).
att(89,76).
att(89,80).
att(89,79).
att(89,83).
att(89,82).
att(89,86).
att(89,85).
att(91,91).
att(93,92).
att(92,91).
att(92,93).
att(92,2).
att(92,1).
att(92,5).
att(92,4).
att(92,8).
att(92,7).
att(92,11).
att(92,10).
att(92,14).
att(92,13).
att(92,17).
att(92,16).
att(92,20).
att(92,19).
att(92,23).
att(92,22).
att(92,26).
att(92,25).
att(92,29).
att(92,28).
att(92,32).
att(92,31).
att(92,35).
att(92,34).
att(92,38).
att(92,37).
att(92,41).
att(92,40).
att(92,44).
att(92,43).
att(92,47).
att(92,46).
att(92,50).
att(92,49).
att(92,53).
att(92,52).
att(92,56).
att(92,55).
att(92,59).
att(92,58).
att(92,62).
att(92,61).
att(92,65).
att(92,64).
att(92,68).
att(92,67).
att(92,71).
att(92,70).
att(92,74).
att(92,73).
att(92,77).
att(92,76).
att(92,80).
att(92,79).
att(92,83).
att(92,82).
att(92,86).
att(92,85).
att(92,89).
att(92,88).
att(94,94).
att(96,95).
att(95,94).
att(95,96).
att(95,2).
att(95,1).
att(95,5).
att(95,4).
att(95,8).
att(95,7).
att(95,11).
att(95,10).
att(95,14).
att(95,13).
att(95,17).
att(95,16).
att(95,20).
att(95,19).
att(95,23).
att(95,22).
att(95,26).
att(95,25).
att(95,29).
att(95,28).
att(95,32).
att(95,31).
att(95,35).
att(95,34).
att(95,38).
att(95,37).
att(95,41).
att(95,40).
att(95,44).
att(95,43).
att(95,47).
att(95,46).
att(95,50).
att(95,49).
att(95,53).
att(95,52).
att(95,56).
att(95,55).
att(95,59).
att(95,58).
att(95,62).
att(95,61).
att(95,65).
att(95,64).
att(95,68).
att(95,67).
att(95,71).
att(95,70).
att(95,74).
att(95,73).
att(95,77).
att(95,76).
att(95,80).
att(95,79).
att(95,83).
att(95,82).
att(95,86).
att(95,85).
att(95,89).
att(95,88).
att(95,92).
att(95,91).
att(97,97).
att(99,98).
att(98,97).
att(98,99).
att(98,2).
att(98,1).
att(98,5).
att(98,4).
att(98,8).
att(98,7).
att(98,11).
att(98,10).
att(98,14).
att(98,13).
att(98,17).
att(98,16).
att(98,20).
att(98,19).
att(98,23).
att(98,22).
att(98,26).
att(98,25).
att(98,29).
att(98,28).
att(98,32).
att(98,31).
att(98,35).
att(98,34).
att(98,38).
att(98,37).
att(98,41).
att(98,40).
att(98,44).
att(98,43).
att(98,47).
att(98,46).
att(98,50).
att(98,49).
att(98,53).
att(98,52).
att(98,56).
att(98,55).
att(98,59).
att(98,58).
att(98,62).
att(98,61).
att(98,65).
att(98,64).
att(98,68).
att(98,67).
att(98,71).
att(98,70).
att(98,74).
att(98,73).
att(98,77).
att(98,76).
att(98,80).
att(98,79).
att(98,83).
att(98,82).
att(98,86).
att(98,85).
att(98,89).
att(98,88).
att(98,92).
att(98,91).
att(98,95).
att(98,94).
att(100,100).
att(102,101).
att(101,100).
att(101,102).
att(101,2).
att(101,1).
att(101,5).
att(101,4).
att(101,8).
att(101,7).
att(101,11).
att(101,10).
att(101,14).
att(101,13).
att(101,17).
att(101,16).
att(101,20).
att(101,19).
att(101,23).
att(101,22).
att(101,26).
att(101,25).
att(101,29).
att(101,28).
att(101,32).
att(101,31).
att(101,35).
att(101,34).
att(101,38).
att(101,37).
att(101,41).
att(101,40).
att(101,44).
att(101,43).
att(101,47).
att(101,46).
att(101,50).
att(101,49).
att(101,53).
att(101,52).
att(101,56).
att(101,55).
att(101,59).
att(101,58).
att(101,62).
att(101,61).
att(101,65).
att(101,64).
att(101,68).
att(101,67).
att(101,71).
att(101,70).
att(101,74).
att(101,73).
att(101,77).
att(101,76).
att(101,80).
att(101,79).
att(101,83).
att(101,82).
att(101,86).
att(101,85).
att(101,89).
att(101,88).
att(101,92).
att(101,91).
att(101,95).
att(101,94).
att(101,98).
att(101,97).
att(103,103).
att(105,104).
att(104,103).
att(104,105).
att(104,2).
att(104,1).
att(104,5).
att(104,4).
att(104,8).
att(104,7).
att(104,11).
att(104,10).
att(104,14).
att(104,13).
att(104,17).
att(104,16).
att(104,20).
att(104,19).
att(104,23).
att(104,22).
att(104,26).
att(104,25).
att(104,29).
att(104,28).
att(104,32).
att(104,31).
att(104,35).
att(104,34).
att(104,38).
att(104,37).
att(104,41).
att(104,40).
att(104,44).
att(104,43).
att(104,47).
att(104,46).
att(104,50).
att(104,49).
att(104,53).
att(104,52).
att(104,56).
att(104,55).
att(104,59).
att(104,58).
att(104,62).
att(104,61).
att(104,65).
att(104,64).
att(104,68).
att(104,67).
att(104,71).
att(104,70).
att(104,74).
att(104,73).
att(104,77).
att(104,76).
att(104,80).
att(104,79).
att(104,83).
att(104,82).
att(104,86).
att(104,85).
att(104,89).
att(104,88).
att(104,92).
att(104,91).
att(104,95).
att(104,94).
att(104,98).
att(104,97).
att(104,101).
att(104,100).
att(106,106).
att(108,107).
att(107,106).
att(107,108).
att(107,2).
att(107,1).
att(107,5).
att(107,4).
att(107,8).
att(107,7).
att(107,11).
att(107,10).
att(107,14).
att(107,13).
att(107,17).
att(107,16).
att(107,20).
att(107,19).
att(107,23).
att(107,22).
att(107,26).
att(107,25).
att(107,29).
att(107,28).
att(107,32).
att(107,31).
att(107,35).
att(107,34).
att(107,38).
att(107,37).
att(107,41).
att(107,40).
att(107,44).
att(107,43).
att(107,47).
att(107,46).
att(107,50).
att(107,49).
att(107,53).
att(107,52).
att(107,56).
att(107,55).
att(107,59).
att(107,58).
att(107,62).
att(107,61).
att(107,65).
att(107,64).
att(107,68).
att(107,67).
att(107,71).
att(107,70).
att(107,74).
att(107,73).
att(107,77).
att(107,76).
att(107,80).
att(107,79).
att(107,83).
att(107,82).
att(107,86).
att(107,85).
att(107,89).
att(107,88).
att(107,92).
att(107,91).
att(107,95).
att(107,94).
att(107,98).
att(107,97).
att(107,101).
att(107,100).
att(107,104).
att(107,103).
att(109,109).
att(111,110).
att(110,109).
att(110,111).
att(110,2).
att(110,1).
att(110,5).
att(110,4).
att(110,8).
att(110,7).
att(110,11).
att(110,10).
att(110,14).
att(110,13).
att(110,17).
att(110,16).
att(110,20).
att(110,19).
att(110,23).
att(110,22).
att(110,26).
att(110,25).
att(110,29).
att(110,28).
att(110,32).
att(110,31).
att(110,35).
att(110,34).
att(110,38).
att(110,37).
att(110,41).
att(110,40).
att(110,44).
att(110,43).
att(110,47).
att(110,46).
att(110,50).
att(110,49).
att(110,53).
att(110,52).
att(110,56).
att(110,55).
att(110,59).
att(110,58).
att(110,62).
att(110,61).
att(110,65).
att(110,64).
att(110,68).
att(110,67).
att(110,71).
att(110,70).
att(110,74).
att(110,73).
att(110,77).
att(110,76).
att(110,80).
att(110,79).
att(110,83).
att(110,82).
att(110,86).
att(110,85).
att(110,89).
att(110,88).
att(110,92).
att(110,91).
att(110,95).
att(110,94).
att(110,98).
att(110,97).
att(110,101).
att(110,100).
att(110,104).
att(110,103).
att(110,107).
att(110,106).
att(112,112).
att(114,113).
att(113,112).
att(113,114).
att(113,2).
att(113,1).
att(113,5).
att(113,4).
att(113,8).
att(113,7).
att(113,11).
att(113,10).
att(113,14).
att(113,13).
att(113,17).
att(113,16).
att(113,20).
att(113,19).
att(113,23).
att(113,22).
att(113,26).
att(113,25).
att(113,29).
att(113,28).
att(113,32).
att(113,31).
att(113,35).
att(113,34).
att(113,38).
att(113,37).
att(113,41).
att(113,40).
att(113,44).
att(113,43).
att(113,47).
att(113,46).
att(113,50).
att(113,49).
att(113,53).
att(113,52).
att(113,56).
att(113,55).
att(113,59).
att(113,58).
att(113,62).
att(113,61).
att(113,65).
att(113,64).
att(113,68).
att(113,67).
att(113,71).
att(113,70).
att(113,74).
att(113,73).
att(113,77).
att(113,76).
att(113,80).
att(113,79).
att(113,83).
att(113,82).
att(113,86).
att(113,85).
att(113,89).
att(113,88).
att(113,92).
att(113,91).
att(113,95).
att(113,94).
att(113,98).
att(113,97).
att(113,101).
att(113,100).
att(113,104).
att(113,103).
att(113,107).
att(113,106).
att(113,110).
att(113,109).
att(115,115).
att(117,116).
att(116,115).
att(116,117).
att(116,2).
att(116,1).
att(116,5).
att(116,4).
att(116,8).
att(116,7).
att(116,11).
att(116,10).
att(116,14).
att(116,13).
att(116,17).
att(116,16).
att(116,20).
att(116,19).
att(116,23).
att(116,22).
att(116,26).
att(116,25).
att(116,29).
att(116,28).
att(116,32).
att(116,31).
att(116,35).
att(116,34).
att(116,38).
att(116,37).
att(116,41).
att(116,40).
att(116,44).
att(116,43).
att(116,47).
att(116,46).
att(116,50).
att(116,49).
att(116,53).
att(116,52).
att(116,56).
att(116,55).
att(116,59).
att(116,58).
att(116,62).
att(116,61).
att(116,65).
att(116,64).
att(116,68).
att(116,67).
att(116,71).
att(116,70).
att(116,74).
att(116,73).
att(116,77).
att(116,76).
att(116,80).
att(116,79).
att(116,83).
att(116,82).
att(116,86).
att(116,85).
att(116,89).
att(116,88).
att(116,92).
att(116,91).
att(116,95).
att(116,94).
att(116,98).
att(116,97).
att(116,101).
att(116,100).
att(116,104).
att(116,103).
att(116,107).
att(116,106).
att(116,110).
att(116,109).
att(116,113).
att(116,112).
att(118,118).
att(120,119).
att(119,118).
att(119,120).
att(119,2).
att(119,1).
att(119,5).
att(119,4).
att(119,8).
att(119,7).
att(119,11).
att(119,10).
att(119,14).
att(119,13).
att(119,17).
att(119,16).
att(119,20).
att(119,19).
att(119,23).
att(119,22).
att(119,26).
att(119,25).
att(119,29).
att(119,28).
att(119,32).
att(119,31).
att(119,35).
att(119,34).
att(119,38).
att(119,37).
att(119,41).
att(119,40).
att(119,44).
att(119,43).
att(119,47).
att(119,46).
att(119,50).
att(119,49).
att(119,53).
att(119,52).
att(119,56).
att(119,55).
att(119,59).
att(119,58).
att(119,62).
att(119,61).
att(119,65).
att(119,64).
att(119,68).
att(119,67).
att(119,71).
att(119,70).
att(119,74).
att(119,73).
att(119,77).
att(119,76).
att(119,80).
att(119,79).
att(119,83).
att(119,82).
att(119,86).
att(119,85).
att(119,89).
att(119,88).
att(119,92).
att(119,91).
att(119,95).
att(119,94).
att(119,98).
att(119,97).
att(119,101).
att(119,100).
att(119,104).
att(119,103).
att(119,107).
att(119,106).
att(119,110).
att(119,109).
att(119,113).
att(119,112).
att(119,116).
att(119,115).
att(121,121).
att(123,122).
att(122,121).
att(122,123).
att(122,2).
att(122,1).
att(122,5).
att(122,4).
att(122,8).
att(122,7).
att(122,11).
att(122,10).
att(122,14).
att(122,13).
att(122,17).
att(122,16).
att(122,20).
att(122,19).
att(122,23).
att(122,22).
att(122,26).
att(122,25).
att(122,29).
att(122,28).
att(122,32).
att(122,31).
att(122,35).
att(122,34).
att(122,38).
att(122,37).
att(122,41).
att(122,40).
att(122,44).
att(122,43).
att(122,47).
att(122,46).
att(122,50).
att(122,49).
att(122,53).
att(122,52).
att(122,56).
att(122,55).
att(122,59).
att(122,58).
att(122,62).
att(122,61).
att(122,65).
att(122,64).
att(122,68).
att(122,67).
att(122,71).
att(122,70).
att(122,74).
att(122,73).
att(122,77).
att(122,76).
att(122,80).
att(122,79).
att(122,83).
att(122,82).
att(122,86).
att(122,85).
att(122,89).
att(122,88).
att(122,92).
att(122,91).
att(122,95).
att(122,94).
att(122,98).
att(122,97).
att(122,101).
att(122,100).
att(122,104).
att(122,103).
att(122,107).
att(122,106).
att(122,110).
att(122,109).
att(122,113).
att(122,112).
att(122,116).
att(122,115).
att(122,119).
att(122,118).
att(124,124).
att(126,125).
att(125,124).
att(125,126).
att(125,2).
att(125,1).
att(125,5).
att(125,4).
att(125,8).
att(125,7).
att(125,11).
att(125,10).
att(125,14).
att(125,13).
att(125,17).
att(125,16).
att(125,20).
att(125,19).
att(125,23).
att(125,22).
att(125,26).
att(125,25).
att(125,29).
att(125,28).
att(125,32).
att(125,31).
att(125,35).
att(125,34).
att(125,38).
att(125,37).
att(125,41).
att(125,40).
att(125,44).
att(125,43).
att(125,47).
att(125,46).
att(125,50).
att(125,49).
att(125,53).
att(125,52).
att(125,56).
att(125,55).
att(125,59).
att(125,58).
att(125,62).
att(125,61).
att(125,65).
att(125,64).
att(125,68).
att(125,67).
att(125,71).
att(125,70).
att(125,74).
att(125,73).
att(125,77).
att(125,76).
att(125,80).
att(125,79).
att(125,83).
att(125,82).
att(125,86).
att(125,85).
att(125,89).
att(125,88).
att(125,92).
att(125,91).
att(125,95).
att(125,94).
att(125,98).
att(125,97).
att(125,101).
att(125,100).
att(125,104).
att(125,103).
att(125,107).
att(125,106).
att(125,110).
att(125,109).
att(125,113).
att(125,112).
att(125,116).
att(125,115).
att(125,119).
att(125,118).
att(125,122).
att(125,121).
att(127,127).
att(129,128).
att(128,127).
att(128,129).
att(128,2).
att(128,1).
att(128,5).
att(128,4).
att(128,8).
att(128,7).
att(128,11).
att(128,10).
att(128,14).
att(128,13).
att(128,17).
att(128,16).
att(128,20).
att(128,19).
att(128,23).
att(128,22).
att(128,26).
att(128,25).
att(128,29).
att(128,28).
att(128,32).
att(128,31).
att(128,35).
att(128,34).
att(128,38).
att(128,37).
att(128,41).
att(128,40).
att(128,44).
att(128,43).
att(128,47).
att(128,46).
att(128,50).
att(128,49).
att(128,53).
att(128,52).
att(128,56).
att(128,55).
att(128,59).
att(128,58).
att(128,62).
att(128,61).
att(128,65).
att(128,64).
att(128,68).
att(128,67).
att(128,71).
att(128,70).
att(128,74).
att(128,73).
att(128,77).
att(128,76).
att(128,80).
att(128,79).
att(128,83).
att(128,82).
att(128,86).
att(128,85).
att(128,89).
att(128,88).
att(128,92).
att(128,91).
att(128,95).
att(128,94).
att(128,98).
att(128,97).
att(128,101).
att(128,100).
att(128,104).
att(128,103).
att(128,107).
att(128,106).
att(128,110).
att(128,109).
att(128,113).
att(128,112).
att(128,116).
att(128,115).
att(128,119).
att(128,118).
att(128,122).
att(128,121).
att(128,125).
att(128,124).
att(130,130).
att(132,131).
att(131,130).
att(131,132).
att(131,2).
att(131,1).
att(131,5).
att(131,4).
att(131,8).
att(131,7).
att(131,11).
att(131,10).
att(131,14).
att(131,13).
att(131,17).
att(131,16).
att(131,20).
att(131,19).
att(131,23).
att(131,22).
att(131,26).
att(131,25).
att(131,29).
att(131,28).
att(131,32).
att(131,31).
att(131,35).
att(131,34).
att(131,38).
att(131,37).
att(131,41).
att(131,40).
att(131,44).
att(131,43).
att(131,47).
att(131,46).
att(131,50).
att(131,49).
att(131,53).
att(131,52).
att(131,56).
att(131,55).
att(131,59).
att(131,58).
att(131,62).
att(131,61).
att(131,65).
att(131,64).
att(131,68).
att(131,67).
att(131,71).
att(131,70).
att(131,74).
att(131,73).
att(131,77).
att(131,76).
att(131,80).
att(131,79).
att(131,83).
att(131,82).
att(131,86).
att(131,85).
att(131,89).
att(131,88).
att(131,92).
att(131,91).
att(131,95).
att(131,94).
att(131,98).
att(131,97).
att(131,101).
att(131,100).
att(131,104).
att(131,103).
att(131,107).
att(131,106).
att(131,110).
att(131,109).
att(131,113).
att(131,112).
att(131,116).
att(131,115).
att(131,119).
att(131,118).
att(131,122).
att(131,121).
att(131,125).
att(131,124).
att(131,128).
att(131,127).
att(133,133).
att(135,134).
att(134,133).
att(134,135).
att(134,2).
att(134,1).
att(134,5).
att(134,4).
att(134,8).
att(134,7).
att(134,11).
att(134,10).
att(134,14).
att(134,13).
att(134,17).
att(134,16).
att(134,20).
att(134,19).
att(134,23).
att(134,22).
att(134,26).
att(134,25).
att(134,29).
att(134,28).
att(134,32).
att(134,31).
att(134,35).
att(134,34).
att(134,38).
att(134,37).
att(134,41).
att(134,40).
att(134,44).
att(134,43).
att(134,47).
att(134,46).
att(134,50).
att(134,49).
att(134,53).
att(134,52).
att(134,56).
att(134,55).
att(134,59).
att(134,58).
att(134,62).
att(134,61).
att(134,65).
att(134,64).
att(134,68).
att(134,67).
att(134,71).
att(134,70).
att(134,74).
att(134,73).
att(134,77).
att(134,76).
att(134,80).
att(134,79).
att(134,83).
att(134,82).
att(134,86).
att(134,85).
att(134,89).
att(134,88).
att(134,92).
att(134,91).
att(134,95).
att(134,94).
att(134,98).
att(134,97).
att(134,101).
att(134,100).
att(134,104).
att(134,103).
att(134,107).
att(134,106).
att(134,110).
att(134,109).
att(134,113).
att(134,112).
att(134,116).
att(134,115).
att(134,119).
att(134,118).
att(134,122).
att(134,121).
att(134,125).
att(134,124).
att(134,128).
att(134,127).
att(134,131).
att(134,130).
att(136,136).
att(138,137).
att(137,136).
att(137,138).
att(137,2).
att(137,1).
att(137,5).
att(137,4).
att(137,8).
att(137,7).
att(137,11).
att(137,10).
att(137,14).
att(137,13).
att(137,17).
att(137,16).
att(137,20).
att(137,19).
att(137,23).
att(137,22).
att(137,26).
att(137,25).
att(137,29).
att(137,28).
att(137,32).
att(137,31).
att(137,35).
att(137,34).
att(137,38).
att(137,37).
att(137,41).
att(137,40).
att(137,44).
att(137,43).
att(137,47).
att(137,46).
att(137,50).
att(137,49).
att(137,53).
att(137,52).
att(137,56).
att(137,55).
att(137,59).
att(137,58).
att(137,62).
att(137,61).
att(137,65).
att(137,64).
att(137,68).
att(137,67).
att(137,71).
att(137,70).
att(137,74).
att(137,73).
att(137,77).
att(137,76).
att(137,80).
att(137,79).
att(137,83).
att(137,82).
att(137,86).
att(137,85).
att(137,89).
att(137,88).
att(137,92).
att(137,91).
att(137,95).
att(137,94).
att(137,98).
att(137,97).
att(137,101).
att(137,100).
att(137,104).
att(137,103).
att(137,107).
att(137,106).
att(137,110).
att(137,109).
att(137,113).
att(137,112).
att(137,116).
att(137,115).
att(137,119).
att(137,118).
att(137,122).
att(137,121).
att(137,125).
att(137,124).
att(137,128).
att(137,127).
att(137,131).
att(137,130).
att(137,134).
att(137,133).
att(139,139).
att(141,140).
att(140,139).
att(140,141).
att(140,2).
att(140,1).
att(140,5).
att(140,4).
att(140,8).
att(140,7).
att(140,11).
att(140,10).
att(140,14).
att(140,13).
att(140,17).
att(140,16).
att(140,20).
att(140,19).
att(140,23).
att(140,22).
att(140,26).
att(140,25).
att(140,29).
att(140,28).
att(140,32).
att(140,31).
att(140,35).
att(140,34).
att(140,38).
att(140,37).
att(140,41).
att(140,40).
att(140,44).
att(140,43).
att(140,47).
att(140,46).
att(140,50).
att(140,49).
att(140,53).
att(140,52).
att(140,56).
att(140,55).
att(140,59).
att(140,58).
att(140,62).
att(140,61).
att(140,65).
att(140,64).
att(140,68).
att(140,67).
att(140,71).
att(140,70).
att(140,74).
att(140,73).
att(140,77).
att(140,76).
att(140,80).
att(140,79).
att(140,83).
att(140,82).
att(140,86).
att(140,85).
att(140,89).
att(140,88).
att(140,92).
att(140,91).
att(140,95).
att(140,94).
att(140,98).
att(140,97).
att(140,101).
att(140,100).
att(140,104).
att(140,103).
att(140,107).
att(140,106).
att(140,110).
att(140,109).
att(140,113).
att(140,112).
att(140,116).
att(140,115).
att(140,119).
att(140,118).
att(140,122).
att(140,121).
att(140,125).
att(140,124).
att(140,128).
att(140,127).
att(140,131).
att(140,130).
att(140,134).
att(140,133).
att(140,137).
att(140,136).
att(142,142).
att(144,143).
att(143,142).
att(143,144).
att(143,2).
att(143,1).
att(143,5).
att(143,4).
att(143,8).
att(143,7).
att(143,11).
att(143,10).
att(143,14).
att(143,13).
att(143,17).
att(143,16).
att(143,20).
att(143,19).
att(143,23).
att(143,22).
att(143,26).
att(143,25).
att(143,29).
att(143,28).
att(143,32).
att(143,31).
att(143,35).
att(143,34).
att(143,38).
att(143,37).
att(143,41).
att(143,40).
att(143,44).
att(143,43).
att(143,47).
att(143,46).
att(143,50).
att(143,49).
att(143,53).
att(143,52).
att(143,56).
att(143,55).
att(143,59).
att(143,58).
att(143,62).
att(143,61).
att(143,65).
att(143,64).
att(143,68).
att(143,67).
att(143,71).
att(143,70).
att(143,74).
att(143,73).
att(143,77).
att(143,76).
att(143,80).
att(143,79).
att(143,83).
att(143,82).
att(143,86).
att(143,85).
att(143,89).
att(143,88).
att(143,92).
att(143,91).
att(143,95).
att(143,94).
att(143,98).
att(143,97).
att(143,101).
att(143,100).
att(143,104).
att(143,103).
att(143,107).
att(143,106).
att(143,110).
att(143,109).
att(143,113).
att(143,112).
att(143,116).
att(143,115).
att(143,119).
att(143,118).
att(143,122).
att(143,121).
att(143,125).
att(143,124).
att(143,128).
att(143,127).
att(143,131).
att(143,130).
att(143,134).
att(143,133).
att(143,137).
att(143,136).
att(143,140).
att(143,139).
att(145,145).
att(147,146).
att(146,145).
att(146,147).
att(146,2).
att(146,1).
att(146,5).
att(146,4).
att(146,8).
att(146,7).
att(146,11).
att(146,10).
att(146,14).
att(146,13).
att(146,17).
att(146,16).
att(146,20).
att(146,19).
att(146,23).
att(146,22).
att(146,26).
att(146,25).
att(146,29).
att(146,28).
att(146,32).
att(146,31).
att(146,35).
att(146,34).
att(146,38).
att(146,37).
att(146,41).
att(146,40).
att(146,44).
att(146,43).
att(146,47).
att(146,46).
att(146,50).
att(146,49).
att(146,53).
att(146,52).
att(146,56).
att(146,55).
att(146,59).
att(146,58).
att(146,62).
att(146,61).
att(146,65).
att(146,64).
att(146,68).
att(146,67).
att(146,71).
att(146,70).
att(146,74).
att(146,73).
att(146,77).
att(146,76).
att(146,80).
att(146,79).
att(146,83).
att(146,82).
att(146,86).
att(146,85).
att(146,89).
att(146,88).
att(146,92).
att(146,91).
att(146,95).
att(146,94).
att(146,98).
att(146,97).
att(146,101).
att(146,100).
att(146,104).
att(146,103).
att(146,107).
att(146,106).
att(146,110).
att(146,109).
att(146,113).
att(146,112).
att(146,116).
att(146,115).
att(146,119).
att(146,118).
att(146,122).
att(146,121).
att(146,125).
att(146,124).
att(146,128).
att(146,127).
att(146,131).
att(146,130).
att(146,134).
att(146,133).
att(146,137).
att(146,136).
att(146,140).
att(146,139).
att(146,143).
att(146,142).
att(148,148).
att(150,149).
att(149,148).
att(149,150).
att(149,2).
att(149,1).
att(149,5).
att(149,4).
att(149,8).
att(149,7).
att(149,11).
att(149,10).
att(149,14).
att(149,13).
att(149,17).
att(149,16).
att(149,20).
att(149,19).
att(149,23).
att(149,22).
att(149,26).
att(149,25).
att(149,29).
att(149,28).
att(149,32).
att(149,31).
att(149,35).
att(149,34).
att(149,38).
att(149,37).
att(149,41).
att(149,40).
att(149,44).
att(149,43).
att(149,47).
att(149,46).
att(149,50).
att(149,49).
att(149,53).
att(149,52).
att(149,56).
att(149,55).
att(149,59).
att(149,58).
att(149,62).
att(149,61).
att(149,65).
att(149,64).
att(149,68).
att(149,67).
att(149,71).
att(149,70).
att(149,74).
att(149,73).
att(149,77).
att(149,76).
att(149,80).
att(149,79).
att(149,83).
att(149,82).
att(149,86).
att(149,85).
att(149,89).
att(149,88).
att(149,92).
att(149,91).
att(149,95).
att(149,94).
att(149,98).
att(149,97).
att(149,101).
att(149,100).
att(149,104).
att(149,103).
att(149,107).
att(149,106).
att(149,110).
att(149,109).
att(149,113).
att(149,112).
att(149,116).
att(149,115).
att(149,119).
att(149,118).
att(149,122).
att(149,121).
att(149,125).
att(149,124).
att(149,128).
att(149,127).
att(149,131).
att(149,130).
att(149,134).
att(149,133).
att(149,137).
att(149,136).
att(149,140).
att(149,139).
att(149,143).
att(149,142).
att(149,146).
att(149,145).
att(151,151).
att(153,152).
att(152,151).
att(152,153).
att(152,2).
att(152,1).
att(152,5).
att(152,4).
att(152,8).
att(152,7).
att(152,11).
att(152,10).
att(152,14).
att(152,13).
att(152,17).
att(152,16).
att(152,20).
att(152,19).
att(152,23).
att(152,22).
att(152,26).
att(152,25).
att(152,29).
att(152,28).
att(152,32).
att(152,31).
att(152,35).
att(152,34).
att(152,38).
att(152,37).
att(152,41).
att(152,40).
att(152,44).
att(152,43).
att(152,47).
att(152,46).
att(152,50).
att(152,49).
att(152,53).
att(152,52).
att(152,56).
att(152,55).
att(152,59).
att(152,58).
att(152,62).
att(152,61).
att(152,65).
att(152,64).
att(152,68).
att(152,67).
att(152,71).
att(152,70).
att(152,74).
att(152,73).
att(152,77).
att(152,76).
att(152,80).
att(152,79).
att(152,83).
att(152,82).
att(152,86).
att(152,85).
att(152,89).
att(152,88).
att(152,92).
att(152,91).
att(152,95).
att(152,94).
att(152,98).
att(152,97).
att(152,101).
att(152,100).
att(152,104).
att(152,103).
att(152,107).
att(152,106).
att(152,110).
att(152,109).
att(152,113).
att(152,112).
att(152,116).
att(152,115).
att(152,119).
att(152,118).
att(152,122).
att(152,121).
att(152,125).
att(152,124).
att(152,128).
att(152,127).
att(152,131).
att(152,130).
att(152,134).
att(152,133).
att(152,137).
att(152,136).
att(152,140).
att(152,139).
att(152,143).
att(152,142).
att(152,146).
att(152,145).
att(152,149).
att(152,148).
att(154,154).
att(156,155).
att(155,154).
att(155,156).
att(155,2).
att(155,1).
att(155,5).
att(155,4).
att(155,8).
att(155,7).
att(155,11).
att(155,10).
att(155,14).
att(155,13).
att(155,17).
att(155,16).
att(155,20).
att(155,19).
att(155,23).
att(155,22).
att(155,26).
att(155,25).
att(155,29).
att(155,28).
att(155,32).
att(155,31).
att(155,35).
att(155,34).
att(155,38).
att(155,37).
att(155,41).
att(155,40).
att(155,44).
att(155,43).
att(155,47).
att(155,46).
att(155,50).
att(155,49).
att(155,53).
att(155,52).
att(155,56).
att(155,55).
att(155,59).
att(155,58).
att(155,62).
att(155,61).
att(155,65).
att(155,64).
att(155,68).
att(155,67).
att(155,71).
att(155,70).
att(155,74).
att(155,73).
att(155,77).
att(155,76).
att(155,80).
att(155,79).
att(155,83).
att(155,82).
att(155,86).
att(155,85).
att(155,89).
att(155,88).
att(155,92).
att(155,91).
att(155,95).
att(155,94).
att(155,98).
att(155,97).
att(155,101).
att(155,100).
att(155,104).
att(155,103).
att(155,107).
att(155,106).
att(155,110).
att(155,109).
att(155,113).
att(155,112).
att(155,116).
att(155,115).
att(155,119).
att(155,118).
att(155,122).
att(155,121).
att(155,125).
att(155,124).
att(155,128).
att(155,127).
att(155,131).
att(155,130).
att(155,134).
att(155,133).
att(155,137).
att(155,136).
att(155,140).
att(155,139).
att(155,143).
att(155,142).
att(155,146).
att(155,145).
att(155,149).
att(155,148).
att(155,152).
att(155,151).
att(157,157).
att(159,158).
att(158,157).
att(158,159).
att(158,2).
att(158,1).
att(158,5).
att(158,4).
att(158,8).
att(158,7).
att(158,11).
att(158,10).
att(158,14).
att(158,13).
att(158,17).
att(158,16).
att(158,20).
att(158,19).
att(158,23).
att(158,22).
att(158,26).
att(158,25).
att(158,29).
att(158,28).
att(158,32).
att(158,31).
att(158,35).
att(158,34).
att(158,38).
att(158,37).
att(158,41).
att(158,40).
att(158,44).
att(158,43).
att(158,47).
att(158,46).
att(158,50).
att(158,49).
att(158,53).
att(158,52).
att(158,56).
att(158,55).
att(158,59).
att(158,58).
att(158,62).
att(158,61).
att(158,65).
att(158,64).
att(158,68).
att(158,67).
att(158,71).
att(158,70).
att(158,74).
att(158,73).
att(158,77).
att(158,76).
att(158,80).
att(158,79).
att(158,83).
att(158,82).
att(158,86).
att(158,85).
att(158,89).
att(158,88).
att(158,92).
att(158,91).
att(158,95).
att(158,94).
att(158,98).
att(158,97).
att(158,101).
att(158,100).
att(158,104).
att(158,103).
att(158,107).
att(158,106).
att(158,110).
att(158,109).
att(158,113).
att(158,112).
att(158,116).
att(158,115).
att(158,119).
att(158,118).
att(158,122).
att(158,121).
att(158,125).
att(158,124).
att(158,128).
att(158,127).
att(158,131).
att(158,130).
att(158,134).
att(158,133).
att(158,137).
att(158,136).
att(158,140).
att(158,139).
att(158,143).
att(158,142).
att(158,146).
att(158,145).
att(158,149).
att(158,148).
att(158,152).
att(158,151).
att(158,155).
att(158,154).
att(160,160).
att(162,161).
att(161,160).
att(161,162).
att(161,2).
att(161,1).
att(161,5).
att(161,4).
att(161,8).
att(161,7).
att(161,11).
att(161,10).
att(161,14).
att(161,13).
att(161,17).
att(161,16).
att(161,20).
att(161,19).
att(161,23).
att(161,22).
att(161,26).
att(161,25).
att(161,29).
att(161,28).
att(161,32).
att(161,31).
att(161,35).
att(161,34).
att(161,38).
att(161,37).
att(161,41).
att(161,40).
att(161,44).
att(161,43).
att(161,47).
att(161,46).
att(161,50).
att(161,49).
att(161,53).
att(161,52).
att(161,56).
att(161,55).
att(161,59).
att(161,58).
att(161,62).
att(161,61).
att(161,65).
att(161,64).
att(161,68).
att(161,67).
att(161,71).
att(161,70).
att(161,74).
att(161,73).
att(161,77).
att(161,76).
att(161,80).
att(161,79).
att(161,83).
att(161,82).
att(161,86).
att(161,85).
att(161,89).
att(161,88).
att(161,92).
att(161,91).
att(161,95).
att(161,94).
att(161,98).
att(161,97).
att(161,101).
att(161,100).
att(161,104).
att(161,103).
att(161,107).
att(161,106).
att(161,110).
att(161,109).
att(161,113).
att(161,112).
att(161,116).
att(161,115).
att(161,119).
att(161,118).
att(161,122).
att(161,121).
att(161,125).
att(161,124).
att(161,128).
att(161,127).
att(161,131).
att(161,130).
att(161,134).
att(161,133).
att(161,137).
att(161,136).
att(161,140).
att(161,139).
att(161,143).
att(161,142).
att(161,146).
att(161,145).
att(161,149).
att(161,148).
att(161,152).
att(161,151).
att(161,155).
att(161,154).
att(161,158).
att(161,157).
att(163,163).
att(165,164).
att(164,163).
att(164,165).
att(164,2).
att(164,1).
att(164,5).
att(164,4).
att(164,8).
att(164,7).
att(164,11).
att(164,10).
att(164,14).
att(164,13).
att(164,17).
att(164,16).
att(164,20).
att(164,19).
att(164,23).
att(164,22).
att(164,26).
att(164,25).
att(164,29).
att(164,28).
att(164,32).
att(164,31).
att(164,35).
att(164,34).
att(164,38).
att(164,37).
att(164,41).
att(164,40).
att(164,44).
att(164,43).
att(164,47).
att(164,46).
att(164,50).
att(164,49).
att(164,53).
att(164,52).
att(164,56).
att(164,55).
att(164,59).
att(164,58).
att(164,62).
att(164,61).
att(164,65).
att(164,64).
att(164,68).
att(164,67).
att(164,71).
att(164,70).
att(164,74).
att(164,73).
att(164,77).
att(164,76).
att(164,80).
att(164,79).
att(164,83).
att(164,82).
att(164,86).
att(164,85).
att(164,89).
att(164,88).
att(164,92).
att(164,91).
att(164,95).
att(164,94).
att(164,98).
att(164,97).
att(164,101).
att(164,100).
att(164,104).
att(164,103).
att(164,107).
att(164,106).
att(164,110).
att(164,109).
att(164,113).
att(164,112).
att(164,116).
att(164,115).
att(164,119).
att(164,118).
att(164,122).
att(164,121).
att(164,125).
att(164,124).
att(164,128).
att(164,127).
att(164,131).
att(164,130).
att(164,134).
att(164,133).
att(164,137).
att(164,136).
att(164,140).
att(164,139).
att(164,143).
att(164,142).
att(164,146).
att(164,145).
att(164,149).
att(164,148).
att(164,152).
att(164,151).
att(164,155).
att(164,154).
att(164,158).
att(164,157).
att(164,161).
att(164,160).
att(166,166).
att(168,167).
att(167,166).
att(167,168).
att(167,2).
att(167,1).
att(167,5).
att(167,4).
att(167,8).
att(167,7).
att(167,11).
att(167,10).
att(167,14).
att(167,13).
att(167,17).
att(167,16).
att(167,20).
att(167,19).
att(167,23).
att(167,22).
att(167,26).
att(167,25).
att(167,29).
att(167,28).
att(167,32).
att(167,31).
att(167,35).
att(167,34).
att(167,38).
att(167,37).
att(167,41).
att(167,40).
att(167,44).
att(167,43).
att(167,47).
att(167,46).
att(167,50).
att(167,49).
att(167,53).
att(167,52).
att(167,56).
att(167,55).
att(167,59).
att(167,58).
att(167,62).
att(167,61).
att(167,65).
att(167,64).
att(167,68).
att(167,67).
att(167,71).
att(167,70).
att(167,74).
att(167,73).
att(167,77).
att(167,76).
att(167,80).
att(167,79).
att(167,83).
att(167,82).
att(167,86).
att(167,85).
att(167,89).
att(167,88).
att(167,92).
att(167,91).
att(167,95).
att(167,94).
att(167,98).
att(167,97).
att(167,101).
att(167,100).
att(167,104).
att(167,103).
att(167,107).
att(167,106).
att(167,110).
att(167,109).
att(167,113).
att(167,112).
att(167,116).
att(167,115).
att(167,119).
att(167,118).
att(167,122).
att(167,121).
att(167,125).
att(167,124).
att(167,128).
att(167,127).
att(167,131).
att(167,130).
att(167,134).
att(167,133).
att(167,137).
att(167,136).
att(167,140).
att(167,139).
att(167,143).
att(167,142).
att(167,146).
att(167,145).
att(167,149).
att(167,148).
att(167,152).
att(167,151).
att(167,155).
att(167,154).
att(167,158).
att(167,157).
att(167,161).
att(167,160).
att(167,164).
att(167,163).
att(169,169).
att(171,170).
att(170,169).
att(170,171).
att(170,2).
att(170,1).
att(170,5).
att(170,4).
att(170,8).
att(170,7).
att(170,11).
att(170,10).
att(170,14).
att(170,13).
att(170,17).
att(170,16).
att(170,20).
att(170,19).
att(170,23).
att(170,22).
att(170,26).
att(170,25).
att(170,29).
att(170,28).
att(170,32).
att(170,31).
att(170,35).
att(170,34).
att(170,38).
att(170,37).
att(170,41).
att(170,40).
att(170,44).
att(170,43).
att(170,47).
att(170,46).
att(170,50).
att(170,49).
att(170,53).
att(170,52).
att(170,56).
att(170,55).
att(170,59).
att(170,58).
att(170,62).
att(170,61).
att(170,65).
att(170,64).
att(170,68).
att(170,67).
att(170,71).
att(170,70).
att(170,74).
att(170,73).
att(170,77).
att(170,76).
att(170,80).
att(170,79).
att(170,83).
att(170,82).
att(170,86).
att(170,85).
att(170,89).
att(170,88).
att(170,92).
att(170,91).
att(170,95).
att(170,94).
att(170,98).
att(170,97).
att(170,101).
att(170,100).
att(170,104).
att(170,103).
att(170,107).
att(170,106).
att(170,110).
att(170,109).
att(170,113).
att(170,112).
att(170,116).
att(170,115).
att(170,119).
att(170,118).
att(170,122).
att(170,121).
att(170,125).
att(170,124).
att(170,128).
att(170,127).
att(170,131).
att(170,130).
att(170,134).
att(170,133).
att(170,137).
att(170,136).
att(170,140).
att(170,139).
att(170,143).
att(170,142).
att(170,146).
att(170,145).
att(170,149).
att(170,148).
att(170,152).
att(170,151).
att(170,155).
att(170,154).
att(170,158).
att(170,157).
att(170,161).
att(170,160).
att(170,164).
att(170,163).
att(170,167).
att(170,166).
att(172,172).
att(174,173).
att(173,172).
att(173,174).
att(173,2).
att(173,1).
att(173,5).
att(173,4).
att(173,8).
att(173,7).
att(173,11).
att(173,10).
att(173,14).
att(173,13).
att(173,17).
att(173,16).
att(173,20).
att(173,19).
att(173,23).
att(173,22).
att(173,26).
att(173,25).
att(173,29).
att(173,28).
att(173,32).
att(173,31).
att(173,35).
att(173,34).
att(173,38).
att(173,37).
att(173,41).
att(173,40).
att(173,44).
att(173,43).
att(173,47).
att(173,46).
att(173,50).
att(173,49).
att(173,53).
att(173,52).
att(173,56).
att(173,55).
att(173,59).
att(173,58).
att(173,62).
att(173,61).
att(173,65).
att(173,64).
att(173,68).
att(173,67).
att(173,71).
att(173,70).
att(173,74).
att(173,73).
att(173,77).
att(173,76).
att(173,80).
att(173,79).
att(173,83).
att(173,82).
att(173,86).
att(173,85).
att(173,89).
att(173,88).
att(173,92).
att(173,91).
att(173,95).
att(173,94).
att(173,98).
att(173,97).
att(173,101).
att(173,100).
att(173,104).
att(173,103).
att(173,107).
att(173,106).
att(173,110).
att(173,109).
att(173,113).
att(173,112).
att(173,116).
att(173,115).
att(173,119).
att(173,118).
att(173,122).
att(173,121).
att(173,125).
att(173,124).
att(173,128).
att(173,127).
att(173,131).
att(173,130).
att(173,134).
att(173,133).
att(173,137).
att(173,136).
att(173,140).
att(173,139).
att(173,143).
att(173,142).
att(173,146).
att(173,145).
att(173,149).
att(173,148).
att(173,152).
att(173,151).
att(173,155).
att(173,154).
att(173,158).
att(173,157).
att(173,161).
att(173,160).
att(173,164).
att(173,163).
att(173,167).
att(173,166).
att(173,170).
att(173,169).
att(175,175).
att(177,176).
att(176,175).
att(176,177).
att(176,2).
att(176,1).
att(176,5).
att(176,4).
att(176,8).
att(176,7).
att(176,11).
att(176,10).
att(176,14).
att(176,13).
att(176,17).
att(176,16).
att(176,20).
att(176,19).
att(176,23).
att(176,22).
att(176,26).
att(176,25).
att(176,29).
att(176,28).
att(176,32).
att(176,31).
att(176,35).
att(176,34).
att(176,38).
att(176,37).
att(176,41).
att(176,40).
att(176,44).
att(176,43).
att(176,47).
att(176,46).
att(176,50).
att(176,49).
att(176,53).
att(176,52).
att(176,56).
att(176,55).
att(176,59).
att(176,58).
att(176,62).
att(176,61).
att(176,65).
att(176,64).
att(176,68).
att(176,67).
att(176,71).
att(176,70).
att(176,74).
att(176,73).
att(176,77).
att(176,76).
att(176,80).
att(176,79).
att(176,83).
att(176,82).
att(176,86).
att(176,85).
att(176,89).
att(176,88).
att(176,92).
att(176,91).
att(176,95).
att(176,94).
att(176,98).
att(176,97).
att(176,101).
att(176,100).
att(176,104).
att(176,103).
att(176,107).
att(176,106).
att(176,110).
att(176,109).
att(176,113).
att(176,112).
att(176,116).
att(176,115).
att(176,119).
att(176,118).
att(176,122).
att(176,121).
att(176,125).
att(176,124).
att(176,128).
att(176,127).
att(176,131).
att(176,130).
att(176,134).
att(176,133).
att(176,137).
att(176,136).
att(176,140).
att(176,139).
att(176,143).
att(176,142).
att(176,146).
att(176,145).
att(176,149).
att(176,148).
att(176,152).
att(176,151).
att(176,155).
att(176,154).
att(176,158).
att(176,157).
att(176,161).
att(176,160).
att(176,164).
att(176,163).
att(176,167).
att(176,166).
att(176,170).
att(176,169).
att(176,173).
att(176,172).
att(178,178).
att(180,179).
att(179,178).
att(179,180).
att(179,2).
att(179,1).
att(179,5).
att(179,4).
att(179,8).
att(179,7).
att(179,11).
att(179,10).
att(179,14).
att(179,13).
att(179,17).
att(179,16).
att(179,20).
att(179,19).
att(179,23).
att(179,22).
att(179,26).
att(179,25).
att(179,29).
att(179,28).
att(179,32).
att(179,31).
att(179,35).
att(179,34).
att(179,38).
att(179,37).
att(179,41).
att(179,40).
att(179,44).
att(179,43).
att(179,47).
att(179,46).
att(179,50).
att(179,49).
att(179,53).
att(179,52).
att(179,56).
att(179,55).
att(179,59).
att(179,58).
att(179,62).
att(179,61).
att(179,65).
att(179,64).
att(179,68).
att(179,67).
att(179,71).
att(179,70).
att(179,74).
att(179,73).
att(179,77).
att(179,76).
att(179,80).
att(179,79).
att(179,83).
att(179,82).
att(179,86).
att(179,85).
att(179,89).
att(179,88).
att(179,92).
att(179,91).
att(179,95).
att(179,94).
att(179,98).
att(179,97).
att(179,101).
att(179,100).
att(179,104).
att(179,103).
att(179,107).
att(179,106).
att(179,110).
att(179,109).
att(179,113).
att(179,112).
att(179,116).
att(179,115).
att(179,119).
att(179,118).
att(179,122).
att(179,121).
att(179,125).
att(179,124).
att(179,128).
att(179,127).
att(179,131).
att(179,130).
att(179,134).
att(179,133).
att(179,137).
att(179,136).
att(179,140).
att(179,139).
att(179,143).
att(179,142).
att(179,146).
att(179,145).
att(179,149).
att(179,148).
att(179,152).
att(179,151).
att(179,155).
att(179,154).
att(179,158).
att(179,157).
att(179,161).
att(179,160).
att(179,164).
att(179,163).
att(179,167).
att(179,166).
att(179,170).
att(179,169).
att(179,173).
att(179,172).
att(179,176).
att(179,175).
att(181,181).
att(183,182).
att(182,181).
att(182,183).
att(182,2).
att(182,1).
att(182,5).
att(182,4).
att(182,8).
att(182,7).
att(182,11).
att(182,10).
att(182,14).
att(182,13).
att(182,17).
att(182,16).
att(182,20).
att(182,19).
att(182,23).
att(182,22).
att(182,26).
att(182,25).
att(182,29).
att(182,28).
att(182,32).
att(182,31).
att(182,35).
att(182,34).
att(182,38).
att(182,37).
att(182,41).
att(182,40).
att(182,44).
att(182,43).
att(182,47).
att(182,46).
att(182,50).
att(182,49).
att(182,53).
att(182,52).
att(182,56).
att(182,55).
att(182,59).
att(182,58).
att(182,62).
att(182,61).
att(182,65).
att(182,64).
att(182,68).
att(182,67).
att(182,71).
att(182,70).
att(182,74).
att(182,73).
att(182,77).
att(182,76).
att(182,80).
att(182,79).
att(182,83).
att(182,82).
att(182,86).
att(182,85).
att(182,89).
att(182,88).
att(182,92).
att(182,91).
att(182,95).
att(182,94).
att(182,98).
att(182,97).
att(182,101).
att(182,100).
att(182,104).
att(182,103).
att(182,107).
att(182,106).
att(182,110).
att(182,109).
att(182,113).
att(182,112).
att(182,116).
att(182,115).
att(182,119).
att(182,118).
att(182,122).
att(182,121).
att(182,125).
att(182,124).
att(182,128).
att(182,127).
att(182,131).
att(182,130).
att(182,134).
att(182,133).
att(182,137).
att(182,136).
att(182,140).
att(182,139).
att(182,143).
att(182,142).
att(182,146).
att(182,145).
att(182,149).
att(182,148).
att(182,152).
att(182,151).
att(182,155).
att(182,154).
att(182,158).
att(182,157).
att(182,161).
att(182,160).
att(182,164).
att(182,163).
att(182,167).
att(182,166).
att(182,170).
att(182,169).
att(182,173).
att(182,172).
att(182,176).
att(182,175).
att(182,179).
att(182,178).
att(184,184).
att(186,185).
att(185,184).
att(185,186).
att(185,2).
att(185,1).
att(185,5).
att(185,4).
att(185,8).
att(185,7).
att(185,11).
att(185,10).
att(185,14).
att(185,13).
att(185,17).
att(185,16).
att(185,20).
att(185,19).
att(185,23).
att(185,22).
att(185,26).
att(185,25).
att(185,29).
att(185,28).
att(185,32).
att(185,31).
att(185,35).
att(185,34).
att(185,38).
att(185,37).
att(185,41).
att(185,40).
att(185,44).
att(185,43).
att(185,47).
att(185,46).
att(185,50).
att(185,49).
att(185,53).
att(185,52).
att(185,56).
att(185,55).
att(185,59).
att(185,58).
att(185,62).
att(185,61).
att(185,65).
att(185,64).
att(185,68).
att(185,67).
att(185,71).
att(185,70).
att(185,74).
att(185,73).
att(185,77).
att(185,76).
att(185,80).
att(185,79).
att(185,83).
att(185,82).
att(185,86).
att(185,85).
att(185,89).
att(185,88).
att(185,92).
att(185,91).
att(185,95).
att(185,94).
att(185,98).
att(185,97).
att(185,101).
att(185,100).
att(185,104).
att(185,103).
att(185,107).
att(185,106).
att(185,110).
att(185,109).
att(185,113).
att(185,112).
att(185,116).
att(185,115).
att(185,119).
att(185,118).
att(185,122).
att(185,121).
att(185,125).
att(185,124).
att(185,128).
att(185,127).
att(185,131).
att(185,130).
att(185,134).
att(185,133).
att(185,137).
att(185,136).
att(185,140).
att(185,139).
att(185,143).
att(185,142).
att(185,146).
att(185,145).
att(185,149).
att(185,148).
att(185,152).
att(185,151).
att(185,155).
att(185,154).
att(185,158).
att(185,157).
att(185,161).
att(185,160).
att(185,164).
att(185,163).
att(185,167).
att(185,166).
att(185,170).
att(185,169).
att(185,173).
att(185,172).
att(185,176).
att(185,175).
att(185,179).
att(185,178).
att(185,182).
att(185,181).
att(187,187).
att(189,188).
att(188,187).
att(188,189).
att(188,2).
att(188,1).
att(188,5).
att(188,4).
att(188,8).
att(188,7).
att(188,11).
att(188,10).
att(188,14).
att(188,13).
att(188,17).
att(188,16).
att(188,20).
att(188,19).
att(188,23).
att(188,22).
att(188,26).
att(188,25).
att(188,29).
att(188,28).
att(188,32).
att(188,31).
att(188,35).
att(188,34).
att(188,38).
att(188,37).
att(188,41).
att(188,40).
att(188,44).
att(188,43).
att(188,47).
att(188,46).
att(188,50).
att(188,49).
att(188,53).
att(188,52).
att(188,56).
att(188,55).
att(188,59).
att(188,58).
att(188,62).
att(188,61).
att(188,65).
att(188,64).
att(188,68).
att(188,67).
att(188,71).
att(188,70).
att(188,74).
att(188,73).
att(188,77).
att(188,76).
att(188,80).
att(188,79).
att(188,83).
att(188,82).
att(188,86).
att(188,85).
att(188,89).
att(188,88).
att(188,92).
att(188,91).
att(188,95).
att(188,94).
att(188,98).
att(188,97).
att(188,101).
att(188,100).
att(188,104).
att(188,103).
att(188,107).
att(188,106).
att(188,110).
att(188,109).
att(188,113).
att(188,112).
att(188,116).
att(188,115).
att(188,119).
att(188,118).
att(188,122).
att(188,121).
att(188,125).
att(188,124).
att(188,128).
att(188,127).
att(188,131).
att(188,130).
att(188,134).
att(188,133).
att(188,137).
att(188,136).
att(188,140).
att(188,139).
att(188,143).
att(188,142).
att(188,146).
att(188,145).
att(188,149).
att(188,148).
att(188,152).
att(188,151).
att(188,155).
att(188,154).
att(188,158).
att(188,157).
att(188,161).
att(188,160).
att(188,164).
att(188,163).
att(188,167).
att(188,166).
att(188,170).
att(188,169).
att(188,173).
att(188,172).
att(188,176).
att(188,175).
att(188,179).
att(188,178).
att(188,182).
att(188,181).
att(188,185).
att(188,184).
att(190,190).
att(192,191).
att(191,190).
att(191,192).
att(191,2).
att(191,1).
att(191,5).
att(191,4).
att(191,8).
att(191,7).
att(191,11).
att(191,10).
att(191,14).
att(191,13).
att(191,17).
att(191,16).
att(191,20).
att(191,19).
att(191,23).
att(191,22).
att(191,26).
att(191,25).
att(191,29).
att(191,28).
att(191,32).
att(191,31).
att(191,35).
att(191,34).
att(191,38).
att(191,37).
att(191,41).
att(191,40).
att(191,44).
att(191,43).
att(191,47).
att(191,46).
att(191,50).
att(191,49).
att(191,53).
att(191,52).
att(191,56).
att(191,55).
att(191,59).
att(191,58).
att(191,62).
att(191,61).
att(191,65).
att(191,64).
att(191,68).
att(191,67).
att(191,71).
att(191,70).
att(191,74).
att(191,73).
att(191,77).
att(191,76).
att(191,80).
att(191,79).
att(191,83).
att(191,82).
att(191,86).
att(191,85).
att(191,89).
att(191,88).
att(191,92).
att(191,91).
att(191,95).
att(191,94).
att(191,98).
att(191,97).
att(191,101).
att(191,100).
att(191,104).
att(191,103).
att(191,107).
att(191,106).
att(191,110).
att(191,109).
att(191,113).
att(191,112).
att(191,116).
att(191,115).
att(191,119).
att(191,118).
att(191,122).
att(191,121).
att(191,125).
att(191,124).
att(191,128).
att(191,127).
att(191,131).
att(191,130).
att(191,134).
att(191,133).
att(191,137).
att(191,136).
att(191,140).
att(191,139).
att(191,143).
att(191,142).
att(191,146).
att(191,145).
att(191,149).
att(191,148).
att(191,152).
att(191,151).
att(191,155).
att(191,154).
att(191,158).
att(191,157).
att(191,161).
att(191,160).
att(191,164).
att(191,163).
att(191,167).
att(191,166).
att(191,170).
att(191,169).
att(191,173).
att(191,172).
att(191,176).
att(191,175).
att(191,179).
att(191,178).
att(191,182).
att(191,181).
att(191,185).
att(191,184).
att(191,188).
att(191,187).
att(193,193).
att(195,194).
att(194,193).
att(194,195).
att(194,2).
att(194,1).
att(194,5).
att(194,4).
att(194,8).
att(194,7).
att(194,11).
att(194,10).
att(194,14).
att(194,13).
att(194,17).
att(194,16).
att(194,20).
att(194,19).
att(194,23).
att(194,22).
att(194,26).
att(194,25).
att(194,29).
att(194,28).
att(194,32).
att(194,31).
att(194,35).
att(194,34).
att(194,38).
att(194,37).
att(194,41).
att(194,40).
att(194,44).
att(194,43).
att(194,47).
att(194,46).
att(194,50).
att(194,49).
att(194,53).
att(194,52).
att(194,56).
att(194,55).
att(194,59).
att(194,58).
att(194,62).
att(194,61).
att(194,65).
att(194,64).
att(194,68).
att(194,67).
att(194,71).
att(194,70).
att(194,74).
att(194,73).
att(194,77).
att(194,76).
att(194,80).
att(194,79).
att(194,83).
att(194,82).
att(194,86).
att(194,85).
att(194,89).
att(194,88).
att(194,92).
att(194,91).
att(194,95).
att(194,94).
att(194,98).
att(194,97).
att(194,101).
att(194,100).
att(194,104).
att(194,103).
att(194,107).
att(194,106).
att(194,110).
att(194,109).
att(194,113).
att(194,112).
att(194,116).
att(194,115).
att(194,119).
att(194,118).
att(194,122).
att(194,121).
att(194,125).
att(194,124).
att(194,128).
att(194,127).
att(194,131).
att(194,130).
att(194,134).
att(194,133).
att(194,137).
att(194,136).
att(194,140).
att(194,139).
att(194,143).
att(194,142).
att(194,146).
att(194,145).
att(194,149).
att(194,148).
att(194,152).
att(194,151).
att(194,155).
att(194,154).
att(194,158).
att(194,157).
att(194,161).
att(194,160).
att(194,164).
att(194,163).
att(194,167).
att(194,166).
att(194,170).
att(194,169).
att(194,173).
att(194,172).
att(194,176).
att(194,175).
att(194,179).
att(194,178).
att(194,182).
att(194,181).
att(194,185).
att(194,184).
att(194,188).
att(194,187).
att(194,191).
att(194,190).
att(196,196).
att(198,197).
att(197,196).
att(197,198).
att(197,2).
att(197,1).
att(197,5).
att(197,4).
att(197,8).
att(197,7).
att(197,11).
att(197,10).
att(197,14).
att(197,13).
att(197,17).
att(197,16).
att(197,20).
att(197,19).
att(197,23).
att(197,22).
att(197,26).
att(197,25).
att(197,29).
att(197,28).
att(197,32).
att(197,31).
att(197,35).
att(197,34).
att(197,38).
att(197,37).
att(197,41).
att(197,40).
att(197,44).
att(197,43).
att(197,47).
att(197,46).
att(197,50).
att(197,49).
att(197,53).
att(197,52).
att(197,56).
att(197,55).
att(197,59).
att(197,58).
att(197,62).
att(197,61).
att(197,65).
att(197,64).
att(197,68).
att(197,67).
att(197,71).
att(197,70).
att(197,74).
att(197,73).
att(197,77).
att(197,76).
att(197,80).
att(197,79).
att(197,83).
att(197,82).
att(197,86).
att(197,85).
att(197,89).
att(197,88).
att(197,92).
att(197,91).
att(197,95).
att(197,94).
att(197,98).
att(197,97).
att(197,101).
att(197,100).
att(197,104).
att(197,103).
att(197,107).
att(197,106).
att(197,110).
att(197,109).
att(197,113).
att(197,112).
att(197,116).
att(197,115).
att(197,119).
att(197,118).
att(197,122).
att(197,121).
att(197,125).
att(197,124).
att(197,128).
att(197,127).
att(197,131).
att(197,130).
att(197,134).
att(197,133).
att(197,137).
att(197,136).
att(197,140).
att(197,139).
att(197,143).
att(197,142).
att(197,146).
att(197,145).
att(197,149).
att(197,148).
att(197,152).
att(197,151).
att(197,155).
att(197,154).
att(197,158).
att(197,157).
att(197,161).
att(197,160).
att(197,164).
att(197,163).
att(197,167).
att(197,166).
att(197,170).
att(197,169).
att(197,173).
att(197,172).
att(197,176).
att(197,175).
att(197,179).
att(197,178).
att(197,182).
att(197,181).
att(197,185).
att(197,184).
att(197,188).
att(197,187).
att(197,191).
att(197,190).
att(197,194).
att(197,193).
att(199,199).
att(201,200).
att(200,199).
att(200,201).
att(200,2).
att(200,1).
att(200,5).
att(200,4).
att(200,8).
att(200,7).
att(200,11).
att(200,10).
att(200,14).
att(200,13).
att(200,17).
att(200,16).
att(200,20).
att(200,19).
att(200,23).
att(200,22).
att(200,26).
att(200,25).
att(200,29).
att(200,28).
att(200,32).
att(200,31).
att(200,35).
att(200,34).
att(200,38).
att(200,37).
att(200,41).
att(200,40).
att(200,44).
att(200,43).
att(200,47).
att(200,46).
att(200,50).
att(200,49).
att(200,53).
att(200,52).
att(200,56).
att(200,55).
att(200,59).
att(200,58).
att(200,62).
att(200,61).
att(200,65).
att(200,64).
att(200,68).
att(200,67).
att(200,71).
att(200,70).
att(200,74).
att(200,73).
att(200,77).
att(200,76).
att(200,80).
att(200,79).
att(200,83).
att(200,82).
att(200,86).
att(200,85).
att(200,89).
att(200,88).
att(200,92).
att(200,91).
att(200,95).
att(200,94).
att(200,98).
att(200,97).
att(200,101).
att(200,100).
att(200,104).
att(200,103).
att(200,107).
att(200,106).
att(200,110).
att(200,109).
att(200,113).
att(200,112).
att(200,116).
att(200,115).
att(200,119).
att(200,118).
att(200,122).
att(200,121).
att(200,125).
att(200,124).
att(200,128).
att(200,127).
att(200,131).
att(200,130).
att(200,134).
att(200,133).
att(200,137).
att(200,136).
att(200,140).
att(200,139).
att(200,143).
att(200,142).
att(200,146).
att(200,145).
att(200,149).
att(200,148).
att(200,152).
att(200,151).
att(200,155).
att(200,154).
att(200,158).
att(200,157).
att(200,161).
att(200,160).
att(200,164).
att(200,163).
att(200,167).
att(200,166).
att(200,170).
att(200,169).
att(200,173).
att(200,172).
att(200,176).
att(200,175).
att(200,179).
att(200,178).
att(200,182).
att(200,181).
att(200,185).
att(200,184).
att(200,188).
att(200,187).
att(200,191).
att(200,190).
att(200,194).
att(200,193).
att(200,197).
att(200,196).
att(202,202).
att(204,203).
att(203,202).
att(203,204).
att(203,2).
att(203,1).
att(203,5).
att(203,4).
att(203,8).
att(203,7).
att(203,11).
att(203,10).
att(203,14).
att(203,13).
att(203,17).
att(203,16).
att(203,20).
att(203,19).
att(203,23).
att(203,22).
att(203,26).
att(203,25).
att(203,29).
att(203,28).
att(203,32).
att(203,31).
att(203,35).
att(203,34).
att(203,38).
att(203,37).
att(203,41).
att(203,40).
att(203,44).
att(203,43).
att(203,47).
att(203,46).
att(203,50).
att(203,49).
att(203,53).
att(203,52).
att(203,56).
att(203,55).
att(203,59).
att(203,58).
att(203,62).
att(203,61).
att(203,65).
att(203,64).
att(203,68).
att(203,67).
att(203,71).
att(203,70).
att(203,74).
att(203,73).
att(203,77).
att(203,76).
att(203,80).
att(203,79).
att(203,83).
att(203,82).
att(203,86).
att(203,85).
att(203,89).
att(203,88).
att(203,92).
att(203,91).
att(203,95).
att(203,94).
att(203,98).
att(203,97).
att(203,101).
att(203,100).
att(203,104).
att(203,103).
att(203,107).
att(203,106).
att(203,110).
att(203,109).
att(203,113).
att(203,112).
att(203,116).
att(203,115).
att(203,119).
att(203,118).
att(203,122).
att(203,121).
att(203,125).
att(203,124).
att(203,128).
att(203,127).
att(203,131).
att(203,130).
att(203,134).
att(203,133).
att(203,137).
att(203,136).
att(203,140).
att(203,139).
att(203,143).
att(203,142).
att(203,146).
att(203,145).
att(203,149).
att(203,148).
att(203,152).
att(203,151).
att(203,155).
att(203,154).
att(203,158).
att(203,157).
att(203,161).
att(203,160).
att(203,164).
att(203,163).
att(203,167).
att(203,166).
att(203,170).
att(203,169).
att(203,173).
att(203,172).
att(203,176).
att(203,175).
att(203,179).
att(203,178).
att(203,182).
att(203,181).
att(203,185).
att(203,184).
att(203,188).
att(203,187).
att(203,191).
att(203,190).
att(203,194).
att(203,193).
att(203,197).
att(203,196).
att(203,200).
att(203,199).
att(205,205).
att(207,206).
att(206,205).
att(206,207).
att(206,2).
att(206,1).
att(206,5).
att(206,4).
att(206,8).
att(206,7).
att(206,11).
att(206,10).
att(206,14).
att(206,13).
att(206,17).
att(206,16).
att(206,20).
att(206,19).
att(206,23).
att(206,22).
att(206,26).
att(206,25).
att(206,29).
att(206,28).
att(206,32).
att(206,31).
att(206,35).
att(206,34).
att(206,38).
att(206,37).
att(206,41).
att(206,40).
att(206,44).
att(206,43).
att(206,47).
att(206,46).
att(206,50).
att(206,49).
att(206,53).
att(206,52).
att(206,56).
att(206,55).
att(206,59).
att(206,58).
att(206,62).
att(206,61).
att(206,65).
att(206,64).
att(206,68).
att(206,67).
att(206,71).
att(206,70).
att(206,74).
att(206,73).
att(206,77).
att(206,76).
att(206,80).
att(206,79).
att(206,83).
att(206,82).
att(206,86).
att(206,85).
att(206,89).
att(206,88).
att(206,92).
att(206,91).
att(206,95).
att(206,94).
att(206,98).
att(206,97).
att(206,101).
att(206,100).
att(206,104).
att(206,103).
att(206,107).
att(206,106).
att(206,110).
att(206,109).
att(206,113).
att(206,112).
att(206,116).
att(206,115).
att(206,119).
att(206,118).
att(206,122).
att(206,121).
att(206,125).
att(206,124).
att(206,128).
att(206,127).
att(206,131).
att(206,130).
att(206,134).
att(206,133).
att(206,137).
att(206,136).
att(206,140).
att(206,139).
att(206,143).
att(206,142).
att(206,146).
att(206,145).
att(206,149).
att(206,148).
att(206,152).
att(206,151).
att(206,155).
att(206,154).
att(206,158).
att(206,157).
att(206,161).
att(206,160).
att(206,164).
att(206,163).
att(206,167).
att(206,166).
att(206,170).
att(206,169).
att(206,173).
att(206,172).
att(206,176).
att(206,175).
att(206,179).
att(206,178).
att(206,182).
att(206,181).
att(206,185).
att(206,184).
att(206,188).
att(206,187).
att(206,191).
att(206,190).
att(206,194).
att(206,193).
att(206,197).
att(206,196).
att(206,200).
att(206,199).
att(206,203).
att(206,202).
att(208,208).
att(210,209).
att(209,208).
att(209,210).
att(209,2).
att(209,1).
att(209,5).
att(209,4).
att(209,8).
att(209,7).
att(209,11).
att(209,10).
att(209,14).
att(209,13).
att(209,17).
att(209,16).
att(209,20).
att(209,19).
att(209,23).
att(209,22).
att(209,26).
att(209,25).
att(209,29).
att(209,28).
att(209,32).
att(209,31).
att(209,35).
att(209,34).
att(209,38).
att(209,37).
att(209,41).
att(209,40).
att(209,44).
att(209,43).
att(209,47).
att(209,46).
att(209,50).
att(209,49).
att(209,53).
att(209,52).
att(209,56).
att(209,55).
att(209,59).
att(209,58).
att(209,62).
att(209,61).
att(209,65).
att(209,64).
att(209,68).
att(209,67).
att(209,71).
att(209,70).
att(209,74).
att(209,73).
att(209,77).
att(209,76).
att(209,80).
att(209,79).
att(209,83).
att(209,82).
att(209,86).
att(209,85).
att(209,89).
att(209,88).
att(209,92).
att(209,91).
att(209,95).
att(209,94).
att(209,98).
att(209,97).
att(209,101).
att(209,100).
att(209,104).
att(209,103).
att(209,107).
att(209,106).
att(209,110).
att(209,109).
att(209,113).
att(209,112).
att(209,116).
att(209,115).
att(209,119).
att(209,118).
att(209,122).
att(209,121).
att(209,125).
att(209,124).
att(209,128).
att(209,127).
att(209,131).
att(209,130).
att(209,134).
att(209,133).
att(209,137).
att(209,136).
att(209,140).
att(209,139).
att(209,143).
att(209,142).
att(209,146).
att(209,145).
att(209,149).
att(209,148).
att(209,152).
att(209,151).
att(209,155).
att(209,154).
att(209,158).
att(209,157).
att(209,161).
att(209,160).
att(209,164).
att(209,163).
att(209,167).
att(209,166).
att(209,170).
att(209,169).
att(209,173).
att(209,172).
att(209,176).
att(209,175).
att(209,179).
att(209,178).
att(209,182).
att(209,181).
att(209,185).
att(209,184).
att(209,188).
att(209,187).
att(209,191).
att(209,190).
att(209,194).
att(209,193).
att(209,197).
att(209,196).
att(209,200).
att(209,199).
att(209,203).
att(209,202).
att(209,206).
att(209,205).
att(211,211).
att(213,212).
att(212,211).
att(212,213).
att(212,2).
att(212,1).
att(212,5).
att(212,4).
att(212,8).
att(212,7).
att(212,11).
att(212,10).
att(212,14).
att(212,13).
att(212,17).
att(212,16).
att(212,20).
att(212,19).
att(212,23).
att(212,22).
att(212,26).
att(212,25).
att(212,29).
att(212,28).
att(212,32).
att(212,31).
att(212,35).
att(212,34).
att(212,38).
att(212,37).
att(212,41).
att(212,40).
att(212,44).
att(212,43).
att(212,47).
att(212,46).
att(212,50).
att(212,49).
att(212,53).
att(212,52).
att(212,56).
att(212,55).
att(212,59).
att(212,58).
att(212,62).
att(212,61).
att(212,65).
att(212,64).
att(212,68).
att(212,67).
att(212,71).
att(212,70).
att(212,74).
att(212,73).
att(212,77).
att(212,76).
att(212,80).
att(212,79).
att(212,83).
att(212,82).
att(212,86).
att(212,85).
att(212,89).
att(212,88).
att(212,92).
att(212,91).
att(212,95).
att(212,94).
att(212,98).
att(212,97).
att(212,101).
att(212,100).
att(212,104).
att(212,103).
att(212,107).
att(212,106).
att(212,110).
att(212,109).
att(212,113).
att(212,112).
att(212,116).
att(212,115).
att(212,119).
att(212,118).
att(212,122).
att(212,121).
att(212,125).
att(212,124).
att(212,128).
att(212,127).
att(212,131).
att(212,130).
att(212,134).
att(212,133).
att(212,137).
att(212,136).
att(212,140).
att(212,139).
att(212,143).
att(212,142).
att(212,146).
att(212,145).
att(212,149).
att(212,148).
att(212,152).
att(212,151).
att(212,155).
att(212,154).
att(212,158).
att(212,157).
att(212,161).
att(212,160).
att(212,164).
att(212,163).
att(212,167).
att(212,166).
att(212,170).
att(212,169).
att(212,173).
att(212,172).
att(212,176).
att(212,175).
att(212,179).
att(212,178).
att(212,182).
att(212,181).
att(212,185).
att(212,184).
att(212,188).
att(212,187).
att(212,191).
att(212,190).
att(212,194).
att(212,193).
att(212,197).
att(212,196).
att(212,200).
att(212,199).
att(212,203).
att(212,202).
att(212,206).
att(212,205).
att(212,209).
att(212,208).
att(214,214).
att(216,215).
att(215,214).
att(215,216).
att(215,2).
att(215,1).
att(215,5).
att(215,4).
att(215,8).
att(215,7).
att(215,11).
att(215,10).
att(215,14).
att(215,13).
att(215,17).
att(215,16).
att(215,20).
att(215,19).
att(215,23).
att(215,22).
att(215,26).
att(215,25).
att(215,29).
att(215,28).
att(215,32).
att(215,31).
att(215,35).
att(215,34).
att(215,38).
att(215,37).
att(215,41).
att(215,40).
att(215,44).
att(215,43).
att(215,47).
att(215,46).
att(215,50).
att(215,49).
att(215,53).
att(215,52).
att(215,56).
att(215,55).
att(215,59).
att(215,58).
att(215,62).
att(215,61).
att(215,65).
att(215,64).
att(215,68).
att(215,67).
att(215,71).
att(215,70).
att(215,74).
att(215,73).
att(215,77).
att(215,76).
att(215,80).
att(215,79).
att(215,83).
att(215,82).
att(215,86).
att(215,85).
att(215,89).
att(215,88).
att(215,92).
att(215,91).
att(215,95).
att(215,94).
att(215,98).
att(215,97).
att(215,101).
att(215,100).
att(215,104).
att(215,103).
att(215,107).
att(215,106).
att(215,110).
att(215,109).
att(215,113).
att(215,112).
att(215,116).
att(215,115).
att(215,119).
att(215,118).
att(215,122).
att(215,121).
att(215,125).
att(215,124).
att(215,128).
att(215,127).
att(215,131).
att(215,130).
att(215,134).
att(215,133).
att(215,137).
att(215,136).
att(215,140).
att(215,139).
att(215,143).
att(215,142).
att(215,146).
att(215,145).
att(215,149).
att(215,148).
att(215,152).
att(215,151).
att(215,155).
att(215,154).
att(215,158).
att(215,157).
att(215,161).
att(215,160).
att(215,164).
att(215,163).
att(215,167).
att(215,166).
att(215,170).
att(215,169).
att(215,173).
att(215,172).
att(215,176).
att(215,175).
att(215,179).
att(215,178).
att(215,182).
att(215,181).
att(215,185).
att(215,184).
att(215,188).
att(215,187).
att(215,191).
att(215,190).
att(215,194).
att(215,193).
att(215,197).
att(215,196).
att(215,200).
att(215,199).
att(215,203).
att(215,202).
att(215,206).
att(215,205).
att(215,209).
att(215,208).
att(215,212).
att(215,211).
att(217,217).
att(219,218).
att(218,217).
att(218,219).
att(218,2).
att(218,1).
att(218,5).
att(218,4).
att(218,8).
att(218,7).
att(218,11).
att(218,10).
att(218,14).
att(218,13).
att(218,17).
att(218,16).
att(218,20).
att(218,19).
att(218,23).
att(218,22).
att(218,26).
att(218,25).
att(218,29).
att(218,28).
att(218,32).
att(218,31).
att(218,35).
att(218,34).
att(218,38).
att(218,37).
att(218,41).
att(218,40).
att(218,44).
att(218,43).
att(218,47).
att(218,46).
att(218,50).
att(218,49).
att(218,53).
att(218,52).
att(218,56).
att(218,55).
att(218,59).
att(218,58).
att(218,62).
att(218,61).
att(218,65).
att(218,64).
att(218,68).
att(218,67).
att(218,71).
att(218,70).
att(218,74).
att(218,73).
att(218,77).
att(218,76).
att(218,80).
att(218,79).
att(218,83).
att(218,82).
att(218,86).
att(218,85).
att(218,89).
att(218,88).
att(218,92).
att(218,91).
att(218,95).
att(218,94).
att(218,98).
att(218,97).
att(218,101).
att(218,100).
att(218,104).
att(218,103).
att(218,107).
att(218,106).
att(218,110).
att(218,109).
att(218,113).
att(218,112).
att(218,116).
att(218,115).
att(218,119).
att(218,118).
att(218,122).
att(218,121).
att(218,125).
att(218,124).
att(218,128).
att(218,127).
att(218,131).
att(218,130).
att(218,134).
att(218,133).
att(218,137).
att(218,136).
att(218,140).
att(218,139).
att(218,143).
att(218,142).
att(218,146).
att(218,145).
att(218,149).
att(218,148).
att(218,152).
att(218,151).
att(218,155).
att(218,154).
att(218,158).
att(218,157).
att(218,161).
att(218,160).
att(218,164).
att(218,163).
att(218,167).
att(218,166).
att(218,170).
att(218,169).
att(218,173).
att(218,172).
att(218,176).
att(218,175).
att(218,179).
att(218,178).
att(218,182).
att(218,181).
att(218,185).
att(218,184).
att(218,188).
att(218,187).
att(218,191).
att(218,190).
att(218,194).
att(218,193).
att(218,197).
att(218,196).
att(218,200).
att(218,199).
att(218,203).
att(218,202).
att(218,206).
att(218,205).
att(218,209).
att(218,208).
att(218,212).
att(218,211).
att(218,215).
att(218,214).
att(220,220).
att(222,221).
att(221,220).
att(221,222).
att(221,2).
att(221,1).
att(221,5).
att(221,4).
att(221,8).
att(221,7).
att(221,11).
att(221,10).
att(221,14).
att(221,13).
att(221,17).
att(221,16).
att(221,20).
att(221,19).
att(221,23).
att(221,22).
att(221,26).
att(221,25).
att(221,29).
att(221,28).
att(221,32).
att(221,31).
att(221,35).
att(221,34).
att(221,38).
att(221,37).
att(221,41).
att(221,40).
att(221,44).
att(221,43).
att(221,47).
att(221,46).
att(221,50).
att(221,49).
att(221,53).
att(221,52).
att(221,56).
att(221,55).
att(221,59).
att(221,58).
att(221,62).
att(221,61).
att(221,65).
att(221,64).
att(221,68).
att(221,67).
att(221,71).
att(221,70).
att(221,74).
att(221,73).
att(221,77).
att(221,76).
att(221,80).
att(221,79).
att(221,83).
att(221,82).
att(221,86).
att(221,85).
att(221,89).
att(221,88).
att(221,92).
att(221,91).
att(221,95).
att(221,94).
att(221,98).
att(221,97).
att(221,101).
att(221,100).
att(221,104).
att(221,103).
att(221,107).
att(221,106).
att(221,110).
att(221,109).
att(221,113).
att(221,112).
att(221,116).
att(221,115).
att(221,119).
att(221,118).
att(221,122).
att(221,121).
att(221,125).
att(221,124).
att(221,128).
att(221,127).
att(221,131).
att(221,130).
att(221,134).
att(221,133).
att(221,137).
att(221,136).
att(221,140).
att(221,139).
att(221,143).
att(221,142).
att(221,146).
att(221,145).
att(221,149).
att(221,148).
att(221,152).
att(221,151).
att(221,155).
att(221,154).
att(221,158).
att(221,157).
att(221,161).
att(221,160).
att(221,164).
att(221,163).
att(221,167).
att(221,166).
att(221,170).
att(221,169).
att(221,173).
att(221,172).
att(221,176).
att(221,175).
att(221,179).
att(221,178).
att(221,182).
att(221,181).
att(221,185).
att(221,184).
att(221,188).
att(221,187).
att(221,191).
att(221,190).
att(221,194).
att(221,193).
att(221,197).
att(221,196).
att(221,200).
att(221,199).
att(221,203).
att(221,202).
att(221,206).
att(221,205).
att(221,209).
att(221,208).
att(221,212).
att(221,211).
att(221,215).
att(221,214).
att(221,218).
att(221,217).
att(223,223).
att(225,224).
att(224,223).
att(224,225).
att(224,2).
att(224,1).
att(224,5).
att(224,4).
att(224,8).
att(224,7).
att(224,11).
att(224,10).
att(224,14).
att(224,13).
att(224,17).
att(224,16).
att(224,20).
att(224,19).
att(224,23).
att(224,22).
att(224,26).
att(224,25).
att(224,29).
att(224,28).
att(224,32).
att(224,31).
att(224,35).
att(224,34).
att(224,38).
att(224,37).
att(224,41).
att(224,40).
att(224,44).
att(224,43).
att(224,47).
att(224,46).
att(224,50).
att(224,49).
att(224,53).
att(224,52).
att(224,56).
att(224,55).
att(224,59).
att(224,58).
att(224,62).
att(224,61).
att(224,65).
att(224,64).
att(224,68).
att(224,67).
att(224,71).
att(224,70).
att(224,74).
att(224,73).
att(224,77).
att(224,76).
att(224,80).
att(224,79).
att(224,83).
att(224,82).
att(224,86).
att(224,85).
att(224,89).
att(224,88).
att(224,92).
att(224,91).
att(224,95).
att(224,94).
att(224,98).
att(224,97).
att(224,101).
att(224,100).
att(224,104).
att(224,103).
att(224,107).
att(224,106).
att(224,110).
att(224,109).
att(224,113).
att(224,112).
att(224,116).
att(224,115).
att(224,119).
att(224,118).
att(224,122).
att(224,121).
att(224,125).
att(224,124).
att(224,128).
att(224,127).
att(224,131).
att(224,130).
att(224,134).
att(224,133).
att(224,137).
att(224,136).
att(224,140).
att(224,139).
att(224,143).
att(224,142).
att(224,146).
att(224,145).
att(224,149).
att(224,148).
att(224,152).
att(224,151).
att(224,155).
att(224,154).
att(224,158).
att(224,157).
att(224,161).
att(224,160).
att(224,164).
att(224,163).
att(224,167).
att(224,166).
att(224,170).
att(224,169).
att(224,173).
att(224,172).
att(224,176).
att(224,175).
att(224,179).
att(224,178).
att(224,182).
att(224,181).
att(224,185).
att(224,184).
att(224,188).
att(224,187).
att(224,191).
att(224,190).
att(224,194).
att(224,193).
att(224,197).
att(224,196).
att(224,200).
att(224,199).
att(224,203).
att(224,202).
att(224,206).
att(224,205).
att(224,209).
att(224,208).
att(224,212).
att(224,211).
att(224,215).
att(224,214).
att(224,218).
att(224,217).
att(224,221).
att(224,220).
att(226,226).
att(228,227).
att(227,226).
att(227,228).
att(227,2).
att(227,1).
att(227,5).
att(227,4).
att(227,8).
att(227,7).
att(227,11).
att(227,10).
att(227,14).
att(227,13).
att(227,17).
att(227,16).
att(227,20).
att(227,19).
att(227,23).
att(227,22).
att(227,26).
att(227,25).
att(227,29).
att(227,28).
att(227,32).
att(227,31).
att(227,35).
att(227,34).
att(227,38).
att(227,37).
att(227,41).
att(227,40).
att(227,44).
att(227,43).
att(227,47).
att(227,46).
att(227,50).
att(227,49).
att(227,53).
att(227,52).
att(227,56).
att(227,55).
att(227,59).
att(227,58).
att(227,62).
att(227,61).
att(227,65).
att(227,64).
att(227,68).
att(227,67).
att(227,71).
att(227,70).
att(227,74).
att(227,73).
att(227,77).
att(227,76).
att(227,80).
att(227,79).
att(227,83).
att(227,82).
att(227,86).
att(227,85).
att(227,89).
att(227,88).
att(227,92).
att(227,91).
att(227,95).
att(227,94).
att(227,98).
att(227,97).
att(227,101).
att(227,100).
att(227,104).
att(227,103).
att(227,107).
att(227,106).
att(227,110).
att(227,109).
att(227,113).
att(227,112).
att(227,116).
att(227,115).
att(227,119).
att(227,118).
att(227,122).
att(227,121).
att(227,125).
att(227,124).
att(227,128).
att(227,127).
att(227,131).
att(227,130).
att(227,134).
att(227,133).
att(227,137).
att(227,136).
att(227,140).
att(227,139).
att(227,143).
att(227,142).
att(227,146).
att(227,145).
att(227,149).
att(227,148).
att(227,152).
att(227,151).
att(227,155).
att(227,154).
att(227,158).
att(227,157).
att(227,161).
att(227,160).
att(227,164).
att(227,163).
att(227,167).
att(227,166).
att(227,170).
att(227,169).
att(227,173).
att(227,172).
att(227,176).
att(227,175).
att(227,179).
att(227,178).
att(227,182).
att(227,181).
att(227,185).
att(227,184).
att(227,188).
att(227,187).
att(227,191).
att(227,190).
att(227,194).
att(227,193).
att(227,197).
att(227,196).
att(227,200).
att(227,199).
att(227,203).
att(227,202).
att(227,206).
att(227,205).
att(227,209).
att(227,208).
att(227,212).
att(227,211).
att(227,215).
att(227,214).
att(227,218).
att(227,217).
att(227,221).
att(227,220).
att(227,224).
att(227,223).
att(229,229).
att(231,230).
att(230,229).
att(230,231).
att(230,2).
att(230,1).
att(230,5).
att(230,4).
att(230,8).
att(230,7).
att(230,11).
att(230,10).
att(230,14).
att(230,13).
att(230,17).
att(230,16).
att(230,20).
att(230,19).
att(230,23).
att(230,22).
att(230,26).
att(230,25).
att(230,29).
att(230,28).
att(230,32).
att(230,31).
att(230,35).
att(230,34).
att(230,38).
att(230,37).
att(230,41).
att(230,40).
att(230,44).
att(230,43).
att(230,47).
att(230,46).
att(230,50).
att(230,49).
att(230,53).
att(230,52).
att(230,56).
att(230,55).
att(230,59).
att(230,58).
att(230,62).
att(230,61).
att(230,65).
att(230,64).
att(230,68).
att(230,67).
att(230,71).
att(230,70).
att(230,74).
att(230,73).
att(230,77).
att(230,76).
att(230,80).
att(230,79).
att(230,83).
att(230,82).
att(230,86).
att(230,85).
att(230,89).
att(230,88).
att(230,92).
att(230,91).
att(230,95).
att(230,94).
att(230,98).
att(230,97).
att(230,101).
att(230,100).
att(230,104).
att(230,103).
att(230,107).
att(230,106).
att(230,110).
att(230,109).
att(230,113).
att(230,112).
att(230,116).
att(230,115).
att(230,119).
att(230,118).
att(230,122).
att(230,121).
att(230,125).
att(230,124).
att(230,128).
att(230,127).
att(230,131).
att(230,130).
att(230,134).
att(230,133).
att(230,137).
att(230,136).
att(230,140).
att(230,139).
att(230,143).
att(230,142).
att(230,146).
att(230,145).
att(230,149).
att(230,148).
att(230,152).
att(230,151).
att(230,155).
att(230,154).
att(230,158).
att(230,157).
att(230,161).
att(230,160).
att(230,164).
att(230,163).
att(230,167).
att(230,166).
att(230,170).
att(230,169).
att(230,173).
att(230,172).
att(230,176).
att(230,175).
att(230,179).
att(230,178).
att(230,182).
att(230,181).
att(230,185).
att(230,184).
att(230,188).
att(230,187).
att(230,191).
att(230,190).
att(230,194).
att(230,193).
att(230,197).
att(230,196).
att(230,200).
att(230,199).
att(230,203).
att(230,202).
att(230,206).
att(230,205).
att(230,209).
att(230,208).
att(230,212).
att(230,211).
att(230,215).
att(230,214).
att(230,218).
att(230,217).
att(230,221).
att(230,220).
att(230,224).
att(230,223).
att(230,227).
att(230,226).
att(232,232).
att(234,233).
att(233,232).
att(233,234).
att(233,2).
att(233,1).
att(233,5).
att(233,4).
att(233,8).
att(233,7).
att(233,11).
att(233,10).
att(233,14).
att(233,13).
att(233,17).
att(233,16).
att(233,20).
att(233,19).
att(233,23).
att(233,22).
att(233,26).
att(233,25).
att(233,29).
att(233,28).
att(233,32).
att(233,31).
att(233,35).
att(233,34).
att(233,38).
att(233,37).
att(233,41).
att(233,40).
att(233,44).
att(233,43).
att(233,47).
att(233,46).
att(233,50).
att(233,49).
att(233,53).
att(233,52).
att(233,56).
att(233,55).
att(233,59).
att(233,58).
att(233,62).
att(233,61).
att(233,65).
att(233,64).
att(233,68).
att(233,67).
att(233,71).
att(233,70).
att(233,74).
att(233,73).
att(233,77).
att(233,76).
att(233,80).
att(233,79).
att(233,83).
att(233,82).
att(233,86).
att(233,85).
att(233,89).
att(233,88).
att(233,92).
att(233,91).
att(233,95).
att(233,94).
att(233,98).
att(233,97).
att(233,101).
att(233,100).
att(233,104).
att(233,103).
att(233,107).
att(233,106).
att(233,110).
att(233,109).
att(233,113).
att(233,112).
att(233,116).
att(233,115).
att(233,119).
att(233,118).
att(233,122).
att(233,121).
att(233,125).
att(233,124).
att(233,128).
att(233,127).
att(233,131).
att(233,130).
att(233,134).
att(233,133).
att(233,137).
att(233,136).
att(233,140).
att(233,139).
att(233,143).
att(233,142).
att(233,146).
att(233,145).
att(233,149).
att(233,148).
att(233,152).
att(233,151).
att(233,155).
att(233,154).
att(233,158).
att(233,157).
att(233,161).
att(233,160).
att(233,164).
att(233,163).
att(233,167).
att(233,166).
att(233,170).
att(233,169).
att(233,173).
att(233,172).
att(233,176).
att(233,175).
att(233,179).
att(233,178).
att(233,182).
att(233,181).
att(233,185).
att(233,184).
att(233,188).
att(233,187).
att(233,191).
att(233,190).
att(233,194).
att(233,193).
att(233,197).
att(233,196).
att(233,200).
att(233,199).
att(233,203).
att(233,202).
att(233,206).
att(233,205).
att(233,209).
att(233,208).
att(233,212).
att(233,211).
att(233,215).
att(233,214).
att(233,218).
att(233,217).
att(233,221).
att(233,220).
att(233,224).
att(233,223).
att(233,227).
att(233,226).
att(233,230).
att(233,229).
att(235,235).
att(237,236).
att(236,235).
att(236,237).
att(236,2).
att(236,1).
att(236,5).
att(236,4).
att(236,8).
att(236,7).
att(236,11).
att(236,10).
att(236,14).
att(236,13).
att(236,17).
att(236,16).
att(236,20).
att(236,19).
att(236,23).
att(236,22).
att(236,26).
att(236,25).
att(236,29).
att(236,28).
att(236,32).
att(236,31).
att(236,35).
att(236,34).
att(236,38).
att(236,37).
att(236,41).
att(236,40).
att(236,44).
att(236,43).
att(236,47).
att(236,46).
att(236,50).
att(236,49).
att(236,53).
att(236,52).
att(236,56).
att(236,55).
att(236,59).
att(236,58).
att(236,62).
att(236,61).
att(236,65).
att(236,64).
att(236,68).
att(236,67).
att(236,71).
att(236,70).
att(236,74).
att(236,73).
att(236,77).
att(236,76).
att(236,80).
att(236,79).
att(236,83).
att(236,82).
att(236,86).
att(236,85).
att(236,89).
att(236,88).
att(236,92).
att(236,91).
att(236,95).
att(236,94).
att(236,98).
att(236,97).
att(236,101).
att(236,100).
att(236,104).
att(236,103).
att(236,107).
att(236,106).
att(236,110).
att(236,109).
att(236,113).
att(236,112).
att(236,116).
att(236,115).
att(236,119).
att(236,118).
att(236,122).
att(236,121).
att(236,125).
att(236,124).
att(236,128).
att(236,127).
att(236,131).
att(236,130).
att(236,134).
att(236,133).
att(236,137).
att(236,136).
att(236,140).
att(236,139).
att(236,143).
att(236,142).
att(236,146).
att(236,145).
att(236,149).
att(236,148).
att(236,152).
att(236,151).
att(236,155).
att(236,154).
att(236,158).
att(236,157).
att(236,161).
att(236,160).
att(236,164).
att(236,163).
att(236,167).
att(236,166).
att(236,170).
att(236,169).
att(236,173).
att(236,172).
att(236,176).
att(236,175).
att(236,179).
att(236,178).
att(236,182).
att(236,181).
att(236,185).
att(236,184).
att(236,188).
att(236,187).
att(236,191).
att(236,190).
att(236,194).
att(236,193).
att(236,197).
att(236,196).
att(236,200).
att(236,199).
att(236,203).
att(236,202).
att(236,206).
att(236,205).
att(236,209).
att(236,208).
att(236,212).
att(236,211).
att(236,215).
att(236,214).
att(236,218).
att(236,217).
att(236,221).
att(236,220).
att(236,224).
att(236,223).
att(236,227).
att(236,226).
att(236,230).
att(236,229).
att(236,233).
att(236,232).
att(238,238).
att(240,239).
att(239,238).
att(239,240).
att(239,2).
att(239,1).
att(239,5).
att(239,4).
att(239,8).
att(239,7).
att(239,11).
att(239,10).
att(239,14).
att(239,13).
att(239,17).
att(239,16).
att(239,20).
att(239,19).
att(239,23).
att(239,22).
att(239,26).
att(239,25).
att(239,29).
att(239,28).
att(239,32).
att(239,31).
att(239,35).
att(239,34).
att(239,38).
att(239,37).
att(239,41).
att(239,40).
att(239,44).
att(239,43).
att(239,47).
att(239,46).
att(239,50).
att(239,49).
att(239,53).
att(239,52).
att(239,56).
att(239,55).
att(239,59).
att(239,58).
att(239,62).
att(239,61).
att(239,65).
att(239,64).
att(239,68).
att(239,67).
att(239,71).
att(239,70).
att(239,74).
att(239,73).
att(239,77).
att(239,76).
att(239,80).
att(239,79).
att(239,83).
att(239,82).
att(239,86).
att(239,85).
att(239,89).
att(239,88).
att(239,92).
att(239,91).
att(239,95).
att(239,94).
att(239,98).
att(239,97).
att(239,101).
att(239,100).
att(239,104).
att(239,103).
att(239,107).
att(239,106).
att(239,110).
att(239,109).
att(239,113).
att(239,112).
att(239,116).
att(239,115).
att(239,119).
att(239,118).
att(239,122).
att(239,121).
att(239,125).
att(239,124).
att(239,128).
att(239,127).
att(239,131).
att(239,130).
att(239,134).
att(239,133).
att(239,137).
att(239,136).
att(239,140).
att(239,139).
att(239,143).
att(239,142).
att(239,146).
att(239,145).
att(239,149).
att(239,148).
att(239,152).
att(239,151).
att(239,155).
att(239,154).
att(239,158).
att(239,157).
att(239,161).
att(239,160).
att(239,164).
att(239,163).
att(239,167).
att(239,166).
att(239,170).
att(239,169).
att(239,173).
att(239,172).
att(239,176).
att(239,175).
att(239,179).
att(239,178).
att(239,182).
att(239,181).
att(239,185).
att(239,184).
att(239,188).
att(239,187).
att(239,191).
att(239,190).
att(239,194).
att(239,193).
att(239,197).
att(239,196).
att(239,200).
att(239,199).
att(239,203).
att(239,202).
att(239,206).
att(239,205).
att(239,209).
att(239,208).
att(239,212).
att(239,211).
att(239,215).
att(239,214).
att(239,218).
att(239,217).
att(239,221).
att(239,220).
att(239,224).
att(239,223).
att(239,227).
att(239,226).
att(239,230).
att(239,229).
att(239,233).
att(239,232).
att(239,236).
att(239,235).
att(241,241).
att(243,242).
att(242,241).
att(242,243).
att(242,2).
att(242,1).
att(242,5).
att(242,4).
att(242,8).
att(242,7).
att(242,11).
att(242,10).
att(242,14).
att(242,13).
att(242,17).
att(242,16).
att(242,20).
att(242,19).
att(242,23).
att(242,22).
att(242,26).
att(242,25).
att(242,29).
att(242,28).
att(242,32).
att(242,31).
att(242,35).
att(242,34).
att(242,38).
att(242,37).
att(242,41).
att(242,40).
att(242,44).
att(242,43).
att(242,47).
att(242,46).
att(242,50).
att(242,49).
att(242,53).
att(242,52).
att(242,56).
att(242,55).
att(242,59).
att(242,58).
att(242,62).
att(242,61).
att(242,65).
att(242,64).
att(242,68).
att(242,67).
att(242,71).
att(242,70).
att(242,74).
att(242,73).
att(242,77).
att(242,76).
att(242,80).
att(242,79).
att(242,83).
att(242,82).
att(242,86).
att(242,85).
att(242,89).
att(242,88).
att(242,92).
att(242,91).
att(242,95).
att(242,94).
att(242,98).
att(242,97).
att(242,101).
att(242,100).
att(242,104).
att(242,103).
att(242,107).
att(242,106).
att(242,110).
att(242,109).
att(242,113).
att(242,112).
att(242,116).
att(242,115).
att(242,119).
att(242,118).
att(242,122).
att(242,121).
att(242,125).
att(242,124).
att(242,128).
att(242,127).
att(242,131).
att(242,130).
att(242,134).
att(242,133).
att(242,137).
att(242,136).
att(242,140).
att(242,139).
att(242,143).
att(242,142).
att(242,146).
att(242,145).
att(242,149).
att(242,148).
att(242,152).
att(242,151).
att(242,155).
att(242,154).
att(242,158).
att(242,157).
att(242,161).
att(242,160).
att(242,164).
att(242,163).
att(242,167).
att(242,166).
att(242,170).
att(242,169).
att(242,173).
att(242,172).
att(242,176).
att(242,175).
att(242,179).
att(242,178).
att(242,182).
att(242,181).
att(242,185).
att(242,184).
att(242,188).
att(242,187).
att(242,191).
att(242,190).
att(242,194).
att(242,193).
att(242,197).
att(242,196).
att(242,200).
att(242,199).
att(242,203).
att(242,202).
att(242,206).
att(242,205).
att(242,209).
att(242,208).
att(242,212).
att(242,211).
att(242,215).
att(242,214).
att(242,218).
att(242,217).
att(242,221).
att(242,220).
att(242,224).
att(242,223).
att(242,227).
att(242,226).
att(242,230).
att(242,229).
att(242,233).
att(242,232).
att(242,236).
att(242,235).
att(242,239).
att(242,238).
att(244,244).
att(246,245).
att(245,244).
att(245,246).
att(245,2).
att(245,1).
att(245,5).
att(245,4).
att(245,8).
att(245,7).
att(245,11).
att(245,10).
att(245,14).
att(245,13).
att(245,17).
att(245,16).
att(245,20).
att(245,19).
att(245,23).
att(245,22).
att(245,26).
att(245,25).
att(245,29).
att(245,28).
att(245,32).
att(245,31).
att(245,35).
att(245,34).
att(245,38).
att(245,37).
att(245,41).
att(245,40).
att(245,44).
att(245,43).
att(245,47).
att(245,46).
att(245,50).
att(245,49).
att(245,53).
att(245,52).
att(245,56).
att(245,55).
att(245,59).
att(245,58).
att(245,62).
att(245,61).
att(245,65).
att(245,64).
att(245,68).
att(245,67).
att(245,71).
att(245,70).
att(245,74).
att(245,73).
att(245,77).
att(245,76).
att(245,80).
att(245,79).
att(245,83).
att(245,82).
att(245,86).
att(245,85).
att(245,89).
att(245,88).
att(245,92).
att(245,91).
att(245,95).
att(245,94).
att(245,98).
att(245,97).
att(245,101).
att(245,100).
att(245,104).
att(245,103).
att(245,107).
att(245,106).
att(245,110).
att(245,109).
att(245,113).
att(245,112).
att(245,116).
att(245,115).
att(245,119).
att(245,118).
att(245,122).
att(245,121).
att(245,125).
att(245,124).
att(245,128).
att(245,127).
att(245,131).
att(245,130).
att(245,134).
att(245,133).
att(245,137).
att(245,136).
att(245,140).
att(245,139).
att(245,143).
att(245,142).
att(245,146).
att(245,145).
att(245,149).
att(245,148).
att(245,152).
att(245,151).
att(245,155).
att(245,154).
att(245,158).
att(245,157).
att(245,161).
att(245,160).
att(245,164).
att(245,163).
att(245,167).
att(245,166).
att(245,170).
att(245,169).
att(245,173).
att(245,172).
att(245,176).
att(245,175).
att(245,179).
att(245,178).
att(245,182).
att(245,181).
att(245,185).
att(245,184).
att(245,188).
att(245,187).
att(245,191).
att(245,190).
att(245,194).
att(245,193).
att(245,197).
att(245,196).
att(245,200).
att(245,199).
att(245,203).
att(245,202).
att(245,206).
att(245,205).
att(245,209).
att(245,208).
att(245,212).
att(245,211).
att(245,215).
att(245,214).
att(245,218).
att(245,217).
att(245,221).
att(245,220).
att(245,224).
att(245,223).
att(245,227).
att(245,226).
att(245,230).
att(245,229).
att(245,233).
att(245,232).
att(245,236).
att(245,235).
att(245,239).
att(245,238).
att(245,242).
att(245,241).
att(247,247).
att(249,248).
att(248,247).
att(248,249).
att(248,2).
att(248,1).
att(248,5).
att(248,4).
att(248,8).
att(248,7).
att(248,11).
att(248,10).
att(248,14).
att(248,13).
att(248,17).
att(248,16).
att(248,20).
att(248,19).
att(248,23).
att(248,22).
att(248,26).
att(248,25).
att(248,29).
att(248,28).
att(248,32).
att(248,31).
att(248,35).
att(248,34).
att(248,38).
att(248,37).
att(248,41).
att(248,40).
att(248,44).
att(248,43).
att(248,47).
att(248,46).
att(248,50).
att(248,49).
att(248,53).
att(248,52).
att(248,56).
att(248,55).
att(248,59).
att(248,58).
att(248,62).
att(248,61).
att(248,65).
att(248,64).
att(248,68).
att(248,67).
att(248,71).
att(248,70).
att(248,74).
att(248,73).
att(248,77).
att(248,76).
att(248,80).
att(248,79).
att(248,83).
att(248,82).
att(248,86).
att(248,85).
att(248,89).
att(248,88).
att(248,92).
att(248,91).
att(248,95).
att(248,94).
att(248,98).
att(248,97).
att(248,101).
att(248,100).
att(248,104).
att(248,103).
att(248,107).
att(248,106).
att(248,110).
att(248,109).
att(248,113).
att(248,112).
att(248,116).
att(248,115).
att(248,119).
att(248,118).
att(248,122).
att(248,121).
att(248,125).
att(248,124).
att(248,128).
att(248,127).
att(248,131).
att(248,130).
att(248,134).
att(248,133).
att(248,137).
att(248,136).
att(248,140).
att(248,139).
att(248,143).
att(248,142).
att(248,146).
att(248,145).
att(248,149).
att(248,148).
att(248,152).
att(248,151).
att(248,155).
att(248,154).
att(248,158).
att(248,157).
att(248,161).
att(248,160).
att(248,164).
att(248,163).
att(248,167).
att(248,166).
att(248,170).
att(248,169).
att(248,173).
att(248,172).
att(248,176).
att(248,175).
att(248,179).
att(248,178).
att(248,182).
att(248,181).
att(248,185).
att(248,184).
att(248,188).
att(248,187).
att(248,191).
att(248,190).
att(248,194).
att(248,193).
att(248,197).
att(248,196).
att(248,200).
att(248,199).
att(248,203).
att(248,202).
att(248,206).
att(248,205).
att(248,209).
att(248,208).
att(248,212).
att(248,211).
att(248,215).
att(248,214).
att(248,218).
att(248,217).
att(248,221).
att(248,220).
att(248,224).
att(248,223).
att(248,227).
att(248,226).
att(248,230).
att(248,229).
att(248,233).
att(248,232).
att(248,236).
att(248,235).
att(248,239).
att(248,238).
att(248,242).
att(248,241).
att(248,245).
att(248,244).
att(250,250).
att(252,251).
att(251,250).
att(251,252).
att(251,2).
att(251,1).
att(251,5).
att(251,4).
att(251,8).
att(251,7).
att(251,11).
att(251,10).
att(251,14).
att(251,13).
att(251,17).
att(251,16).
att(251,20).
att(251,19).
att(251,23).
att(251,22).
att(251,26).
att(251,25).
att(251,29).
att(251,28).
att(251,32).
att(251,31).
att(251,35).
att(251,34).
att(251,38).
att(251,37).
att(251,41).
att(251,40).
att(251,44).
att(251,43).
att(251,47).
att(251,46).
att(251,50).
att(251,49).
att(251,53).
att(251,52).
att(251,56).
att(251,55).
att(251,59).
att(251,58).
att(251,62).
att(251,61).
att(251,65).
att(251,64).
att(251,68).
att(251,67).
att(251,71).
att(251,70).
att(251,74).
att(251,73).
att(251,77).
att(251,76).
att(251,80).
att(251,79).
att(251,83).
att(251,82).
att(251,86).
att(251,85).
att(251,89).
att(251,88).
att(251,92).
att(251,91).
att(251,95).
att(251,94).
att(251,98).
att(251,97).
att(251,101).
att(251,100).
att(251,104).
att(251,103).
att(251,107).
att(251,106).
att(251,110).
att(251,109).
att(251,113).
att(251,112).
att(251,116).
att(251,115).
att(251,119).
att(251,118).
att(251,122).
att(251,121).
att(251,125).
att(251,124).
att(251,128).
att(251,127).
att(251,131).
att(251,130).
att(251,134).
att(251,133).
att(251,137).
att(251,136).
att(251,140).
att(251,139).
att(251,143).
att(251,142).
att(251,146).
att(251,145).
att(251,149).
att(251,148).
att(251,152).
att(251,151).
att(251,155).
att(251,154).
att(251,158).
att(251,157).
att(251,161).
att(251,160).
att(251,164).
att(251,163).
att(251,167).
att(251,166).
att(251,170).
att(251,169).
att(251,173).
att(251,172).
att(251,176).
att(251,175).
att(251,179).
att(251,178).
att(251,182).
att(251,181).
att(251,185).
att(251,184).
att(251,188).
att(251,187).
att(251,191).
att(251,190).
att(251,194).
att(251,193).
att(251,197).
att(251,196).
att(251,200).
att(251,199).
att(251,203).
att(251,202).
att(251,206).
att(251,205).
att(251,209).
att(251,208).
att(251,212).
att(251,211).
att(251,215).
att(251,214).
att(251,218).
att(251,217).
att(251,221).
att(251,220).
att(251,224).
att(251,223).
att(251,227).
att(251,226).
att(251,230).
att(251,229).
att(251,233).
att(251,232).
att(251,236).
att(251,235).
att(251,239).
att(251,238).
att(251,242).
att(251,241).
att(251,245).
att(251,244).
att(251,248).
att(251,247).
att(253,253).
att(255,254).
att(254,253).
att(254,255).
att(254,2).
att(254,1).
att(254,5).
att(254,4).
att(254,8).
att(254,7).
att(254,11).
att(254,10).
att(254,14).
att(254,13).
att(254,17).
att(254,16).
att(254,20).
att(254,19).
att(254,23).
att(254,22).
att(254,26).
att(254,25).
att(254,29).
att(254,28).
att(254,32).
att(254,31).
att(254,35).
att(254,34).
att(254,38).
att(254,37).
att(254,41).
att(254,40).
att(254,44).
att(254,43).
att(254,47).
att(254,46).
att(254,50).
att(254,49).
att(254,53).
att(254,52).
att(254,56).
att(254,55).
att(254,59).
att(254,58).
att(254,62).
att(254,61).
att(254,65).
att(254,64).
att(254,68).
att(254,67).
att(254,71).
att(254,70).
att(254,74).
att(254,73).
att(254,77).
att(254,76).
att(254,80).
att(254,79).
att(254,83).
att(254,82).
att(254,86).
att(254,85).
att(254,89).
att(254,88).
att(254,92).
att(254,91).
att(254,95).
att(254,94).
att(254,98).
att(254,97).
att(254,101).
att(254,100).
att(254,104).
att(254,103).
att(254,107).
att(254,106).
att(254,110).
att(254,109).
att(254,113).
att(254,112).
att(254,116).
att(254,115).
att(254,119).
att(254,118).
att(254,122).
att(254,121).
att(254,125).
att(254,124).
att(254,128).
att(254,127).
att(254,131).
att(254,130).
att(254,134).
att(254,133).
att(254,137).
att(254,136).
att(254,140).
att(254,139).
att(254,143).
att(254,142).
att(254,146).
att(254,145).
att(254,149).
att(254,148).
att(254,152).
att(254,151).
att(254,155).
att(254,154).
att(254,158).
att(254,157).
att(254,161).
att(254,160).
att(254,164).
att(254,163).
att(254,167).
att(254,166).
att(254,170).
att(254,169).
att(254,173).
att(254,172).
att(254,176).
att(254,175).
att(254,179).
att(254,178).
att(254,182).
att(254,181).
att(254,185).
att(254,184).
att(254,188).
att(254,187).
att(254,191).
att(254,190).
att(254,194).
att(254,193).
att(254,197).
att(254,196).
att(254,200).
att(254,199).
att(254,203).
att(254,202).
att(254,206).
att(254,205).
att(254,209).
att(254,208).
att(254,212).
att(254,211).
att(254,215).
att(254,214).
att(254,218).
att(254,217).
att(254,221).
att(254,220).
att(254,224).
att(254,223).
att(254,227).
att(254,226).
att(254,230).
att(254,229).
att(254,233).
att(254,232).
att(254,236).
att(254,235).
att(254,239).
att(254,238).
att(254,242).
att(254,241).
att(254,245).
att(254,244).
att(254,248).
att(254,247).
att(254,251).
att(254,250).
att(256,256).
att(258,257).
att(257,256).
att(257,258).
att(257,2).
att(257,1).
att(257,5).
att(257,4).
att(257,8).
att(257,7).
att(257,11).
att(257,10).
att(257,14).
att(257,13).
att(257,17).
att(257,16).
att(257,20).
att(257,19).
att(257,23).
att(257,22).
att(257,26).
att(257,25).
att(257,29).
att(257,28).
att(257,32).
att(257,31).
att(257,35).
att(257,34).
att(257,38).
att(257,37).
att(257,41).
att(257,40).
att(257,44).
att(257,43).
att(257,47).
att(257,46).
att(257,50).
att(257,49).
att(257,53).
att(257,52).
att(257,56).
att(257,55).
att(257,59).
att(257,58).
att(257,62).
att(257,61).
att(257,65).
att(257,64).
att(257,68).
att(257,67).
att(257,71).
att(257,70).
att(257,74).
att(257,73).
att(257,77).
att(257,76).
att(257,80).
att(257,79).
att(257,83).
att(257,82).
att(257,86).
att(257,85).
att(257,89).
att(257,88).
att(257,92).
att(257,91).
att(257,95).
att(257,94).
att(257,98).
att(257,97).
att(257,101).
att(257,100).
att(257,104).
att(257,103).
att(257,107).
att(257,106).
att(257,110).
att(257,109).
att(257,113).
att(257,112).
att(257,116).
att(257,115).
att(257,119).
att(257,118).
att(257,122).
att(257,121).
att(257,125).
att(257,124).
att(257,128).
att(257,127).
att(257,131).
att(257,130).
att(257,134).
att(257,133).
att(257,137).
att(257,136).
att(257,140).
att(257,139).
att(257,143).
att(257,142).
att(257,146).
att(257,145).
att(257,149).
att(257,148).
att(257,152).
att(257,151).
att(257,155).
att(257,154).
att(257,158).
att(257,157).
att(257,161).
att(257,160).
att(257,164).
att(257,163).
att(257,167).
att(257,166).
att(257,170).
att(257,169).
att(257,173).
att(257,172).
att(257,176).
att(257,175).
att(257,179).
att(257,178).
att(257,182).
att(257,181).
att(257,185).
att(257,184).
att(257,188).
att(257,187).
att(257,191).
att(257,190).
att(257,194).
att(257,193).
att(257,197).
att(257,196).
att(257,200).
att(257,199).
att(257,203).
att(257,202).
att(257,206).
att(257,205).
att(257,209).
att(257,208).
att(257,212).
att(257,211).
att(257,215).
att(257,214).
att(257,218).
att(257,217).
att(257,221).
att(257,220).
att(257,224).
att(257,223).
att(257,227).
att(257,226).
att(257,230).
att(257,229).
att(257,233).
att(257,232).
att(257,236).
att(257,235).
att(257,239).
att(257,238).
att(257,242).
att(257,241).
att(257,245).
att(257,244).
att(257,248).
att(257,247).
att(257,251).
att(257,250).
att(257,254).
att(257,253).
att(259,259).
att(261,260).
att(260,259).
att(260,261).
att(260,2).
att(260,1).
att(260,5).
att(260,4).
att(260,8).
att(260,7).
att(260,11).
att(260,10).
att(260,14).
att(260,13).
att(260,17).
att(260,16).
att(260,20).
att(260,19).
att(260,23).
att(260,22).
att(260,26).
att(260,25).
att(260,29).
att(260,28).
att(260,32).
att(260,31).
att(260,35).
att(260,34).
att(260,38).
att(260,37).
att(260,41).
att(260,40).
att(260,44).
att(260,43).
att(260,47).
att(260,46).
att(260,50).
att(260,49).
att(260,53).
att(260,52).
att(260,56).
att(260,55).
att(260,59).
att(260,58).
att(260,62).
att(260,61).
att(260,65).
att(260,64).
att(260,68).
att(260,67).
att(260,71).
att(260,70).
att(260,74).
att(260,73).
att(260,77).
att(260,76).
att(260,80).
att(260,79).
att(260,83).
att(260,82).
att(260,86).
att(260,85).
att(260,89).
att(260,88).
att(260,92).
att(260,91).
att(260,95).
att(260,94).
att(260,98).
att(260,97).
att(260,101).
att(260,100).
att(260,104).
att(260,103).
att(260,107).
att(260,106).
att(260,110).
att(260,109).
att(260,113).
att(260,112).
att(260,116).
att(260,115).
att(260,119).
att(260,118).
att(260,122).
att(260,121).
att(260,125).
att(260,124).
att(260,128).
att(260,127).
att(260,131).
att(260,130).
att(260,134).
att(260,133).
att(260,137).
att(260,136).
att(260,140).
att(260,139).
att(260,143).
att(260,142).
att(260,146).
att(260,145).
att(260,149).
att(260,148).
att(260,152).
att(260,151).
att(260,155).
att(260,154).
att(260,158).
att(260,157).
att(260,161).
att(260,160).
att(260,164).
att(260,163).
att(260,167).
att(260,166).
att(260,170).
att(260,169).
att(260,173).
att(260,172).
att(260,176).
att(260,175).
att(260,179).
att(260,178).
att(260,182).
att(260,181).
att(260,185).
att(260,184).
att(260,188).
att(260,187).
att(260,191).
att(260,190).
att(260,194).
att(260,193).
att(260,197).
att(260,196).
att(260,200).
att(260,199).
att(260,203).
att(260,202).
att(260,206).
att(260,205).
att(260,209).
att(260,208).
att(260,212).
att(260,211).
att(260,215).
att(260,214).
att(260,218).
att(260,217).
att(260,221).
att(260,220).
att(260,224).
att(260,223).
att(260,227).
att(260,226).
att(260,230).
att(260,229).
att(260,233).
att(260,232).
att(260,236).
att(260,235).
att(260,239).
att(260,238).
att(260,242).
att(260,241).
att(260,245).
att(260,244).
att(260,248).
att(260,247).
att(260,251).
att(260,250).
att(260,254).
att(260,253).
att(260,257).
att(260,256).
att(262,262).
att(264,263).
att(263,262).
att(263,264).
att(263,2).
att(263,1).
att(263,5).
att(263,4).
att(263,8).
att(263,7).
att(263,11).
att(263,10).
att(263,14).
att(263,13).
att(263,17).
att(263,16).
att(263,20).
att(263,19).
att(263,23).
att(263,22).
att(263,26).
att(263,25).
att(263,29).
att(263,28).
att(263,32).
att(263,31).
att(263,35).
att(263,34).
att(263,38).
att(263,37).
att(263,41).
att(263,40).
att(263,44).
att(263,43).
att(263,47).
att(263,46).
att(263,50).
att(263,49).
att(263,53).
att(263,52).
att(263,56).
att(263,55).
att(263,59).
att(263,58).
att(263,62).
att(263,61).
att(263,65).
att(263,64).
att(263,68).
att(263,67).
att(263,71).
att(263,70).
att(263,74).
att(263,73).
att(263,77).
att(263,76).
att(263,80).
att(263,79).
att(263,83).
att(263,82).
att(263,86).
att(263,85).
att(263,89).
att(263,88).
att(263,92).
att(263,91).
att(263,95).
att(263,94).
att(263,98).
att(263,97).
att(263,101).
att(263,100).
att(263,104).
att(263,103).
att(263,107).
att(263,106).
att(263,110).
att(263,109).
att(263,113).
att(263,112).
att(263,116).
att(263,115).
att(263,119).
att(263,118).
att(263,122).
att(263,121).
att(263,125).
att(263,124).
att(263,128).
att(263,127).
att(263,131).
att(263,130).
att(263,134).
att(263,133).
att(263,137).
att(263,136).
att(263,140).
att(263,139).
att(263,143).
att(263,142).
att(263,146).
att(263,145).
att(263,149).
att(263,148).
att(263,152).
att(263,151).
att(263,155).
att(263,154).
att(263,158).
att(263,157).
att(263,161).
att(263,160).
att(263,164).
att(263,163).
att(263,167).
att(263,166).
att(263,170).
att(263,169).
att(263,173).
att(263,172).
att(263,176).
att(263,175).
att(263,179).
att(263,178).
att(263,182).
att(263,181).
att(263,185).
att(263,184).
att(263,188).
att(263,187).
att(263,191).
att(263,190).
att(263,194).
att(263,193).
att(263,197).
att(263,196).
att(263,200).
att(263,199).
att(263,203).
att(263,202).
att(263,206).
att(263,205).
att(263,209).
att(263,208).
att(263,212).
att(263,211).
att(263,215).
att(263,214).
att(263,218).
att(263,217).
att(263,221).
att(263,220).
att(263,224).
att(263,223).
att(263,227).
att(263,226).
att(263,230).
att(263,229).
att(263,233).
att(263,232).
att(263,236).
att(263,235).
att(263,239).
att(263,238).
att(263,242).
att(263,241).
att(263,245).
att(263,244).
att(263,248).
att(263,247).
att(263,251).
att(263,250).
att(263,254).
att(263,253).
att(263,257).
att(263,256).
att(263,260).
att(263,259).
att(265,265).
att(267,266).
att(266,265).
att(266,267).
att(266,2).
att(266,1).
att(266,5).
att(266,4).
att(266,8).
att(266,7).
att(266,11).
att(266,10).
att(266,14).
att(266,13).
att(266,17).
att(266,16).
att(266,20).
att(266,19).
att(266,23).
att(266,22).
att(266,26).
att(266,25).
att(266,29).
att(266,28).
att(266,32).
att(266,31).
att(266,35).
att(266,34).
att(266,38).
att(266,37).
att(266,41).
att(266,40).
att(266,44).
att(266,43).
att(266,47).
att(266,46).
att(266,50).
att(266,49).
att(266,53).
att(266,52).
att(266,56).
att(266,55).
att(266,59).
att(266,58).
att(266,62).
att(266,61).
att(266,65).
att(266,64).
att(266,68).
att(266,67).
att(266,71).
att(266,70).
att(266,74).
att(266,73).
att(266,77).
att(266,76).
att(266,80).
att(266,79).
att(266,83).
att(266,82).
att(266,86).
att(266,85).
att(266,89).
att(266,88).
att(266,92).
att(266,91).
att(266,95).
att(266,94).
att(266,98).
att(266,97).
att(266,101).
att(266,100).
att(266,104).
att(266,103).
att(266,107).
att(266,106).
att(266,110).
att(266,109).
att(266,113).
att(266,112).
att(266,116).
att(266,115).
att(266,119).
att(266,118).
att(266,122).
att(266,121).
att(266,125).
att(266,124).
att(266,128).
att(266,127).
att(266,131).
att(266,130).
att(266,134).
att(266,133).
att(266,137).
att(266,136).
att(266,140).
att(266,139).
att(266,143).
att(266,142).
att(266,146).
att(266,145).
att(266,149).
att(266,148).
att(266,152).
att(266,151).
att(266,155).
att(266,154).
att(266,158).
att(266,157).
att(266,161).
att(266,160).
att(266,164).
att(266,163).
att(266,167).
att(266,166).
att(266,170).
att(266,169).
att(266,173).
att(266,172).
att(266,176).
att(266,175).
att(266,179).
att(266,178).
att(266,182).
att(266,181).
att(266,185).
att(266,184).
att(266,188).
att(266,187).
att(266,191).
att(266,190).
att(266,194).
att(266,193).
att(266,197).
att(266,196).
att(266,200).
att(266,199).
att(266,203).
att(266,202).
att(266,206).
att(266,205).
att(266,209).
att(266,208).
att(266,212).
att(266,211).
att(266,215).
att(266,214).
att(266,218).
att(266,217).
att(266,221).
att(266,220).
att(266,224).
att(266,223).
att(266,227).
att(266,226).
att(266,230).
att(266,229).
att(266,233).
att(266,232).
att(266,236).
att(266,235).
att(266,239).
att(266,238).
att(266,242).
att(266,241).
att(266,245).
att(266,244).
att(266,248).
att(266,247).
att(266,251).
att(266,250).
att(266,254).
att(266,253).
att(266,257).
att(266,256).
att(266,260).
att(266,259).
att(266,263).
att(266,262).
att(268,268).
att(270,269).
att(269,268).
att(269,270).
att(269,2).
att(269,1).
att(269,5).
att(269,4).
att(269,8).
att(269,7).
att(269,11).
att(269,10).
att(269,14).
att(269,13).
att(269,17).
att(269,16).
att(269,20).
att(269,19).
att(269,23).
att(269,22).
att(269,26).
att(269,25).
att(269,29).
att(269,28).
att(269,32).
att(269,31).
att(269,35).
att(269,34).
att(269,38).
att(269,37).
att(269,41).
att(269,40).
att(269,44).
att(269,43).
att(269,47).
att(269,46).
att(269,50).
att(269,49).
att(269,53).
att(269,52).
att(269,56).
att(269,55).
att(269,59).
att(269,58).
att(269,62).
att(269,61).
att(269,65).
att(269,64).
att(269,68).
att(269,67).
att(269,71).
att(269,70).
att(269,74).
att(269,73).
att(269,77).
att(269,76).
att(269,80).
att(269,79).
att(269,83).
att(269,82).
att(269,86).
att(269,85).
att(269,89).
att(269,88).
att(269,92).
att(269,91).
att(269,95).
att(269,94).
att(269,98).
att(269,97).
att(269,101).
att(269,100).
att(269,104).
att(269,103).
att(269,107).
att(269,106).
att(269,110).
att(269,109).
att(269,113).
att(269,112).
att(269,116).
att(269,115).
att(269,119).
att(269,118).
att(269,122).
att(269,121).
att(269,125).
att(269,124).
att(269,128).
att(269,127).
att(269,131).
att(269,130).
att(269,134).
att(269,133).
att(269,137).
att(269,136).
att(269,140).
att(269,139).
att(269,143).
att(269,142).
att(269,146).
att(269,145).
att(269,149).
att(269,148).
att(269,152).
att(269,151).
att(269,155).
att(269,154).
att(269,158).
att(269,157).
att(269,161).
att(269,160).
att(269,164).
att(269,163).
att(269,167).
att(269,166).
att(269,170).
att(269,169).
att(269,173).
att(269,172).
att(269,176).
att(269,175).
att(269,179).
att(269,178).
att(269,182).
att(269,181).
att(269,185).
att(269,184).
att(269,188).
att(269,187).
att(269,191).
att(269,190).
att(269,194).
att(269,193).
att(269,197).
att(269,196).
att(269,200).
att(269,199).
att(269,203).
att(269,202).
att(269,206).
att(269,205).
att(269,209).
att(269,208).
att(269,212).
att(269,211).
att(269,215).
att(269,214).
att(269,218).
att(269,217).
att(269,221).
att(269,220).
att(269,224).
att(269,223).
att(269,227).
att(269,226).
att(269,230).
att(269,229).
att(269,233).
att(269,232).
att(269,236).
att(269,235).
att(269,239).
att(269,238).
att(269,242).
att(269,241).
att(269,245).
att(269,244).
att(269,248).
att(269,247).
att(269,251).
att(269,250).
att(269,254).
att(269,253).
att(269,257).
att(269,256).
att(269,260).
att(269,259).
att(269,263).
att(269,262).
att(269,266).
att(269,265).
att(271,271).
att(273,272).
att(272,271).
att(272,273).
att(272,2).
att(272,1).
att(272,5).
att(272,4).
att(272,8).
att(272,7).
att(272,11).
att(272,10).
att(272,14).
att(272,13).
att(272,17).
att(272,16).
att(272,20).
att(272,19).
att(272,23).
att(272,22).
att(272,26).
att(272,25).
att(272,29).
att(272,28).
att(272,32).
att(272,31).
att(272,35).
att(272,34).
att(272,38).
att(272,37).
att(272,41).
att(272,40).
att(272,44).
att(272,43).
att(272,47).
att(272,46).
att(272,50).
att(272,49).
att(272,53).
att(272,52).
att(272,56).
att(272,55).
att(272,59).
att(272,58).
att(272,62).
att(272,61).
att(272,65).
att(272,64).
att(272,68).
att(272,67).
att(272,71).
att(272,70).
att(272,74).
att(272,73).
att(272,77).
att(272,76).
att(272,80).
att(272,79).
att(272,83).
att(272,82).
att(272,86).
att(272,85).
att(272,89).
att(272,88).
att(272,92).
att(272,91).
att(272,95).
att(272,94).
att(272,98).
att(272,97).
att(272,101).
att(272,100).
att(272,104).
att(272,103).
att(272,107).
att(272,106).
att(272,110).
att(272,109).
att(272,113).
att(272,112).
att(272,116).
att(272,115).
att(272,119).
att(272,118).
att(272,122).
att(272,121).
att(272,125).
att(272,124).
att(272,128).
att(272,127).
att(272,131).
att(272,130).
att(272,134).
att(272,133).
att(272,137).
att(272,136).
att(272,140).
att(272,139).
att(272,143).
att(272,142).
att(272,146).
att(272,145).
att(272,149).
att(272,148).
att(272,152).
att(272,151).
att(272,155).
att(272,154).
att(272,158).
att(272,157).
att(272,161).
att(272,160).
att(272,164).
att(272,163).
att(272,167).
att(272,166).
att(272,170).
att(272,169).
att(272,173).
att(272,172).
att(272,176).
att(272,175).
att(272,179).
att(272,178).
att(272,182).
att(272,181).
att(272,185).
att(272,184).
att(272,188).
att(272,187).
att(272,191).
att(272,190).
att(272,194).
att(272,193).
att(272,197).
att(272,196).
att(272,200).
att(272,199).
att(272,203).
att(272,202).
att(272,206).
att(272,205).
att(272,209).
att(272,208).
att(272,212).
att(272,211).
att(272,215).
att(272,214).
att(272,218).
att(272,217).
att(272,221).
att(272,220).
att(272,224).
att(272,223).
att(272,227).
att(272,226).
att(272,230).
att(272,229).
att(272,233).
att(272,232).
att(272,236).
att(272,235).
att(272,239).
att(272,238).
att(272,242).
att(272,241).
att(272,245).
att(272,244).
att(272,248).
att(272,247).
att(272,251).
att(272,250).
att(272,254).
att(272,253).
att(272,257).
att(272,256).
att(272,260).
att(272,259).
att(272,263).
att(272,262).
att(272,266).
att(272,265).
att(272,269).
att(272,268).
att(274,274).
att(276,275).
att(275,274).
att(275,276).
att(275,2).
att(275,1).
att(275,5).
att(275,4).
att(275,8).
att(275,7).
att(275,11).
att(275,10).
att(275,14).
att(275,13).
att(275,17).
att(275,16).
att(275,20).
att(275,19).
att(275,23).
att(275,22).
att(275,26).
att(275,25).
att(275,29).
att(275,28).
att(275,32).
att(275,31).
att(275,35).
att(275,34).
att(275,38).
att(275,37).
att(275,41).
att(275,40).
att(275,44).
att(275,43).
att(275,47).
att(275,46).
att(275,50).
att(275,49).
att(275,53).
att(275,52).
att(275,56).
att(275,55).
att(275,59).
att(275,58).
att(275,62).
att(275,61).
att(275,65).
att(275,64).
att(275,68).
att(275,67).
att(275,71).
att(275,70).
att(275,74).
att(275,73).
att(275,77).
att(275,76).
att(275,80).
att(275,79).
att(275,83).
att(275,82).
att(275,86).
att(275,85).
att(275,89).
att(275,88).
att(275,92).
att(275,91).
att(275,95).
att(275,94).
att(275,98).
att(275,97).
att(275,101).
att(275,100).
att(275,104).
att(275,103).
att(275,107).
att(275,106).
att(275,110).
att(275,109).
att(275,113).
att(275,112).
att(275,116).
att(275,115).
att(275,119).
att(275,118).
att(275,122).
att(275,121).
att(275,125).
att(275,124).
att(275,128).
att(275,127).
att(275,131).
att(275,130).
att(275,134).
att(275,133).
att(275,137).
att(275,136).
att(275,140).
att(275,139).
att(275,143).
att(275,142).
att(275,146).
att(275,145).
att(275,149).
att(275,148).
att(275,152).
att(275,151).
att(275,155).
att(275,154).
att(275,158).
att(275,157).
att(275,161).
att(275,160).
att(275,164).
att(275,163).
att(275,167).
att(275,166).
att(275,170).
att(275,169).
att(275,173).
att(275,172).
att(275,176).
att(275,175).
att(275,179).
att(275,178).
att(275,182).
att(275,181).
att(275,185).
att(275,184).
att(275,188).
att(275,187).
att(275,191).
att(275,190).
att(275,194).
att(275,193).
att(275,197).
att(275,196).
att(275,200).
att(275,199).
att(275,203).
att(275,202).
att(275,206).
att(275,205).
att(275,209).
att(275,208).
att(275,212).
att(275,211).
att(275,215).
att(275,214).
att(275,218).
att(275,217).
att(275,221).
att(275,220).
att(275,224).
att(275,223).
att(275,227).
att(275,226).
att(275,230).
att(275,229).
att(275,233).
att(275,232).
att(275,236).
att(275,235).
att(275,239).
att(275,238).
att(275,242).
att(275,241).
att(275,245).
att(275,244).
att(275,248).
att(275,247).
att(275,251).
att(275,250).
att(275,254).
att(275,253).
att(275,257).
att(275,256).
att(275,260).
att(275,259).
att(275,263).
att(275,262).
att(275,266).
att(275,265).
att(275,269).
att(275,268).
att(275,272).
att(275,271).
att(277,277).
att(279,278).
att(278,277).
att(278,279).
att(278,2).
att(278,1).
att(278,5).
att(278,4).
att(278,8).
att(278,7).
att(278,11).
att(278,10).
att(278,14).
att(278,13).
att(278,17).
att(278,16).
att(278,20).
att(278,19).
att(278,23).
att(278,22).
att(278,26).
att(278,25).
att(278,29).
att(278,28).
att(278,32).
att(278,31).
att(278,35).
att(278,34).
att(278,38).
att(278,37).
att(278,41).
att(278,40).
att(278,44).
att(278,43).
att(278,47).
att(278,46).
att(278,50).
att(278,49).
att(278,53).
att(278,52).
att(278,56).
att(278,55).
att(278,59).
att(278,58).
att(278,62).
att(278,61).
att(278,65).
att(278,64).
att(278,68).
att(278,67).
att(278,71).
att(278,70).
att(278,74).
att(278,73).
att(278,77).
att(278,76).
att(278,80).
att(278,79).
att(278,83).
att(278,82).
att(278,86).
att(278,85).
att(278,89).
att(278,88).
att(278,92).
att(278,91).
att(278,95).
att(278,94).
att(278,98).
att(278,97).
att(278,101).
att(278,100).
att(278,104).
att(278,103).
att(278,107).
att(278,106).
att(278,110).
att(278,109).
att(278,113).
att(278,112).
att(278,116).
att(278,115).
att(278,119).
att(278,118).
att(278,122).
att(278,121).
att(278,125).
att(278,124).
att(278,128).
att(278,127).
att(278,131).
att(278,130).
att(278,134).
att(278,133).
att(278,137).
att(278,136).
att(278,140).
att(278,139).
att(278,143).
att(278,142).
att(278,146).
att(278,145).
att(278,149).
att(278,148).
att(278,152).
att(278,151).
att(278,155).
att(278,154).
att(278,158).
att(278,157).
att(278,161).
att(278,160).
att(278,164).
att(278,163).
att(278,167).
att(278,166).
att(278,170).
att(278,169).
att(278,173).
att(278,172).
att(278,176).
att(278,175).
att(278,179).
att(278,178).
att(278,182).
att(278,181).
att(278,185).
att(278,184).
att(278,188).
att(278,187).
att(278,191).
att(278,190).
att(278,194).
att(278,193).
att(278,197).
att(278,196).
att(278,200).
att(278,199).
att(278,203).
att(278,202).
att(278,206).
att(278,205).
att(278,209).
att(278,208).
att(278,212).
att(278,211).
att(278,215).
att(278,214).
att(278,218).
att(278,217).
att(278,221).
att(278,220).
att(278,224).
att(278,223).
att(278,227).
att(278,226).
att(278,230).
att(278,229).
att(278,233).
att(278,232).
att(278,236).
att(278,235).
att(278,239).
att(278,238).
att(278,242).
att(278,241).
att(278,245).
att(278,244).
att(278,248).
att(278,247).
att(278,251).
att(278,250).
att(278,254).
att(278,253).
att(278,257).
att(278,256).
att(278,260).
att(278,259).
att(278,263).
att(278,262).
att(278,266).
att(278,265).
att(278,269).
att(278,268).
att(278,272).
att(278,271).
att(278,275).
att(278,274).
att(280,280).
att(282,281).
att(281,280).
att(281,282).
att(281,2).
att(281,1).
att(281,5).
att(281,4).
att(281,8).
att(281,7).
att(281,11).
att(281,10).
att(281,14).
att(281,13).
att(281,17).
att(281,16).
att(281,20).
att(281,19).
att(281,23).
att(281,22).
att(281,26).
att(281,25).
att(281,29).
att(281,28).
att(281,32).
att(281,31).
att(281,35).
att(281,34).
att(281,38).
att(281,37).
att(281,41).
att(281,40).
att(281,44).
att(281,43).
att(281,47).
att(281,46).
att(281,50).
att(281,49).
att(281,53).
att(281,52).
att(281,56).
att(281,55).
att(281,59).
att(281,58).
att(281,62).
att(281,61).
att(281,65).
att(281,64).
att(281,68).
att(281,67).
att(281,71).
att(281,70).
att(281,74).
att(281,73).
att(281,77).
att(281,76).
att(281,80).
att(281,79).
att(281,83).
att(281,82).
att(281,86).
att(281,85).
att(281,89).
att(281,88).
att(281,92).
att(281,91).
att(281,95).
att(281,94).
att(281,98).
att(281,97).
att(281,101).
att(281,100).
att(281,104).
att(281,103).
att(281,107).
att(281,106).
att(281,110).
att(281,109).
att(281,113).
att(281,112).
att(281,116).
att(281,115).
att(281,119).
att(281,118).
att(281,122).
att(281,121).
att(281,125).
att(281,124).
att(281,128).
att(281,127).
att(281,131).
att(281,130).
att(281,134).
att(281,133).
att(281,137).
att(281,136).
att(281,140).
att(281,139).
att(281,143).
att(281,142).
att(281,146).
att(281,145).
att(281,149).
att(281,148).
att(281,152).
att(281,151).
att(281,155).
att(281,154).
att(281,158).
att(281,157).
att(281,161).
att(281,160).
att(281,164).
att(281,163).
att(281,167).
att(281,166).
att(281,170).
att(281,169).
att(281,173).
att(281,172).
att(281,176).
att(281,175).
att(281,179).
att(281,178).
att(281,182).
att(281,181).
att(281,185).
att(281,184).
att(281,188).
att(281,187).
att(281,191).
att(281,190).
att(281,194).
att(281,193).
att(281,197).
att(281,196).
att(281,200).
att(281,199).
att(281,203).
att(281,202).
att(281,206).
att(281,205).
att(281,209).
att(281,208).
att(281,212).
att(281,211).
att(281,215).
att(281,214).
att(281,218).
att(281,217).
att(281,221).
att(281,220).
att(281,224).
att(281,223).
att(281,227).
att(281,226).
att(281,230).
att(281,229).
att(281,233).
att(281,232).
att(281,236).
att(281,235).
att(281,239).
att(281,238).
att(281,242).
att(281,241).
att(281,245).
att(281,244).
att(281,248).
att(281,247).
att(281,251).
att(281,250).
att(281,254).
att(281,253).
att(281,257).
att(281,256).
att(281,260).
att(281,259).
att(281,263).
att(281,262).
att(281,266).
att(281,265).
att(281,269).
att(281,268).
att(281,272).
att(281,271).
att(281,275).
att(281,274).
att(281,278).
att(281,277).
att(283,283).
att(285,284).
att(284,283).
att(284,285).
att(284,2).
att(284,1).
att(284,5).
att(284,4).
att(284,8).
att(284,7).
att(284,11).
att(284,10).
att(284,14).
att(284,13).
att(284,17).
att(284,16).
att(284,20).
att(284,19).
att(284,23).
att(284,22).
att(284,26).
att(284,25).
att(284,29).
att(284,28).
att(284,32).
att(284,31).
att(284,35).
att(284,34).
att(284,38).
att(284,37).
att(284,41).
att(284,40).
att(284,44).
att(284,43).
att(284,47).
att(284,46).
att(284,50).
att(284,49).
att(284,53).
att(284,52).
att(284,56).
att(284,55).
att(284,59).
att(284,58).
att(284,62).
att(284,61).
att(284,65).
att(284,64).
att(284,68).
att(284,67).
att(284,71).
att(284,70).
att(284,74).
att(284,73).
att(284,77).
att(284,76).
att(284,80).
att(284,79).
att(284,83).
att(284,82).
att(284,86).
att(284,85).
att(284,89).
att(284,88).
att(284,92).
att(284,91).
att(284,95).
att(284,94).
att(284,98).
att(284,97).
att(284,101).
att(284,100).
att(284,104).
att(284,103).
att(284,107).
att(284,106).
att(284,110).
att(284,109).
att(284,113).
att(284,112).
att(284,116).
att(284,115).
att(284,119).
att(284,118).
att(284,122).
att(284,121).
att(284,125).
att(284,124).
att(284,128).
att(284,127).
att(284,131).
att(284,130).
att(284,134).
att(284,133).
att(284,137).
att(284,136).
att(284,140).
att(284,139).
att(284,143).
att(284,142).
att(284,146).
att(284,145).
att(284,149).
att(284,148).
att(284,152).
att(284,151).
att(284,155).
att(284,154).
att(284,158).
att(284,157).
att(284,161).
att(284,160).
att(284,164).
att(284,163).
att(284,167).
att(284,166).
att(284,170).
att(284,169).
att(284,173).
att(284,172).
att(284,176).
att(284,175).
att(284,179).
att(284,178).
att(284,182).
att(284,181).
att(284,185).
att(284,184).
att(284,188).
att(284,187).
att(284,191).
att(284,190).
att(284,194).
att(284,193).
att(284,197).
att(284,196).
att(284,200).
att(284,199).
att(284,203).
att(284,202).
att(284,206).
att(284,205).
att(284,209).
att(284,208).
att(284,212).
att(284,211).
att(284,215).
att(284,214).
att(284,218).
att(284,217).
att(284,221).
att(284,220).
att(284,224).
att(284,223).
att(284,227).
att(284,226).
att(284,230).
att(284,229).
att(284,233).
att(284,232).
att(284,236).
att(284,235).
att(284,239).
att(284,238).
att(284,242).
att(284,241).
att(284,245).
att(284,244).
att(284,248).
att(284,247).
att(284,251).
att(284,250).
att(284,254).
att(284,253).
att(284,257).
att(284,256).
att(284,260).
att(284,259).
att(284,263).
att(284,262).
att(284,266).
att(284,265).
att(284,269).
att(284,268).
att(284,272).
att(284,271).
att(284,275).
att(284,274).
att(284,278).
att(284,277).
att(284,281).
att(284,280).
att(286,286).
att(288,287).
att(287,286).
att(287,288).
att(287,2).
att(287,1).
att(287,5).
att(287,4).
att(287,8).
att(287,7).
att(287,11).
att(287,10).
att(287,14).
att(287,13).
att(287,17).
att(287,16).
att(287,20).
att(287,19).
att(287,23).
att(287,22).
att(287,26).
att(287,25).
att(287,29).
att(287,28).
att(287,32).
att(287,31).
att(287,35).
att(287,34).
att(287,38).
att(287,37).
att(287,41).
att(287,40).
att(287,44).
att(287,43).
att(287,47).
att(287,46).
att(287,50).
att(287,49).
att(287,53).
att(287,52).
att(287,56).
att(287,55).
att(287,59).
att(287,58).
att(287,62).
att(287,61).
att(287,65).
att(287,64).
att(287,68).
att(287,67).
att(287,71).
att(287,70).
att(287,74).
att(287,73).
att(287,77).
att(287,76).
att(287,80).
att(287,79).
att(287,83).
att(287,82).
att(287,86).
att(287,85).
att(287,89).
att(287,88).
att(287,92).
att(287,91).
att(287,95).
att(287,94).
att(287,98).
att(287,97).
att(287,101).
att(287,100).
att(287,104).
att(287,103).
att(287,107).
att(287,106).
att(287,110).
att(287,109).
att(287,113).
att(287,112).
att(287,116).
att(287,115).
att(287,119).
att(287,118).
att(287,122).
att(287,121).
att(287,125).
att(287,124).
att(287,128).
att(287,127).
att(287,131).
att(287,130).
att(287,134).
att(287,133).
att(287,137).
att(287,136).
att(287,140).
att(287,139).
att(287,143).
att(287,142).
att(287,146).
att(287,145).
att(287,149).
att(287,148).
att(287,152).
att(287,151).
att(287,155).
att(287,154).
att(287,158).
att(287,157).
att(287,161).
att(287,160).
att(287,164).
att(287,163).
att(287,167).
att(287,166).
att(287,170).
att(287,169).
att(287,173).
att(287,172).
att(287,176).
att(287,175).
att(287,179).
att(287,178).
att(287,182).
att(287,181).
att(287,185).
att(287,184).
att(287,188).
att(287,187).
att(287,191).
att(287,190).
att(287,194).
att(287,193).
att(287,197).
att(287,196).
att(287,200).
att(287,199).
att(287,203).
att(287,202).
att(287,206).
att(287,205).
att(287,209).
att(287,208).
att(287,212).
att(287,211).
att(287,215).
att(287,214).
att(287,218).
att(287,217).
att(287,221).
att(287,220).
att(287,224).
att(287,223).
att(287,227).
att(287,226).
att(287,230).
att(287,229).
att(287,233).
att(287,232).
att(287,236).
att(287,235).
att(287,239).
att(287,238).
att(287,242).
att(287,241).
att(287,245).
att(287,244).
att(287,248).
att(287,247).
att(287,251).
att(287,250).
att(287,254).
att(287,253).
att(287,257).
att(287,256).
att(287,260).
att(287,259).
att(287,263).
att(287,262).
att(287,266).
att(287,265).
att(287,269).
att(287,268).
att(287,272).
att(287,271).
att(287,275).
att(287,274).
att(287,278).
att(287,277).
att(287,281).
att(287,280).
att(287,284).
att(287,283).
att(289,289).
att(291,290).
att(290,289).
att(290,291).
att(290,2).
att(290,1).
att(290,5).
att(290,4).
att(290,8).
att(290,7).
att(290,11).
att(290,10).
att(290,14).
att(290,13).
att(290,17).
att(290,16).
att(290,20).
att(290,19).
att(290,23).
att(290,22).
att(290,26).
att(290,25).
att(290,29).
att(290,28).
att(290,32).
att(290,31).
att(290,35).
att(290,34).
att(290,38).
att(290,37).
att(290,41).
att(290,40).
att(290,44).
att(290,43).
att(290,47).
att(290,46).
att(290,50).
att(290,49).
att(290,53).
att(290,52).
att(290,56).
att(290,55).
att(290,59).
att(290,58).
att(290,62).
att(290,61).
att(290,65).
att(290,64).
att(290,68).
att(290,67).
att(290,71).
att(290,70).
att(290,74).
att(290,73).
att(290,77).
att(290,76).
att(290,80).
att(290,79).
att(290,83).
att(290,82).
att(290,86).
att(290,85).
att(290,89).
att(290,88).
att(290,92).
att(290,91).
att(290,95).
att(290,94).
att(290,98).
att(290,97).
att(290,101).
att(290,100).
att(290,104).
att(290,103).
att(290,107).
att(290,106).
att(290,110).
att(290,109).
att(290,113).
att(290,112).
att(290,116).
att(290,115).
att(290,119).
att(290,118).
att(290,122).
att(290,121).
att(290,125).
att(290,124).
att(290,128).
att(290,127).
att(290,131).
att(290,130).
att(290,134).
att(290,133).
att(290,137).
att(290,136).
att(290,140).
att(290,139).
att(290,143).
att(290,142).
att(290,146).
att(290,145).
att(290,149).
att(290,148).
att(290,152).
att(290,151).
att(290,155).
att(290,154).
att(290,158).
att(290,157).
att(290,161).
att(290,160).
att(290,164).
att(290,163).
att(290,167).
att(290,166).
att(290,170).
att(290,169).
att(290,173).
att(290,172).
att(290,176).
att(290,175).
att(290,179).
att(290,178).
att(290,182).
att(290,181).
att(290,185).
att(290,184).
att(290,188).
att(290,187).
att(290,191).
att(290,190).
att(290,194).
att(290,193).
att(290,197).
att(290,196).
att(290,200).
att(290,199).
att(290,203).
att(290,202).
att(290,206).
att(290,205).
att(290,209).
att(290,208).
att(290,212).
att(290,211).
att(290,215).
att(290,214).
att(290,218).
att(290,217).
att(290,221).
att(290,220).
att(290,224).
att(290,223).
att(290,227).
att(290,226).
att(290,230).
att(290,229).
att(290,233).
att(290,232).
att(290,236).
att(290,235).
att(290,239).
att(290,238).
att(290,242).
att(290,241).
att(290,245).
att(290,244).
att(290,248).
att(290,247).
att(290,251).
att(290,250).
att(290,254).
att(290,253).
att(290,257).
att(290,256).
att(290,260).
att(290,259).
att(290,263).
att(290,262).
att(290,266).
att(290,265).
att(290,269).
att(290,268).
att(290,272).
att(290,271).
att(290,275).
att(290,274).
att(290,278).
att(290,277).
att(290,281).
att(290,280).
att(290,284).
att(290,283).
att(290,287).
att(290,286).
att(292,292).
att(294,293).
att(293,292).
att(293,294).
att(293,2).
att(293,1).
att(293,5).
att(293,4).
att(293,8).
att(293,7).
att(293,11).
att(293,10).
att(293,14).
att(293,13).
att(293,17).
att(293,16).
att(293,20).
att(293,19).
att(293,23).
att(293,22).
att(293,26).
att(293,25).
att(293,29).
att(293,28).
att(293,32).
att(293,31).
att(293,35).
att(293,34).
att(293,38).
att(293,37).
att(293,41).
att(293,40).
att(293,44).
att(293,43).
att(293,47).
att(293,46).
att(293,50).
att(293,49).
att(293,53).
att(293,52).
att(293,56).
att(293,55).
att(293,59).
att(293,58).
att(293,62).
att(293,61).
att(293,65).
att(293,64).
att(293,68).
att(293,67).
att(293,71).
att(293,70).
att(293,74).
att(293,73).
att(293,77).
att(293,76).
att(293,80).
att(293,79).
att(293,83).
att(293,82).
att(293,86).
att(293,85).
att(293,89).
att(293,88).
att(293,92).
att(293,91).
att(293,95).
att(293,94).
att(293,98).
att(293,97).
att(293,101).
att(293,100).
att(293,104).
att(293,103).
att(293,107).
att(293,106).
att(293,110).
att(293,109).
att(293,113).
att(293,112).
att(293,116).
att(293,115).
att(293,119).
att(293,118).
att(293,122).
att(293,121).
att(293,125).
att(293,124).
att(293,128).
att(293,127).
att(293,131).
att(293,130).
att(293,134).
att(293,133).
att(293,137).
att(293,136).
att(293,140).
att(293,139).
att(293,143).
att(293,142).
att(293,146).
att(293,145).
att(293,149).
att(293,148).
att(293,152).
att(293,151).
att(293,155).
att(293,154).
att(293,158).
att(293,157).
att(293,161).
att(293,160).
att(293,164).
att(293,163).
att(293,167).
att(293,166).
att(293,170).
att(293,169).
att(293,173).
att(293,172).
att(293,176).
att(293,175).
att(293,179).
att(293,178).
att(293,182).
att(293,181).
att(293,185).
att(293,184).
att(293,188).
att(293,187).
att(293,191).
att(293,190).
att(293,194).
att(293,193).
att(293,197).
att(293,196).
att(293,200).
att(293,199).
att(293,203).
att(293,202).
att(293,206).
att(293,205).
att(293,209).
att(293,208).
att(293,212).
att(293,211).
att(293,215).
att(293,214).
att(293,218).
att(293,217).
att(293,221).
att(293,220).
att(293,224).
att(293,223).
att(293,227).
att(293,226).
att(293,230).
att(293,229).
att(293,233).
att(293,232).
att(293,236).
att(293,235).
att(293,239).
att(293,238).
att(293,242).
att(293,241).
att(293,245).
att(293,244).
att(293,248).
att(293,247).
att(293,251).
att(293,250).
att(293,254).
att(293,253).
att(293,257).
att(293,256).
att(293,260).
att(293,259).
att(293,263).
att(293,262).
att(293,266).
att(293,265).
att(293,269).
att(293,268).
att(293,272).
att(293,271).
att(293,275).
att(293,274).
att(293,278).
att(293,277).
att(293,281).
att(293,280).
att(293,284).
att(293,283).
att(293,287).
att(293,286).
att(293,290).
att(293,289).
att(295,295).
att(297,296).
att(296,295).
att(296,297).
att(296,2).
att(296,1).
att(296,5).
att(296,4).
att(296,8).
att(296,7).
att(296,11).
att(296,10).
att(296,14).
att(296,13).
att(296,17).
att(296,16).
att(296,20).
att(296,19).
att(296,23).
att(296,22).
att(296,26).
att(296,25).
att(296,29).
att(296,28).
att(296,32).
att(296,31).
att(296,35).
att(296,34).
att(296,38).
att(296,37).
att(296,41).
att(296,40).
att(296,44).
att(296,43).
att(296,47).
att(296,46).
att(296,50).
att(296,49).
att(296,53).
att(296,52).
att(296,56).
att(296,55).
att(296,59).
att(296,58).
att(296,62).
att(296,61).
att(296,65).
att(296,64).
att(296,68).
att(296,67).
att(296,71).
att(296,70).
att(296,74).
att(296,73).
att(296,77).
att(296,76).
att(296,80).
att(296,79).
att(296,83).
att(296,82).
att(296,86).
att(296,85).
att(296,89).
att(296,88).
att(296,92).
att(296,91).
att(296,95).
att(296,94).
att(296,98).
att(296,97).
att(296,101).
att(296,100).
att(296,104).
att(296,103).
att(296,107).
att(296,106).
att(296,110).
att(296,109).
att(296,113).
att(296,112).
att(296,116).
att(296,115).
att(296,119).
att(296,118).
att(296,122).
att(296,121).
att(296,125).
att(296,124).
att(296,128).
att(296,127).
att(296,131).
att(296,130).
att(296,134).
att(296,133).
att(296,137).
att(296,136).
att(296,140).
att(296,139).
att(296,143).
att(296,142).
att(296,146).
att(296,145).
att(296,149).
att(296,148).
att(296,152).
att(296,151).
att(296,155).
att(296,154).
att(296,158).
att(296,157).
att(296,161).
att(296,160).
att(296,164).
att(296,163).
att(296,167).
att(296,166).
att(296,170).
att(296,169).
att(296,173).
att(296,172).
att(296,176).
att(296,175).
att(296,179).
att(296,178).
att(296,182).
att(296,181).
att(296,185).
att(296,184).
att(296,188).
att(296,187).
att(296,191).
att(296,190).
att(296,194).
att(296,193).
att(296,197).
att(296,196).
att(296,200).
att(296,199).
att(296,203).
att(296,202).
att(296,206).
att(296,205).
att(296,209).
att(296,208).
att(296,212).
att(296,211).
att(296,215).
att(296,214).
att(296,218).
att(296,217).
att(296,221).
att(296,220).
att(296,224).
att(296,223).
att(296,227).
att(296,226).
att(296,230).
att(296,229).
att(296,233).
att(296,232).
att(296,236).
att(296,235).
att(296,239).
att(296,238).
att(296,242).
att(296,241).
att(296,245).
att(296,244).
att(296,248).
att(296,247).
att(296,251).
att(296,250).
att(296,254).
att(296,253).
att(296,257).
att(296,256).
att(296,260).
att(296,259).
att(296,263).
att(296,262).
att(296,266).
att(296,265).
att(296,269).
att(296,268).
att(296,272).
att(296,271).
att(296,275).
att(296,274).
att(296,278).
att(296,277).
att(296,281).
att(296,280).
att(296,284).
att(296,283).
att(296,287).
att(296,286).
att(296,290).
att(296,289).
att(296,293).
att(296,292).
att(298,298).
att(300,299).
att(299,298).
att(299,300).
att(299,2).
att(299,1).
att(299,5).
att(299,4).
att(299,8).
att(299,7).
att(299,11).
att(299,10).
att(299,14).
att(299,13).
att(299,17).
att(299,16).
att(299,20).
att(299,19).
att(299,23).
att(299,22).
att(299,26).
att(299,25).
att(299,29).
att(299,28).
att(299,32).
att(299,31).
att(299,35).
att(299,34).
att(299,38).
att(299,37).
att(299,41).
att(299,40).
att(299,44).
att(299,43).
att(299,47).
att(299,46).
att(299,50).
att(299,49).
att(299,53).
att(299,52).
att(299,56).
att(299,55).
att(299,59).
att(299,58).
att(299,62).
att(299,61).
att(299,65).
att(299,64).
att(299,68).
att(299,67).
att(299,71).
att(299,70).
att(299,74).
att(299,73).
att(299,77).
att(299,76).
att(299,80).
att(299,79).
att(299,83).
att(299,82).
att(299,86).
att(299,85).
att(299,89).
att(299,88).
att(299,92).
att(299,91).
att(299,95).
att(299,94).
att(299,98).
att(299,97).
att(299,101).
att(299,100).
att(299,104).
att(299,103).
att(299,107).
att(299,106).
att(299,110).
att(299,109).
att(299,113).
att(299,112).
att(299,116).
att(299,115).
att(299,119).
att(299,118).
att(299,122).
att(299,121).
att(299,125).
att(299,124).
att(299,128).
att(299,127).
att(299,131).
att(299,130).
att(299,134).
att(299,133).
att(299,137).
att(299,136).
att(299,140).
att(299,139).
att(299,143).
att(299,142).
att(299,146).
att(299,145).
att(299,149).
att(299,148).
att(299,152).
att(299,151).
att(299,155).
att(299,154).
att(299,158).
att(299,157).
att(299,161).
att(299,160).
att(299,164).
att(299,163).
att(299,167).
att(299,166).
att(299,170).
att(299,169).
att(299,173).
att(299,172).
att(299,176).
att(299,175).
att(299,179).
att(299,178).
att(299,182).
att(299,181).
att(299,185).
att(299,184).
att(299,188).
att(299,187).
att(299,191).
att(299,190).
att(299,194).
att(299,193).
att(299,197).
att(299,196).
att(299,200).
att(299,199).
att(299,203).
att(299,202).
att(299,206).
att(299,205).
att(299,209).
att(299,208).
att(299,212).
att(299,211).
att(299,215).
att(299,214).
att(299,218).
att(299,217).
att(299,221).
att(299,220).
att(299,224).
att(299,223).
att(299,227).
att(299,226).
att(299,230).
att(299,229).
att(299,233).
att(299,232).
att(299,236).
att(299,235).
att(299,239).
att(299,238).
att(299,242).
att(299,241).
att(299,245).
att(299,244).
att(299,248).
att(299,247).
att(299,251).
att(299,250).
att(299,254).
att(299,253).
att(299,257).
att(299,256).
att(299,260).
att(299,259).
att(299,263).
att(299,262).
att(299,266).
att(299,265).
att(299,269).
att(299,268).
att(299,272).
att(299,271).
att(299,275).
att(299,274).
att(299,278).
att(299,277).
att(299,281).
att(299,280).
att(299,284).
att(299,283).
att(299,287).
att(299,286).
att(299,290).
att(299,289).
att(299,293).
att(299,292).
att(299,296).
att(299,295).
