arg(1..890).
att(412,659).
att(811,638).
att(391,859).
att(412,655).
att(824,570).
att(391,848).
att(817,554).
att(227,814).
att(818,627).
att(465,332).
att(394,846).
att(464,348).
att(468,381).
att(800,492).
att(227,821).
att(794,491).
att(467,371).
att(737,36).
att(239,795).
att(239,791).
att(394,804).
att(410,657).
att(401,730).
att(225,805).
att(391,849).
att(408,649).
att(737,32).
att(739,45).
att(737,40).
att(413,667).
att(726,14).
att(383,842).
att(391,804).
att(158,883).
att(162,883).
att(467,356).
att(826,586).
att(162,881).
att(394,800).
att(229,755).
att(235,819).
att(389,844).
att(160,883).
att(465,371).
att(223,745).
att(463,362).
att(152,881).
att(231,757).
att(237,819).
att(162,890).
att(380,848).
att(401,647).
att(732,11).
att(154,883).
att(723,50).
att(403,644).
att(160,862).
att(233,751).
att(820,544).
att(644,140).
att(645,122).
att(413,706).
att(468,414).
att(224,712).
att(820,546).
att(472,252).
att(728,21).
att(471,243).
att(479,208).
att(826,538).
att(728,27).
att(229,785).
att(398,756).
att(467,395).
att(167,882).
att(398,744).
att(412,703).
att(464,386).
att(651,119).
att(408,713).
att(730,21).
att(239,745).
att(651,130).
att(162,870).
att(169,881).
att(461,402).
att(735,15).
att(728,22).
att(413,719).
att(644,123).
att(725,30).
att(830,528).
att(413,713).
att(156,890).
att(413,693).
att(478,208).
att(468,347).
att(644,63).
att(655,101).
att(817,545).
att(165,868).
att(830,502).
att(158,873).
att(154,838).
att(723,30).
att(398,772).
att(167,869).
att(728,7).
att(227,698).
att(649,148).
att(235,771).
att(404,719).
att(415,733).
att(398,762).
att(644,65).
att(820,501).
att(152,874).
att(403,703).
att(735,24).
att(828,549).
att(152,871).
att(659,101).
att(410,728).
att(728,20).
att(231,712).
att(224,709).
att(233,745).
att(659,116).
att(815,524).
att(154,876).
att(730,3).
att(732,9).
att(735,123).
att(229,871).
att(398,799).
att(227,879).
att(421,598).
att(426,599).
att(412,754).
att(480,259).
att(804,550).
att(224,840).
att(476,313).
att(695,25).
att(480,253).
att(693,23).
att(703,1).
att(252,484).
att(425,608).
att(794,540).
att(206,718).
att(237,864).
att(710,21).
att(710,28).
att(415,746).
att(239,870).
att(250,483).
att(796,540).
att(737,116).
att(713,28).
att(250,484).
att(200,788).
att(810,544).
att(726,127).
att(224,872).
att(799,584).
att(421,615).
att(423,595).
att(209,698).
att(225,862).
att(732,144).
att(398,811).
att(464,437).
att(733,144).
att(804,510).
att(235,874).
att(472,313).
att(476,257).
att(800,543).
att(412,786).
att(726,76).
att(733,150).
att(726,72).
att(477,277).
att(800,550).
att(398,820).
att(828,684).
att(417,618).
att(398,828).
att(826,677).
att(257,485).
att(470,395).
att(219,715).
att(216,697).
att(794,545).
att(225,875).
att(463,441).
att(737,142).
att(828,690).
att(713,6).
att(465,447).
att(739,134).
att(219,697).
att(465,446).
att(474,252).
att(810,503).
att(219,707).
att(243,490).
att(474,250).
att(810,510).
att(223,840).
att(469,397).
att(223,839).
att(469,395).
att(219,699).
att(466,399).
att(716,7).
att(227,853).
att(733,74).
att(412,806).
att(233,840).
att(412,804).
att(472,343).
att(224,809).
att(426,657).
att(235,835).
att(476,356).
att(231,845).
att(237,837).
att(826,610).
att(231,841).
att(331,117).
att(479,302).
att(728,98).
att(479,307).
att(826,617).
att(474,373).
att(739,77).
att(830,614).
att(428,678).
att(478,309).
att(417,651).
att(475,302).
att(406,842).
att(725,100).
att(223,856).
att(406,849).
att(408,810).
att(817,664).
att(412,820).
att(227,809).
att(224,821).
att(820,552).
att(233,860).
att(725,56).
att(798,496).
att(723,84).
att(412,813).
att(824,634).
att(417,645).
att(417,659).
att(237,847).
att(792,515).
att(417,655).
att(237,843).
att(417,653).
att(425,669).
att(479,317).
att(476,302).
att(479,327).
att(728,47).
att(811,604).
att(472,373).
att(423,672).
att(737,86).
att(423,688).
att(417,665).
att(428,618).
att(237,858).
att(421,675).
att(480,315).
att(477,319).
att(726,99).
att(245,490).
att(810,495).
att(413,824).
att(427,608).
att(739,98).
att(413,817).
att(233,835).
att(808,498).
att(181,882).
att(339,177).
att(479,347).
att(333,160).
att(425,695).
att(176,865).
att(154,774).
att(175,862).
att(659,12).
att(748,538).
att(426,716).
att(659,11).
att(158,743).
att(156,747).
att(340,177).
att(155,770).
att(475,422).
att(425,703).
att(653,56).
att(158,752).
att(160,753).
att(425,719).
att(160,743).
att(176,868).
att(333,152).
att(651,18).
att(744,560).
att(649,10).
att(760,587).
att(171,882).
att(477,332).
att(167,821).
att(417,708).
att(428,737).
att(647,11).
att(154,753).
att(748,588).
att(152,747).
att(746,570).
att(335,181).
att(644,5).
att(187,889).
att(175,873).
att(667,140).
att(672,125).
att(476,338).
att(667,138).
att(154,715).
att(335,102).
att(430,647).
att(173,879).
att(425,725).
att(428,723).
att(155,705).
att(750,543).
att(331,177).
att(471,405).
att(675,125).
att(644,8).
att(645,23).
att(644,6).
att(645,21).
att(649,28).
att(198,489).
att(758,539).
att(179,881).
att(760,528).
att(430,653).
att(413,848).
att(473,334).
att(651,26).
att(181,872).
att(431,595).
att(158,715).
att(425,744).
att(340,223).
att(175,832).
att(746,542).
att(748,508).
att(432,618).
att(433,597).
att(342,239).
att(158,698).
att(428,744).
att(176,833).
att(331,200).
att(433,608).
att(165,788).
att(428,741).
att(775,677).
att(777,664).
att(162,705).
att(189,870).
att(657,25).
att(478,402).
att(688,101).
att(647,20).
att(756,545).
att(421,750).
att(480,388).
att(152,702).
att(657,23).
att(421,756).
att(471,444).
att(472,443).
att(672,70).
att(426,775).
att(429,713).
att(472,448).
att(345,173).
att(780,684).
att(173,856).
att(476,384).
att(167,712).
att(471,443).
att(176,845).
att(475,399).
att(181,834).
att(672,74).
att(471,446).
att(169,712).
att(478,424).
att(428,706).
att(685,142).
att(756,501).
att(786,674).
att(183,834).
att(340,167).
att(426,764).
att(473,400).
att(173,832).
att(744,542).
att(165,878).
att(235,709).
att(331,254).
att(331,244).
att(820,516).
att(433,655).
att(756,661).
att(340,278).
att(429,824).
att(653,150).
att(429,817).
att(754,687).
att(158,833).
att(434,678).
att(817,510).
att(733,4).
att(655,144).
att(160,840).
att(235,705).
att(417,857).
att(436,672).
att(160,838).
att(342,283).
att(655,138).
att(758,661).
att(433,647).
att(165,879).
att(239,715).
att(737,6).
att(282,486).
att(435,669).
att(421,800).
att(423,808).
att(649,67).
att(282,488).
att(333,244).
att(429,811).
att(434,669).
att(340,280).
att(739,9).
att(156,874).
att(651,65).
att(430,813).
att(279,487).
att(165,833).
att(820,496).
att(426,820).
att(431,678).
att(479,439).
att(419,796).
att(649,94).
att(167,837).
att(436,608).
att(647,90).
att(756,607).
att(433,665).
att(339,196).
att(155,801).
att(425,826).
att(653,63).
att(741,671).
att(477,439).
att(659,77).
att(758,604).
att(758,601).
att(156,840).
att(429,741).
att(158,835).
att(345,227).
att(154,841).
att(426,818).
att(152,858).
att(342,312).
att(741,620).
att(433,716).
att(155,816).
att(653,94).
att(750,568).
att(754,627).
att(818,519).
att(333,308).
att(340,318).
att(434,732).
att(442,735).
att(436,732).
att(647,42).
att(352,181).
att(644,51).
att(433,706).
att(160,795).
att(364,114).
att(435,739).
att(169,845).
att(435,735).
att(361,111).
att(167,860).
att(352,108).
att(432,730).
att(813,519).
att(342,251).
att(742,604).
att(154,803).
att(365,128).
att(815,512).
att(358,106).
att(154,795).
att(429,850).
att(748,636).
att(815,517).
att(643,50).
att(830,499).
att(657,90).
att(154,751).
att(165,795).
att(754,560).
att(175,883).
att(653,43).
att(431,730).
att(748,584).
att(426,857).
att(434,643).
att(340,247).
att(748,580).
att(741,623).
att(155,749).
att(176,883).
att(750,573).
att(355,108).
att(432,723).
att(756,570).
att(277,485).
att(331,328).
att(331,326).
att(653,36).
att(162,822).
att(744,629).
att(345,263).
att(744,640).
att(341,289).
att(423,859).
att(427,798).
att(657,43).
att(744,621).
att(742,629).
att(643,60).
att(152,822).
att(445,685).
att(746,629).
att(426,842).
att(434,655).
att(156,793).
att(345,283).
att(426,849).
att(421,848).
att(179,317).
att(857,612).
att(173,252).
att(110,444).
att(175,243).
att(355,227).
att(842,684).
att(842,681).
att(179,323).
att(433,746).
att(433,744).
att(772,94).
att(273,843).
att(187,305).
att(846,661).
att(741,7).
att(762,150).
att(181,329).
att(241,709).
att(844,681).
att(175,246).
att(780,65).
att(276,845).
att(783,77).
att(442,708).
att(265,876).
att(442,700).
att(741,3).
att(337,382).
att(176,259).
att(278,847).
att(741,1).
att(339,354).
att(370,183).
att(177,307).
att(244,702).
att(340,376).
att(438,762).
att(265,880).
att(177,294).
att(431,742).
att(340,357).
att(366,171).
att(857,634).
att(117,437).
att(108,388).
att(842,592).
att(177,250).
att(331,369).
att(106,402).
att(173,285).
att(434,708).
att(783,84).
att(175,267).
att(341,291).
att(859,621).
att(175,275).
att(331,382).
att(364,183).
att(775,49).
att(857,640).
att(780,86).
att(173,268).
att(352,165).
att(265,833).
att(434,693).
att(183,248).
att(361,171).
att(263,840).
att(368,110).
att(103,437).
att(777,38).
att(263,837).
att(341,326).
att(777,36).
att(103,446).
att(337,308).
att(434,706).
att(108,444).
att(855,591).
att(852,664).
att(189,319).
att(366,106).
att(852,661).
att(786,88).
att(117,386).
att(175,212).
att(780,45).
att(855,560).
att(179,279).
att(436,811).
att(855,570).
att(767,38).
att(280,805).
att(783,49).
att(352,276).
att(453,667).
att(175,205).
att(120,395).
att(179,267).
att(108,424).
att(276,816).
att(108,422).
att(434,815).
att(859,552).
att(263,860).
att(358,193).
att(762,86).
att(368,231).
att(263,845).
att(762,94).
att(114,437).
att(273,791).
att(450,665).
att(789,38).
att(450,675).
att(852,592).
att(177,243).
att(456,595).
att(265,856).
att(434,826).
att(764,98).
att(786,40).
att(438,750).
att(108,334).
att(203,883).
att(283,822).
att(783,58).
att(209,887).
att(436,760).
att(440,786).
att(361,223).
att(265,791).
att(345,357).
att(341,382).
att(366,169).
att(183,215).
att(305,489).
att(286,819).
att(307,483).
att(859,580).
att(187,285).
att(278,745).
att(349,203).
att(358,224).
att(344,360).
att(365,235).
att(265,809).
att(365,233).
att(289,821).
att(303,489).
att(366,154).
att(431,813).
att(171,212).
att(345,376).
att(349,210).
att(445,762).
att(254,822).
att(746,52).
att(249,757).
att(449,725).
att(364,256).
att(276,886).
att(249,745).
att(355,328).
att(160,218).
att(383,117).
att(181,422).
att(453,725).
att(160,212).
att(183,414).
att(457,645).
att(158,208).
att(451,723).
att(754,55).
att(364,251).
att(442,850).
att(171,405).
att(366,289).
att(756,51).
att(756,56).
att(457,667).
att(152,208).
att(169,268).
att(355,314).
att(459,667).
att(156,279).
att(169,277).
att(162,198).
att(171,422).
att(365,242).
att(434,857).
att(358,247).
att(459,669).
att(175,375).
att(249,785).
att(433,857).
att(449,643).
att(175,356).
att(273,869).
att(173,381).
att(179,338).
att(746,13).
att(177,346).
att(760,28).
att(249,770).
att(364,276).
att(165,212).
att(432,844).
att(183,346).
att(270,885).
att(460,602).
att(278,870).
att(460,618).
att(760,14).
att(171,346).
att(455,685).
att(438,799).
att(366,209).
att(459,618).
att(175,305).
att(181,356).
att(254,778).
att(4,340).
att(780,119).
att(276,877).
att(748,6).
att(453,780).
att(364,304).
att(780,130).
att(254,785).
att(355,376).
att(377,152).
att(746,30).
att(286,869).
att(176,303).
att(7,352).
att(6,352).
att(251,712).
att(263,886).
att(263,885).
att(270,868).
att(370,314).
att(260,779).
att(258,776).
att(370,311).
att(389,181).
att(758,29).
att(258,774).
att(289,863).
att(349,367).
att(756,21).
att(176,301).
att(361,310).
att(786,130).
att(9,358).
att(1,331).
att(8,344).
att(9,364).
att(247,782).
att(247,766).
att(273,865).
att(355,369).
att(449,764).
att(177,334).
att(744,19).
att(181,292).
att(453,719).
att(273,838).
att(352,293).
att(767,134).
att(744,4).
att(391,102).
att(366,311).
att(859,664).
att(175,321).
att(256,702).
att(457,728).
att(286,871).
att(383,189).
att(746,20).
att(175,327).
att(181,294).
att(368,314).
att(789,148).
att(258,707).
att(742,27).
att(366,258).
att(183,305).
att(456,733).
att(258,718).
att(783,134).
att(758,20).
att(380,175).
att(377,187).
att(449,693).
att(260,718).
att(710,98).
att(106,277).
att(457,742).
att(700,36).
att(695,84).
att(804,634).
att(456,813).
att(110,279).
att(464,615).
att(465,595).
att(857,499).
att(460,744).
att(710,90).
att(117,253).
att(457,760).
att(114,248).
att(451,813).
att(693,72).
att(128,325).
att(796,601).
att(110,267).
att(389,231).
att(455,741).
att(128,313).
att(394,167).
att(396,154).
att(110,272).
att(209,805).
att(216,860).
att(389,237).
att(857,496).
att(377,206).
att(103,250).
att(695,72).
att(449,824).
att(695,80).
att(128,321).
att(459,777).
att(370,374).
att(463,615).
att(716,88).
att(383,233).
att(700,56).
att(804,564).
att(391,169).
att(392,155).
att(852,496).
att(368,369).
att(368,367).
att(850,492).
att(377,223).
att(106,212).
att(453,741).
att(458,780).
att(695,49).
att(700,57).
att(804,565).
att(794,640).
att(806,564).
att(852,494).
att(114,267).
att(804,552).
att(459,716).
att(209,821).
att(370,295).
att(849,519).
att(808,562).
att(460,703).
att(117,267).
att(219,793).
att(794,631).
att(108,198).
att(102,198).
att(810,554).
att(387,152).
att(458,762).
att(798,640).
att(210,851).
att(459,706).
att(708,55).
att(799,604).
att(693,84).
att(716,42).
att(792,570).
att(213,816).
att(800,554).
att(391,280).
att(453,848).
att(700,19).
att(719,11).
att(329,490).
att(389,256).
att(468,678).
att(396,289).
att(460,798).
att(703,13).
att(703,18).
att(128,285).
att(394,206).
att(470,595).
att(706,11).
att(117,198).
att(796,568).
att(209,757).
att(387,263).
att(117,195).
att(460,830).
att(850,496).
att(799,623).
att(385,241).
att(387,278).
att(708,16).
att(196,755).
att(323,487).
att(237,885).
att(710,18).
att(469,602).
att(728,127).
att(457,813).
att(229,865).
att(458,828).
att(453,794).
att(462,669).
att(389,265).
att(206,785).
att(383,273).
att(313,486).
att(206,779).
att(231,866).
att(700,22).
att(465,669).
att(128,215).
att(459,758).
att(209,774).
att(464,598).
att(716,13).
att(796,590).
att(455,818).
att(796,588).
att(730,105).
att(459,741).
att(456,815).
att(461,682).
att(693,56).
att(463,675).
att(693,55).
att(227,885).
att(196,785).
att(223,870).
att(463,688).
att(219,759).
att(467,605).
att(855,538).
att(273,785).
att(855,532).
att(270,774).
att(408,110).
att(850,577).
att(263,812).
att(276,774).
att(775,21).
att(706,113).
att(209,861).
att(283,751).
att(842,575).
att(844,588).
att(404,179).
att(464,710).
att(772,23).
att(412,117).
att(102,378).
att(461,708).
att(849,564).
att(278,771).
att(394,247).
att(470,651).
att(762,54).
att(404,102).
att(410,114).
att(110,372).
att(286,747).
att(464,732).
att(762,60).
att(187,218).
att(380,297).
att(398,181).
att(410,128).
att(209,864).
att(219,888).
att(859,539).
att(189,198).
att(177,215).
att(270,757).
att(848,582).
att(852,566).
att(265,819).
att(852,565).
att(203,886).
att(403,175).
att(786,12).
att(203,885).
att(408,117).
att(403,171).
att(406,117).
att(385,320).
att(213,862).
att(108,292).
att(270,705).
att(850,530).
att(392,247).
att(394,242).
att(470,655).
att(844,532).
att(219,866).
att(842,524).
att(216,862).
att(404,111).
att(465,732).
att(706,146).
att(108,299).
att(213,870).
att(852,530).
att(103,362).
att(762,10).
att(844,530).
att(846,532).
att(128,347).
att(286,778).
att(278,718).
att(219,863).
att(193,885).
att(398,117).
att(389,258).
att(398,114).
att(106,373).
att(114,332).
att(317,489).
att(700,127).
att(210,882).
att(463,730).
att(203,865).
att(111,336).
att(200,863).
att(289,774).
att(387,249).
att(786,21).
att(278,707).
att(710,144).
att(852,544).
att(468,767).
att(114,307).
att(213,872).
att(111,302).
att(406,235).
att(286,712).
att(394,357).
att(472,605).
att(716,145).
att(394,354).
att(713,142).
att(117,307).
att(398,193).
att(464,746).
att(412,160).
att(117,294).
att(280,697).
att(708,74).
att(196,831).
att(461,750).
att(859,509).
att(394,308).
att(789,7).
att(786,20).
att(401,225).
att(270,709).
att(408,162).
att(466,789).
att(210,868).
att(786,2).
att(263,770).
att(762,24).
att(850,532).
att(468,710).
att(855,519).
att(465,780).
att(850,502).
att(111,321).
att(413,179).
att(408,176).
att(850,505).
att(209,843).
att(713,76).
att(389,363).
att(794,681).
att(792,677).
att(710,65).
att(383,376).
att(406,152).
att(465,772).
att(468,713).
att(377,360).
att(808,610).
att(128,296).
att(219,834).
att(410,181).
att(193,876).
att(461,772).
att(857,516).
att(265,705).
att(850,543).
att(210,872).
att(764,7).
att(111,296).
att(463,775).
att(762,4).
att(846,503).
att(764,9).
att(810,620).
att(29,442).
att(412,200).
att(412,219).
att(326,863).
att(476,682).
att(469,820).
att(468,818).
att(28,417).
att(224,307).
att(824,125).
att(24,410).
att(810,8).
att(415,210).
att(312,883).
att(398,242).
att(312,882).
att(328,867).
att(826,125).
att(297,743).
att(462,799).
att(806,24).
att(231,371).
att(467,828).
att(25,425).
att(237,346).
att(828,113).
att(472,665).
att(469,817).
att(474,667).
att(473,682).
att(408,209).
att(24,394).
att(225,338).
att(466,826).
att(478,593).
att(316,890).
att(401,265).
att(471,667).
att(29,428).
att(291,788).
att(404,210).
att(468,754).
att(227,303).
att(320,837).
att(29,421).
att(27,412).
att(350,486).
att(26,415).
att(398,286).
att(23,391).
att(804,1).
att(314,866).
att(398,265).
att(476,605).
att(223,294).
att(308,697).
att(410,223).
att(815,113).
att(21,396).
att(316,865).
att(815,101).
att(297,774).
att(300,715).
att(324,863).
att(796,21).
att(29,415).
att(318,874).
att(348,482).
att(466,756).
att(223,305).
att(310,699).
att(466,746).
att(17,344).
att(235,296).
att(419,187).
att(818,134).
att(426,114).
att(311,874).
att(28,453).
att(29,469).
att(314,871).
att(471,695).
att(479,649).
att(826,74).
att(237,294).
att(470,846).
att(792,5).
att(26,460).
att(468,859).
att(26,451).
att(23,431).
att(466,844).
att(471,732).
att(295,718).
att(474,723).
att(478,657).
att(813,134).
att(231,325).
att(231,323).
att(231,315).
att(330,836).
att(413,258).
att(477,647).
att(799,30).
att(478,651).
att(796,9).
att(466,848).
att(478,649).
att(398,311).
att(312,836).
att(480,675).
att(820,40).
att(326,845).
att(224,272).
att(817,90).
att(29,455).
att(29,458).
att(403,312).
att(237,323).
att(312,840).
att(23,429).
att(404,249).
att(410,241).
att(464,855).
att(415,265).
att(476,647).
att(466,796).
att(478,672).
att(478,669).
att(471,647).
att(231,257).
att(237,319).
att(314,837).
att(461,859).
att(467,796).
att(473,655).
att(818,146).
att(465,849).
att(318,854).
att(817,80).
att(21,419).
att(28,427).
att(466,808).
att(401,256).
att(229,447).
att(800,76).
att(111,608).
att(200,252).
att(473,777).
att(24,469).
att(291,833).
att(404,369).
att(480,716).
att(426,165).
att(231,441).
att(27,480).
att(792,65).
att(14,370).
att(15,352).
att(14,361).
att(24,463).
att(293,832).
att(219,325).
att(13,368).
att(216,321).
att(423,165).
att(308,860).
att(798,74).
att(849,20).
att(413,308).
att(480,693).
att(799,132).
att(16,344).
att(297,840).
att(120,595).
att(404,304).
att(15,341).
att(429,128).
att(203,285).
att(229,397).
att(16,337).
att(473,706).
att(28,465).
att(426,187).
att(200,269).
att(233,452).
att(477,732).
att(800,100).
att(475,719).
att(29,476).
att(237,443).
att(471,762).
att(804,32).
att(203,275).
att(398,357).
att(479,735).
att(22,457).
att(219,257).
att(13,342).
att(428,120).
att(794,88).
att(403,308).
att(310,795).
att(295,854).
att(478,733).
att(210,315).
att(412,311).
att(196,275).
att(210,313).
att(25,467).
att(22,453).
att(423,175).
att(799,74).
att(413,316).
att(421,187).
att(21,451).
att(223,402).
att(478,725).
att(401,304).
att(19,337).
att(428,108).
att(796,96).
att(19,417).
att(227,420).
att(424,486).
att(227,418).
att(345,529).
att(480,758).
att(320,883).
att(291,791).
att(15,403).
att(428,210).
att(806,60).
att(231,405).
att(203,195).
att(237,386).
att(333,556).
att(237,384).
att(339,585).
att(429,231).
att(792,47).
att(17,426).
att(235,400).
att(295,802).
att(478,750).
att(420,486).
att(216,275).
att(295,807).
att(428,225).
att(239,384).
att(224,418).
att(310,822).
att(300,814).
att(233,444).
att(479,767).
att(16,383).
att(210,202).
att(326,883).
att(18,412).
att(19,403).
att(291,823).
att(298,822).
att(430,160).
att(193,195).
att(224,378).
att(335,521).
att(340,533).
att(430,158).
att(24,473).
att(231,334).
att(792,55).
att(229,351).
att(308,745).
att(806,18).
att(14,383).
att(479,772).
att(229,347).
att(417,193).
att(800,51).
att(293,812).
att(425,235).
att(472,824).
att(475,742).
att(11,352).
att(295,821).
att(297,812).
att(318,887).
att(428,162).
att(478,789).
att(10,364).
att(337,531).
att(471,760).
att(474,741).
att(792,52).
att(216,215).
att(794,58).
att(806,14).
att(193,288).
att(477,786).
att(19,385).
att(405,485).
att(413,360).
att(799,43).
att(21,478).
att(16,368).
att(794,52).
att(4,387).
att(339,639).
att(381,488).
att(425,244).
att(817,2).
att(20,380).
att(154,321).
att(256,873).
att(165,356).
att(256,872).
att(817,8).
att(256,876).
att(344,567).
att(324,709).
att(417,318).
att(756,132).
att(326,705).
att(167,359).
att(160,305).
att(312,779).
att(3,377).
att(242,865).
att(258,871).
att(3,385).
att(817,20).
att(818,21).
att(158,301).
att(260,880).
att(421,242).
att(423,249).
att(260,879).
att(6,406).
att(342,555).
att(423,258).
att(5,406).
att(169,359).
att(478,804).
att(742,122).
att(162,303).
att(826,7).
att(167,378).
att(326,698).
att(1,383).
att(20,364).
att(748,148).
att(20,368).
att(316,771).
att(830,5).
att(375,481).
att(746,127).
att(169,371).
att(8,396).
att(20,358).
att(244,864).
att(330,718).
att(423,251).
att(249,853).
att(154,252).
att(748,88).
att(362,488).
att(158,313).
att(6,391).
att(337,635).
att(6,396).
att(342,557).
att(160,327).
att(342,567).
att(176,439).
att(479,830).
att(251,847).
att(158,319).
att(472,855).
att(758,63).
att(758,76).
att(353,487).
att(428,206).
att(169,294).
att(312,697).
att(811,4).
att(244,875).
att(353,490).
att(478,817).
att(152,321).
att(9,396).
att(254,871).
att(4,341).
att(815,6).
att(152,327).
att(20,337).
att(152,325).
att(421,280).
att(152,323).
att(256,847).
att(748,40).
att(181,448).
att(417,367).
att(433,165).
att(754,100).
att(249,797).
att(426,308).
att(7,445).
att(173,402).
att(748,45).
att(152,267).
att(432,156).
att(756,84).
att(258,847).
att(436,181).
att(433,152).
att(428,293).
att(756,99).
att(256,856).
att(427,328).
att(3,419).
att(242,839).
att(341,619).
att(167,329).
att(183,443).
att(342,606).
att(345,609).
att(426,297).
att(173,443).
att(340,686).
att(431,165).
att(340,683).
att(156,315).
att(345,613).
att(152,253).
att(758,88).
att(741,100).
att(156,267).
att(175,409).
att(179,400).
att(333,686).
att(748,59).
att(173,422).
att(748,58).
att(154,212).
att(431,189).
att(3,410).
att(189,447).
att(155,205).
att(425,320).
att(436,128).
att(165,257).
att(429,251).
att(181,388).
att(339,603).
att(260,807).
att(341,630).
att(421,314).
att(169,255).
att(423,330).
att(342,625).
att(189,441).
att(1,415).
att(258,809).
att(433,102).
att(478,846).
att(1,406).
att(173,399).
att(345,632).
att(421,330).
att(4,394).
att(152,288).
att(341,625).
att(345,639).
att(435,103).
att(421,324).
att(162,277).
att(355,583).
att(326,795).
att(331,692).
att(8,462).
att(155,407).
att(433,193).
att(155,405).
att(339,724).
att(224,215).
att(324,803).
att(328,805).
att(341,722).
att(4,453).
att(341,721).
att(442,233).
att(328,797).
att(342,738).
att(352,581).
att(811,84).
att(328,793).
att(364,523).
att(824,42).
att(364,537).
att(3,458).
att(167,448).
att(312,845).
att(326,807).
att(231,275).
att(6,467).
att(813,90).
att(3,451).
att(361,535).
att(427,363).
att(352,525).
att(345,652).
att(431,216).
att(154,390).
att(318,807).
att(817,94).
att(1,460).
att(225,255).
att(316,860).
att(239,248).
att(340,722).
att(430,360).
att(5,463).
att(227,199).
att(311,809).
att(233,275).
att(311,807).
att(333,731).
att(1,450).
att(165,388).
att(311,803).
att(249,890).
att(311,797).
att(318,751).
att(445,179).
att(431,239).
att(7,456).
att(341,641).
att(813,50).
att(432,237).
att(824,52).
att(337,722).
att(227,195).
att(167,384).
att(6,459).
att(169,399).
att(432,155).
att(826,52).
att(314,803).
att(341,683).
att(436,176).
att(344,680).
att(349,535).
att(426,363).
att(333,721).
att(231,198).
att(815,38).
att(830,59).
att(152,420).
att(239,269).
att(817,12).
att(824,19).
att(820,27).
att(818,53).
att(445,196).
att(365,561).
att(20,473).
att(748,113).
att(26,391).
att(27,380).
att(435,241).
att(27,377).
att(260,885).
att(160,347).
att(364,561).
att(824,14).
att(3,479).
att(155,378).
att(432,241).
att(345,696).
att(435,273).
att(3,476).
att(330,753).
att(332,486).
att(341,701).
att(25,394).
att(334,485).
att(335,765).
att(442,203).
att(237,199).
att(368,572).
att(22,349).
att(341,696).
att(154,347).
att(324,816).
att(344,711).
att(349,630).
att(358,555).
att(158,416).
att(340,787).
att(343,486).
att(340,768).
att(345,720).
att(366,576).
att(28,365).
att(332,485).
att(340,761).
att(828,15).
att(28,355).
att(165,338).
att(258,865).
att(29,392).
att(324,774).
att(754,116).
att(818,13).
att(830,3).
att(23,341).
att(24,333).
att(29,377).
att(249,873).
att(445,227).
att(260,866).
att(160,378).
att(811,13).
att(155,301).
att(331,773).
att(818,12).
att(156,343).
att(366,535).
att(368,522).
att(330,782).
att(368,521).
att(162,371).
att(335,696).
att(435,216).
att(826,21).
att(244,886).
att(156,351).
att(1,470).
att(21,337).
att(434,200).
att(358,585).
att(20,458).
att(156,338).
att(254,888).
att(340,694).
att(29,370).
att(169,351).
att(813,11).
att(47,335).
att(173,708).
att(355,673).
att(51,449).
att(247,208).
att(273,411).
att(254,282).
att(177,772).
att(283,393).
att(445,247).
att(453,176).
att(442,324).
att(187,746).
att(286,388).
att(368,616).
att(263,446).
att(453,177).
att(43,337).
att(260,279).
att(368,632).
att(286,402).
att(352,596).
att(60,459).
att(445,258).
att(244,246).
att(358,594).
att(434,318).
att(445,256).
att(450,183).
att(244,259).
att(456,106).
att(349,683).
att(60,457).
att(189,760).
att(265,443).
att(60,449).
att(352,611).
att(436,254).
att(179,719).
att(379,885).
att(379,889).
att(51,431).
att(376,882).
att(173,726).
att(283,414).
att(355,613).
att(60,450).
att(171,725).
att(355,611).
att(365,626).
att(59,450).
att(382,887).
att(442,256).
att(187,780).
att(241,288).
att(176,733).
att(368,639).
att(379,881).
att(54,445).
att(175,737).
att(364,628).
att(171,695).
att(265,386).
att(54,438).
att(278,348).
att(278,347).
att(368,561).
att(370,563).
att(177,786).
att(247,215).
att(344,768).
att(431,326).
att(358,626).
att(366,551).
att(855,122).
att(108,848).
att(385,531).
att(179,733).
att(179,723).
att(357,889).
att(436,369).
att(354,882).
att(365,648).
att(436,367).
att(40,364).
att(108,850).
att(177,726).
att(273,356).
att(365,646).
att(286,348).
att(457,152).
att(241,218).
att(276,371).
att(181,737).
att(286,334).
att(385,529).
att(179,730).
att(379,867).
att(436,376).
att(52,470).
att(440,306).
att(176,651).
att(382,864).
att(440,297).
att(859,119).
att(53,480).
att(54,471).
att(446,481).
att(32,339).
att(53,479).
att(460,189).
att(187,716).
att(366,663).
att(173,733).
att(445,308).
att(370,673).
att(36,349).
att(265,424).
att(270,347).
att(434,382).
att(60,477).
att(450,227).
att(459,181).
att(280,414).
att(183,732).
att(857,145).
att(179,655).
att(842,123).
att(56,462).
att(354,864).
att(458,189).
att(106,810).
att(106,806).
att(177,645).
att(438,304).
att(263,334).
att(379,879).
att(379,878).
att(352,648).
att(857,140).
att(844,101).
att(179,647).
att(187,725).
att(263,351).
att(278,299).
att(361,679).
att(366,600).
att(38,333).
att(367,883).
att(368,596).
att(50,364).
att(36,335).
att(181,649).
att(187,737).
att(361,686).
att(273,353).
att(433,369).
att(106,846).
att(270,375).
att(177,733).
att(455,189).
att(365,663).
att(49,333).
att(60,469).
att(106,849).
att(176,799).
att(158,655).
att(254,371).
att(453,280).
att(385,569).
att(42,398).
att(455,196).
att(165,725).
att(251,301).
att(242,332).
att(45,430).
att(155,675).
att(181,859).
att(160,655).
att(352,773).
att(155,688).
att(175,810).
att(251,296).
att(155,685).
att(368,694).
att(169,735).
att(167,732).
att(349,761).
att(450,265).
att(454,484).
att(454,489).
att(260,353).
att(160,649).
att(365,714).
att(455,219).
att(459,231).
att(355,769).
att(171,859).
att(260,372).
att(365,694).
att(42,391).
att(260,381).
att(441,490).
att(156,665).
att(453,210).
att(152,597).
att(249,313).
att(457,223).
att(176,826).
att(183,800).
att(160,682).
att(181,806).
att(457,225).
att(175,820).
att(385,574).
att(32,370).
att(450,213).
att(389,523).
att(440,376).
att(177,849).
att(460,162).
att(167,649).
att(440,363).
att(451,224).
att(260,294).
att(258,299).
att(460,156).
att(155,597).
att(439,484).
att(152,675).
att(156,657).
att(370,650).
att(50,404).
att(152,672).
att(179,850).
att(445,376).
att(437,482).
att(453,328).
att(458,251).
att(273,454).
att(241,299).
att(242,292).
att(181,820).
att(160,618).
att(187,796).
att(251,257).
att(187,792).
att(241,296).
att(383,619).
att(181,815).
att(189,808).
att(459,283).
att(260,323).
att(370,763).
att(167,675).
att(189,798).
att(167,672).
att(258,319).
att(258,317).
att(383,625).
att(254,296).
att(152,605).
att(173,817).
att(392,637).
att(377,613).
att(162,593).
att(260,329).
att(254,252).
att(42,426).
att(286,444).
att(179,758).
att(392,551).
att(385,639).
att(40,427).
att(47,434).
att(453,242).
att(377,632).
att(456,241).
att(40,421).
att(165,618).
att(187,811).
att(457,289).
att(391,561).
att(189,828).
att(270,447).
att(38,426).
att(258,248).
att(358,761).
att(389,569).
att(289,448).
att(458,265).
att(169,593).
att(49,421).
att(455,286).
att(455,283).
att(260,246).
att(389,556).
att(455,280).
att(456,278).
att(459,200).
att(374,752).
att(451,354).
att(383,642).
att(391,689).
att(451,367).
att(213,407).
att(458,300).
att(114,710).
att(210,424).
att(457,291).
att(114,695).
att(850,56).
att(265,208).
att(453,354).
att(15,435).
att(110,737).
att(110,735).
att(383,652).
att(460,304).
att(464,169).
att(12,430).
att(357,827).
att(468,181).
att(396,683).
att(14,442).
att(114,706).
att(357,814).
att(11,425).
att(103,695).
att(463,165).
att(103,693).
att(367,803).
att(387,683).
att(844,56).
att(467,189).
att(286,205).
att(102,723).
att(310,883).
att(859,17).
att(11,423).
att(357,822).
att(210,390).
att(374,816).
att(846,56).
att(13,434).
att(850,45).
att(382,749).
att(200,407).
att(263,277).
att(455,304).
att(102,726).
att(103,710).
att(463,167).
att(466,110).
att(385,689).
att(16,419).
att(374,785).
att(458,328).
att(210,348).
att(453,293).
att(12,410).
att(451,300).
att(108,643).
att(379,779).
att(357,757).
att(857,29).
att(17,445).
att(457,320).
att(11,412).
att(213,351).
att(295,885).
att(15,419).
att(293,883).
att(842,17).
att(354,747).
att(310,870).
att(464,110).
att(14,421).
att(844,15).
att(209,381).
att(297,888).
att(310,864).
att(456,328).
att(849,57).
att(808,130).
att(842,11).
att(383,596).
att(369,827).
att(200,350).
att(363,747).
att(10,408).
att(455,330).
att(849,51).
att(859,22).
att(449,293).
att(193,418).
att(463,187).
att(16,466).
att(413,525).
att(800,105).
att(385,701).
att(213,353).
att(291,864).
att(374,718).
att(383,691).
att(804,148).
att(59,352).
att(391,721).
att(462,219).
att(117,647).
att(464,200).
att(396,727).
att(398,567).
att(15,468).
att(18,475).
att(54,345).
att(216,359).
att(376,718).
att(406,574).
att(54,340).
att(413,521).
att(193,336).
att(394,646).
att(57,358).
att(379,705).
att(209,307).
att(60,345).
att(857,8).
att(360,766).
att(60,335).
att(850,14).
att(102,668).
att(300,878).
att(360,778).
att(377,696).
att(467,229).
att(462,224).
att(114,685).
att(354,712).
att(111,665).
att(383,721).
att(465,233).
att(850,3).
att(16,449).
att(306,831).
att(369,705).
att(392,652).
att(103,597).
att(210,307).
att(462,227).
att(103,595).
att(111,672).
att(200,319).
att(458,376).
att(798,63).
att(108,595).
att(12,440).
att(57,344).
att(216,303).
att(380,691).
att(468,162).
att(464,237).
att(15,457).
att(794,146).
att(14,457).
att(293,873).
att(193,359).
att(403,533).
att(14,456).
att(17,465).
att(11,435).
att(380,724).
att(460,310).
att(308,839).
att(806,65).
att(377,731).
att(367,778).
att(799,119).
att(850,29).
att(200,296).
att(467,154).
att(796,132).
att(10,434).
att(300,831).
att(117,792).
att(173,605).
att(852,132).
att(354,878).
att(406,626).
att(376,835).
att(401,632).
att(54,391).
att(263,356).
att(398,600).
att(396,773).
att(857,76).
att(117,810).
att(379,831).
att(273,321).
att(855,63).
att(363,873).
att(846,140).
att(187,643).
att(263,371).
att(470,196).
att(57,410).
att(111,849).
att(289,303).
att(128,848).
att(289,296).
att(60,394).
att(463,241).
att(57,398).
att(57,403).
att(410,569).
att(844,142).
att(175,597).
att(387,769).
att(280,362).
att(401,630).
att(852,125).
att(11,473).
att(397,485).
att(401,626).
att(11,476).
att(53,377).
att(403,625).
att(392,768).
att(265,373).
att(391,701).
att(10,474).
att(117,818).
att(395,484).
att(406,559).
att(374,853).
att(16,473).
att(395,490).
att(406,569).
att(392,704).
att(415,579).
att(470,210).
att(393,483).
att(283,317).
att(842,74).
att(468,216).
att(842,72).
att(855,86).
att(12,468).
att(58,385).
att(179,602).
att(265,294).
att(57,383).
att(380,773).
att(850,145).
att(387,711).
att(394,727).
att(844,67).
att(187,675).
att(263,307).
att(263,303).
att(464,209).
att(467,193).
att(181,605).
att(404,574).
att(171,608).
att(466,206).
att(852,148).
att(111,808).
att(270,327).
att(111,804).
att(189,672).
att(369,872).
att(392,694).
att(387,701).
att(859,88).
att(114,748).
att(468,316).
att(206,397).
att(412,616).
att(480,114).
att(376,791).
att(413,609).
att(56,419).
att(354,845).
att(406,683).
att(461,360).
att(117,758).
att(379,793).
att(480,110).
att(480,108).
att(857,50).
att(480,106).
att(357,843).
att(265,313).
att(471,171).
att(57,436).
att(408,613).
att(410,594).
att(187,608).
att(196,386).
att(52,413).
att(363,851).
att(382,795).
att(209,400).
att(219,439).
att(286,246).
att(196,393).
att(360,845).
att(111,828).
att(200,454).
att(408,594).
att(369,834).
att(462,293).
att(850,70).
att(463,308).
att(283,279).
att(476,128).
att(60,419).
att(55,410).
att(406,616).
att(469,258).
att(852,45).
att(413,626).
att(209,409).
att(58,427).
att(58,430).
att(57,429).
att(108,716).
att(855,53).
att(196,411).
att(278,199).
att(360,809).
att(196,405).
att(379,822).
att(193,447).
att(471,111).
att(382,812).
att(286,288).
att(461,328).
att(114,741).
att(200,399).
att(270,279).
att(846,40).
att(56,387).
att(466,258).
att(474,114).
att(363,805).
att(369,843).
att(463,318).
att(859,51).
att(210,446).
att(128,760).
att(196,418).
att(410,625).
att(406,729).
att(67,364).
att(239,799).
att(293,299).
att(415,646).
att(72,387).
att(203,597).
att(237,798).
att(231,818).
att(470,360).
att(426,527).
att(235,808).
att(404,738).
att(419,581).
att(306,325).
att(310,325).
att(466,354).
att(467,382).
att(478,167).
att(206,595).
att(415,666).
att(467,374).
att(206,605).
att(237,808).
att(84,476).
att(421,531).
att(413,654).
att(76,349).
att(297,307).
att(98,480).
att(74,370).
att(304,252).
att(98,476).
att(227,760).
att(98,475).
att(473,152).
att(480,179).
att(233,830).
att(480,189).
att(298,319).
att(406,656).
att(469,304).
att(473,169).
att(213,608).
att(404,648).
att(70,365).
att(96,472).
att(92,480).
att(225,818).
att(474,165).
att(403,660).
att(475,175).
att(408,663).
att(471,158).
att(475,173).
att(295,315).
att(479,108).
att(293,319).
att(92,473).
att(78,361).
att(98,466).
att(193,685).
att(401,658).
att(76,331).
att(318,439).
att(225,811).
att(403,650).
att(412,701).
att(74,430).
att(473,278).
att(235,741).
att(78,431).
att(324,402).
att(480,216).
att(324,400).
att(480,213).
att(67,403).
att(229,786).
att(306,269).
att(312,452).
att(314,446).
att(429,572).
att(312,443).
att(429,585).
att(328,395).
att(479,213).
att(65,398).
att(417,553).
att(417,559).
att(297,250).
att(401,773).
att(295,245).
att(80,417).
att(297,253).
att(426,581).
att(304,199).
att(413,731).
att(429,521).
att(475,216).
att(229,716).
att(291,267).
att(479,227).
att(291,275).
att(306,215).
att(428,525).
att(403,717).
att(425,522).
att(295,282).
att(80,413).
att(475,231).
att(231,695).
att(311,447).
att(80,410).
att(223,700).
att(318,411).
att(428,522).
att(223,713).
att(428,529).
att(210,775).
att(344,46).
att(430,624).
att(78,463).
att(74,455).
att(106,189).
att(480,258).
att(103,173).
att(291,384).
att(473,330).
att(476,311).
att(428,613).
att(216,764).
att(295,395).
att(471,293).
att(108,179).
att(65,442).
att(475,314).
att(478,249).
att(219,783).
att(300,414).
att(72,453).
att(417,594).
att(474,312).
att(117,152).
att(357,277).
att(102,175).
att(304,386).
att(382,195).
att(210,741).
att(300,418).
att(341,41).
att(423,596).
att(102,181).
att(103,167).
att(193,756).
att(427,626).
att(430,556).
att(106,120).
att(421,625).
att(67,427).
att(476,242).
att(67,430).
att(224,859).
att(480,283).
att(298,424).
att(67,423).
att(471,316).
att(308,336).
att(72,432).
att(293,418).
att(475,244).
att(293,407).
att(310,350).
att(408,787).
att(427,567).
att(298,393).
att(72,431).
att(360,215).
att(474,242).
att(216,703).
att(295,420).
att(357,208).
att(428,557).
att(70,435).
att(471,258).
att(111,169).
att(210,767).
att(63,417).
att(413,787).
att(120,176).
att(200,695).
att(76,426).
att(76,425).
att(110,102).
att(423,632).
att(310,351).
att(367,285).
att(408,790).
att(344,75).
att(306,359).
att(340,133).
att(229,850).
att(335,136).
att(145,392).
att(213,725).
att(475,382).
att(206,659).
att(428,642).
att(140,365).
att(428,641).
att(479,300).
att(331,129).
att(479,310).
att(134,340).
att(431,529).
att(65,467).
att(477,293).
att(423,660).
att(120,128).
att(478,304).
att(223,849).
att(150,355).
att(335,131).
att(300,373).
att(427,679).
att(193,716).
att(219,730).
att(477,308).
att(310,372).
att(76,470).
att(300,353).
att(427,689).
att(142,337).
att(306,303).
att(425,680).
att(78,477).
att(80,472).
att(291,378).
att(340,66).
att(148,355).
att(203,682).
att(146,352).
att(74,463).
att(216,653).
att(342,69).
att(146,349).
att(339,66).
att(78,471).
att(237,846).
att(339,64).
att(67,449).
att(429,609).
att(138,342).
att(145,361).
att(145,358).
att(210,643).
att(344,85).
att(474,304).
att(223,794).
att(209,685).
att(231,806).
att(224,804).
att(227,842).
att(291,343).
att(150,333).
att(297,372).
att(227,850).
att(150,337).
att(148,337).
att(209,668).
att(427,606).
att(297,375).
att(310,301).
att(128,111).
att(224,799).
att(427,619).
att(477,316).
att(42,466).
att(165,824).
att(326,253).
att(445,529).
att(96,358).
att(154,777).
att(324,248).
att(251,395).
att(320,282).
att(86,344).
att(251,393).
att(158,742).
att(92,370).
att(94,361).
att(425,704).
att(38,468).
att(233,597).
att(425,717).
att(445,521).
att(341,118).
att(442,525).
att(442,523).
att(435,589).
att(92,358).
att(162,760).
att(342,109).
att(100,358).
att(423,714).
att(328,259).
att(43,477).
att(237,615).
att(345,121).
att(158,818).
att(435,571).
att(154,744).
att(99,361).
att(316,327).
att(427,731).
att(99,358).
att(251,407).
att(333,184).
att(50,472).
att(165,746).
att(311,255).
att(320,215).
att(241,446).
att(429,656).
att(429,642).
att(42,451).
att(94,341).
att(479,367).
att(316,277).
att(312,259).
att(337,185).
att(241,454).
att(425,727).
att(92,339).
att(331,190).
att(251,411).
att(311,248).
att(339,118).
att(421,722).
att(38,456).
att(328,267).
att(38,458).
att(341,149).
att(337,115).
att(477,367).
att(38,450).
att(337,126).
att(99,341).
att(434,533).
att(318,282).
att(32,440).
att(50,470).
att(341,136).
att(50,465).
att(435,537).
att(251,334).
att(339,240).
att(256,409).
att(96,403).
att(158,693).
att(99,417).
att(258,411).
att(94,413).
att(258,409).
att(155,728).
att(364,35).
att(433,609).
att(311,272).
att(155,737).
att(258,414).
att(311,269).
att(326,212).
att(335,236).
att(244,384).
att(86,385).
att(314,285).
att(341,151).
att(427,769).
att(100,401).
att(152,706).
att(358,37).
att(249,414).
att(254,386).
att(330,195).
att(99,408).
att(244,400).
att(340,221).
att(156,762).
att(100,403).
att(431,624).
att(154,649).
att(175,848).
att(254,346).
att(425,763).
att(175,844).
att(154,659).
att(434,553).
att(96,383).
att(249,356).
att(254,347).
att(432,626).
att(94,389).
att(160,739).
att(242,416).
att(311,195).
att(331,228).
att(433,622).
att(94,380).
att(241,409).
att(436,567).
att(433,626).
att(169,716).
att(38,478).
att(427,714).
att(432,556).
att(314,218).
att(169,695).
att(242,422).
att(423,768).
att(92,377).
att(312,202).
att(436,574).
att(156,716).
att(316,202).
att(426,765).
att(32,470).
att(100,383).
att(156,713).
att(247,338).
att(345,190).
att(435,561).
att(442,576).
att(342,261).
att(99,458).
att(155,850).
att(324,347).
att(341,264).
att(432,646).
att(96,431).
att(314,405).
att(432,660).
att(341,261).
att(432,658).
att(88,425).
att(86,425).
att(155,859).
att(291,199).
att(366,95).
att(84,429).
att(314,420).
att(84,427).
att(328,350).
att(340,290).
att(349,139).
att(225,713).
att(223,726).
att(316,424).
att(99,442).
att(100,432).
att(316,418).
att(366,97).
att(434,663).
att(355,75).
att(90,406).
att(155,798).
att(225,644).
att(96,429).
att(320,305).
att(364,81).
att(88,401).
att(94,430).
att(227,651).
att(86,408).
att(155,810).
att(224,668).
att(355,64).
att(84,412).
att(152,844).
att(316,332).
att(152,850).
att(352,89).
att(368,35).
att(352,85).
att(90,394).
att(98,408).
att(366,34).
att(298,212).
att(340,217).
att(445,635).
att(358,95).
att(330,372).
att(316,338).
att(341,232).
att(160,792).
att(100,474).
att(165,844).
att(364,124).
att(154,830).
att(72,341).
att(233,655).
att(99,475).
att(318,317).
att(324,303).
att(72,331).
att(88,457).
att(96,464).
att(162,800).
att(453,572).
att(94,464).
att(235,659).
att(312,359).
att(233,643).
att(366,139).
att(434,721).
att(92,470).
att(366,137).
att(435,738).
att(368,133).
att(442,648).
att(84,460).
att(314,362).
att(368,143).
att(349,182).
att(365,126).
att(358,112).
att(98,453).
att(355,118).
att(99,469).
att(311,305).
att(98,456).
att(77,331).
att(318,252).
att(438,660).
att(450,521).
att(450,529).
att(237,682).
att(328,325).
att(94,460).
att(368,137).
att(88,438).
att(352,118).
att(368,149).
att(442,642).
att(320,252).
att(432,724).
att(86,440).
att(251,441).
att(432,721).
att(94,449).
att(229,598).
att(330,315).
att(361,141).
att(328,319).
att(341,287).
att(84,436).
att(361,137).
att(84,434).
att(154,813).
att(223,599).
att(98,434).
att(156,796).
att(431,721).
att(237,668).
att(158,111).
att(179,330).
att(385,46).
att(119,430).
att(436,761).
att(455,553).
att(169,102).
att(254,735).
att(183,314).
att(251,647).
att(183,312).
att(187,304).
att(125,434).
att(158,108).
att(181,330).
att(251,657).
att(165,177).
att(251,653).
att(276,848).
att(380,44).
att(358,164).
att(101,434).
att(167,179).
att(176,249).
att(460,589).
att(183,316).
att(251,649).
att(258,737).
att(278,848).
att(435,765).
att(377,46).
att(349,226).
att(162,106).
att(169,179).
att(169,177).
att(349,234).
att(130,423).
att(352,164).
att(364,190).
att(453,567).
att(127,426).
att(273,806).
att(283,852).
att(365,180).
att(459,521).
att(450,555).
att(256,643).
att(176,283).
att(451,567).
att(175,276).
att(249,667).
att(187,311).
att(249,678).
att(123,428).
att(352,168).
att(436,717).
att(123,427).
att(175,286).
att(254,643).
att(458,572).
att(105,391).
att(113,410).
att(251,667).
att(349,161).
att(177,328).
att(105,380).
att(122,391).
att(247,655).
att(260,651).
att(459,537).
att(366,109).
att(434,717).
att(459,535).
att(349,164).
att(167,108).
att(392,87).
att(175,193).
att(247,608).
att(119,457).
att(260,598).
att(270,820).
att(289,799).
att(119,449).
att(251,615).
att(283,806).
att(453,670).
att(396,31).
att(258,678).
att(451,609).
att(457,625).
att(451,603).
att(449,686).
att(171,273).
att(380,68).
att(171,270).
att(394,41).
att(449,663).
att(175,235).
att(254,605).
att(449,596).
att(385,93).
att(453,611).
att(392,46).
att(176,235).
att(263,792).
att(276,760).
att(383,95).
att(385,82).
att(368,238).
att(352,201).
att(379,439).
att(364,232).
att(101,459).
att(349,192).
att(183,200).
att(116,433).
att(263,806).
att(366,166).
att(383,39).
att(442,790).
att(101,451).
att(377,91).
att(127,442).
att(177,265).
att(358,230).
att(460,555).
att(241,799).
att(316,595).
att(249,742).
att(392,137).
att(241,808).
att(119,475).
att(155,229).
att(242,799).
att(326,602).
att(258,813).
att(119,471).
att(385,104).
att(391,139).
att(167,278).
att(451,652).
att(312,675).
att(389,149).
att(160,206).
att(167,286).
att(328,615).
att(387,133).
att(156,283).
att(377,112).
att(450,729).
att(449,721).
att(450,727).
att(455,656).
att(260,820).
att(394,62).
att(328,597).
att(176,367).
att(311,618).
att(391,69).
att(254,750).
att(364,284).
att(458,670).
att(154,169).
att(249,767).
att(364,266).
att(160,225).
att(251,789).
att(391,66).
att(457,673).
att(451,642).
att(392,61).
att(113,469).
att(370,194).
att(314,599).
att(460,594).
att(389,75).
att(456,689).
att(167,203).
att(258,750).
att(389,79).
att(370,201).
att(377,149).
att(394,87).
att(459,600).
att(169,219).
att(158,156).
att(256,780).
att(469,585).
att(392,184).
att(154,187).
att(155,171).
att(383,163).
att(258,767).
att(165,227).
att(175,300).
att(469,576).
att(451,763).
att(162,160).
att(171,360).
att(467,579).
att(464,574).
att(258,789).
att(247,786).
att(463,551).
att(156,235).
att(392,186).
att(466,579).
att(392,185).
att(152,167).
att(450,790).
att(254,716).
att(453,694).
att(156,179).
att(453,691).
att(167,165).
att(187,374).
att(241,789).
att(176,316).
att(181,297).
att(249,730).
att(249,728).
att(391,115).
att(387,126).
att(167,160).
att(176,320).
att(165,155).
att(183,304).
att(244,777).
att(463,574).
att(152,181).
att(244,775).
att(156,165).
att(467,529).
att(122,480).
att(152,187).
att(177,360).
att(177,354).
att(450,717).
att(464,522).
att(280,651).
att(465,619).
att(354,378).
att(376,296).
att(406,91).
att(280,657).
att(111,247).
att(280,653).
att(380,262).
att(216,848).
att(406,81).
att(465,594).
att(383,220).
att(140,406).
att(467,628).
att(470,553).
att(467,626).
att(367,338).
att(470,563).
att(410,44).
att(138,398).
att(276,665).
att(394,166).
att(110,289).
att(103,251).
att(111,328).
att(385,192).
att(278,668).
att(369,336).
att(382,301).
att(148,413).
att(369,332).
att(150,403).
att(367,350).
att(369,343).
att(383,234).
att(273,615).
att(374,319).
att(469,559).
att(265,668).
att(391,164).
att(106,219).
att(111,276).
att(209,813).
att(404,48).
att(216,796).
att(468,569).
att(114,276).
att(273,605).
att(460,769).
att(219,804).
att(67,471).
att(263,657).
att(276,597).
att(461,628).
att(379,319).
att(389,159).
att(396,174).
att(263,653).
att(117,278).
att(106,265).
att(144,365).
att(377,228).
att(265,659).
att(102,209).
att(210,852).
att(467,553).
att(210,850).
att(459,704).
att(142,370).
att(470,578).
att(360,302).
att(142,442).
att(148,451).
att(306,446).
att(209,742).
att(379,253).
att(461,724).
att(464,658).
att(117,216).
att(146,458).
att(468,689).
att(464,641).
att(108,237).
att(412,71).
att(102,237).
att(196,744).
att(286,593).
att(102,233).
att(138,440).
att(410,73).
att(461,648).
att(467,686).
att(120,216).
att(132,426).
att(398,143).
att(310,437).
att(360,315).
att(138,434).
att(209,746).
att(374,315).
att(102,224).
att(132,421).
att(300,452).
att(144,421).
att(150,431).
att(210,800).
att(263,667).
att(392,266).
att(150,433).
att(106,162).
att(148,434).
att(374,275).
att(293,447).
att(383,264).
att(354,243).
att(374,282).
att(391,192).
att(466,594).
att(466,609).
att(464,670).
att(295,437).
att(412,83).
att(140,423).
att(374,268).
att(145,440).
att(145,432).
att(196,764).
att(219,756).
att(403,69).
att(367,315).
att(387,211).
att(297,448).
att(470,630).
att(470,639).
att(150,421).
att(304,443).
att(369,325).
att(377,274).
att(408,85).
att(210,811).
att(367,321).
att(392,211).
att(103,239).
att(142,415).
att(363,257).
att(392,194).
att(467,596).
att(463,670).
att(387,201).
att(467,609).
att(144,462).
att(283,744).
att(469,729).
att(142,467).
att(413,118).
att(354,439).
att(278,764).
att(110,376).
att(113,344).
att(175,152).
att(241,618).
att(360,437).
att(379,390).
att(476,574).
att(379,388).
att(476,572).
att(146,471).
att(276,783).
att(464,711).
att(175,156).
att(134,459).
att(379,397).
att(102,382).
att(265,818).
att(289,744).
att(398,172).
att(467,736).
att(471,579).
att(278,783).
att(410,112).
att(101,352).
att(181,229).
att(171,229).
att(478,521).
att(374,439).
att(401,188).
att(171,235).
att(127,339).
att(406,115).
att(354,399).
att(125,331).
att(473,535).
att(142,455).
att(148,464).
att(276,703).
att(360,386).
att(110,304).
att(142,451).
att(276,716).
att(283,772).
att(145,468).
att(412,143).
att(404,126).
att(278,706).
att(369,447).
att(408,147).
att(103,357).
att(463,724).
att(134,438).
att(467,658).
att(472,521).
att(367,439).
att(470,673).
att(410,137).
att(382,416).
att(171,162).
att(144,445).
att(462,736).
att(369,443).
att(374,395).
att(171,165).
att(265,754).
att(102,300).
att(144,442).
att(403,118).
att(117,293).
att(125,412).
att(119,387).
att(468,768).
att(476,637).
att(119,392).
att(406,228).
att(127,404).
att(177,171).
att(413,153).
att(469,773).
att(376,332).
att(106,330).
att(119,385).
att(181,179).
att(403,191).
att(415,159).
att(120,293).
att(357,422).
att(426,33).
att(286,693).
att(404,226).
att(426,41).
att(113,391).
att(179,183).
att(376,351).
att(108,330).
att(283,716).
att(412,161).
att(480,551).
att(423,44).
att(278,728).
att(128,374).
att(105,366).
att(176,120).
att(181,175).
att(103,298).
att(132,480).
att(183,187).
att(278,737).
att(363,414).
att(382,332).
att(417,46).
att(276,730).
att(415,182).
att(419,31).
att(470,717).
att(122,358).
att(423,31).
att(413,166).
att(423,39).
att(477,569).
att(171,189).
att(132,474).
att(127,391).
att(283,723).
att(476,567).
att(119,365).
att(477,571).
att(119,364).
att(280,726).
att(469,701).
att(473,559).
att(106,258).
att(374,373).
att(125,377).
att(108,247).
att(110,241).
att(464,768).
att(117,314).
att(123,387).
att(101,387).
att(128,308).
att(196,848).
att(263,703).
att(140,474).
att(123,380).
att(286,732).
att(463,768).
att(105,341).
att(286,730).
att(479,522).
att(187,179).
att(479,521).
att(110,249).
att(187,177).
att(403,151).
att(463,769).
att(276,649).
att(286,737).
att(415,118).
att(479,525).
att(280,695).
att(132,464).
att(106,314).
att(265,700).
att(101,380).
att(474,561).
att(462,763).
att(196,857).
att(289,739).
att(466,696).
att(404,281).
att(333,499).
att(421,61).
att(229,367).
att(473,676).
att(128,522).
att(473,670).
att(128,529).
att(213,227).
att(308,764).
att(415,217).
att(297,742).
att(297,741).
att(401,261).
att(478,613).
att(478,611).
att(308,789).
att(425,85).
att(479,624).
att(103,537).
att(128,574).
att(304,744).
att(193,200).
att(196,158).
att(300,783).
att(219,231).
att(120,523).
att(426,97).
att(200,175).
att(430,35).
att(480,626).
att(430,48).
att(235,369).
att(304,716).
att(427,33).
att(406,214).
att(480,635).
att(237,376).
att(293,772).
att(415,226).
att(425,93).
att(429,37).
att(213,156).
att(306,700).
att(429,35).
att(210,152).
att(297,762).
att(206,176).
att(425,31).
att(213,155).
att(410,240).
att(425,39).
att(423,81).
att(427,37).
att(474,606).
att(209,173).
att(413,221).
att(200,106).
att(419,185).
att(476,734).
att(304,739).
att(340,520).
att(425,104).
att(308,733).
att(206,128).
att(293,716).
att(479,650).
att(210,176).
att(339,514).
att(340,513).
att(472,714).
att(426,104).
att(429,139).
att(428,131).
att(478,658).
att(423,124).
att(471,727).
att(239,293).
att(425,136).
att(239,298).
att(478,641).
att(193,158).
att(219,173).
att(233,360).
att(421,115).
att(430,147).
att(480,641).
att(209,110).
att(193,167).
att(223,330).
att(474,727).
att(239,300).
att(427,137).
att(337,516).
att(328,849).
att(300,668).
att(426,139).
att(476,656).
att(300,665).
att(480,670).
att(415,274).
att(475,646).
att(331,520).
att(293,735).
att(419,104).
att(419,121).
att(328,842).
att(476,648).
att(415,264).
att(419,112).
att(472,734).
att(318,852).
att(239,324).
att(408,266).
att(237,320).
att(410,274).
att(231,254).
att(330,842).
att(233,297).
att(111,609).
att(265,108).
att(476,768).
att(426,166).
att(110,635).
att(433,39).
att(213,318).
att(280,108).
att(333,526).
att(354,728).
att(425,166).
att(110,625).
att(423,166).
att(360,733).
att(428,188).
att(345,510).
att(473,787).
att(363,728).
att(193,308).
att(300,848).
att(337,541).
att(196,256).
att(427,178).
att(363,723).
att(340,506).
att(344,520).
att(476,711).
att(111,630).
att(480,738).
att(206,270).
att(216,254).
att(428,185).
att(354,644).
att(308,796).
att(114,632).
att(108,569).
att(308,799).
att(475,692).
att(110,555).
att(219,258).
att(360,647).
att(423,180).
att(478,740).
att(295,859).
att(117,624).
att(216,260).
att(357,647).
att(427,109).
att(430,126).
att(421,178).
att(196,270).
att(210,311).
att(421,188).
att(200,242).
att(128,600).
att(382,688).
att(429,226).
att(354,685).
att(445,39).
att(306,813).
att(306,811).
att(106,589).
att(291,796).
att(440,33).
att(210,283).
att(434,83).
att(108,574).
att(216,283).
att(342,582).
att(216,280).
att(423,261).
att(114,555).
att(438,82).
att(106,571).
att(206,213).
att(438,89).
att(206,193).
att(433,71).
att(344,526).
att(379,595).
att(382,615).
att(298,849).
att(357,665).
att(310,813).
att(379,618).
att(117,561).
att(428,238).
att(210,244).
att(435,81).
att(103,559).
att(335,573).
att(430,236).
att(300,824).
att(421,220).
att(300,817).
att(128,628).
att(128,626).
att(213,210).
att(293,811).
att(426,232).
att(340,526).
att(111,572).
att(431,97).
att(480,773).
att(304,760).
att(345,545).
att(298,820).
att(369,599).
att(434,35).
att(114,571).
att(432,91).
att(354,593).
att(344,541).
att(479,773).
att(306,760).
att(344,545).
att(419,207).
att(333,575).
att(331,587).
att(209,229).
att(310,754).
att(478,790).
att(120,589).
att(423,236).
att(423,234).
att(423,222).
att(428,170).
att(433,31).
att(193,276).
att(300,760).
att(435,33).
att(304,815).
att(335,538).
att(102,537).
att(128,561).
att(102,535).
att(300,742).
att(427,157).
att(477,781).
att(311,789).
att(349,513).
att(225,175).
att(324,706).
att(344,562).
att(158,306).
att(438,147).
att(318,726).
att(333,612).
att(162,295).
att(162,293).
att(326,713).
att(365,491).
att(169,374).
att(314,789).
att(337,631).
att(342,554).
att(436,61).
att(162,304).
att(167,382).
att(341,565).
att(436,66).
att(318,716).
att(340,638).
att(434,137).
att(335,627).
att(345,566).
att(339,558).
att(425,266).
att(344,584).
att(249,857).
att(344,582).
att(333,640).
att(318,649).
att(239,102).
att(316,725).
att(429,192).
att(431,149).
att(229,114).
att(167,304).
att(331,633).
att(355,493).
att(432,149).
att(355,492).
att(160,316).
att(339,562).
att(429,207).
att(158,320).
att(227,114).
att(237,173).
att(162,320).
att(421,262).
att(152,312).
att(432,64).
att(169,295).
att(417,274).
att(432,71).
att(156,308).
att(239,171).
att(330,725).
att(318,733).
att(231,120).
att(158,247).
att(165,324).
att(154,278).
att(318,668).
att(324,649).
att(339,690).
att(256,846).
att(320,685).
att(165,312).
att(324,645).
att(438,178).
att(370,517).
att(438,186).
att(235,117).
att(326,649).
att(155,276).
att(342,687).
att(364,504).
att(169,328).
att(260,857).
att(328,659).
att(341,612).
att(328,657).
att(349,548).
att(434,180).
att(152,249).
att(345,604).
att(349,546).
att(330,649).
att(361,502).
att(333,674).
att(165,241).
att(249,826).
att(324,669).
att(344,629).
att(154,219).
att(158,265).
att(162,263).
att(258,806).
att(155,196).
att(258,804).
att(165,251).
att(337,664).
att(320,605).
att(326,685).
att(339,607).
att(260,808).
att(366,499).
att(442,133).
att(244,842).
att(328,678).
att(167,251).
att(244,850).
att(314,655).
att(337,604).
att(361,518).
att(368,496).
att(435,124).
att(326,668).
att(318,682).
att(340,614).
att(358,520).
att(345,638).
att(435,118).
att(440,149).
att(300,595).
att(312,849).
att(433,211).
att(225,276).
att(320,817).
att(445,161).
att(310,598).
att(436,226).
att(231,276).
att(451,41).
att(308,675).
att(451,48).
att(293,647).
att(297,647).
att(450,97).
att(450,91).
att(225,241).
att(295,651).
att(231,278).
att(365,545).
att(298,665).
att(438,159).
att(320,754).
att(320,746).
att(365,548).
att(224,237).
att(311,794).
att(227,209).
att(352,540).
att(304,593).
att(364,547).
att(310,615).
att(341,677).
att(308,593).
att(440,185).
att(432,153).
att(368,503).
att(298,657).
att(434,157).
att(440,184).
att(239,273).
att(233,209).
att(227,239).
att(320,789).
att(385,499).
att(233,203).
att(324,748).
att(377,497).
att(318,777).
att(459,82).
att(438,284).
att(314,811).
att(291,595).
att(368,570).
att(326,750).
att(453,131).
att(457,71).
att(235,200).
att(291,608).
att(326,748).
att(458,68).
att(352,640).
att(436,287).
att(312,813).
att(385,495).
att(293,598).
att(314,828).
att(442,207).
att(229,223).
att(233,265).
att(297,605).
att(311,800).
att(459,87).
att(225,216).
att(298,682).
att(380,491).
att(316,820).
att(324,818).
att(456,75).
att(434,266).
att(312,741).
att(364,580).
att(455,81).
att(155,291).
att(349,554).
att(158,360).
att(450,66).
att(442,194).
att(432,281).
att(453,75).
att(227,162).
att(453,71).
att(330,786).
att(152,354).
att(442,226).
att(435,194).
att(368,536).
att(365,590).
att(223,160).
att(370,536).
att(358,573).
att(365,587).
att(431,281).
att(431,266).
att(358,584).
att(450,71).
att(239,227).
att(254,273).
att(160,569).
att(181,765).
att(389,519).
att(396,497).
att(460,139).
att(242,254).
att(251,196).
att(251,206).
att(349,674).
att(355,662).
att(389,512).
att(459,141).
att(260,273).
att(385,520).
att(175,722).
att(179,714).
att(455,136).
att(455,133).
att(247,225).
att(450,109).
att(391,491).
att(176,734).
att(155,535).
att(453,104).
att(158,583).
att(165,567).
att(453,115).
att(179,704).
att(260,216).
att(160,571).
att(389,495).
att(160,576).
att(258,206).
att(440,262).
att(169,555).
att(380,512).
att(455,141).
att(169,553).
att(179,769).
att(169,563).
att(387,499).
att(370,565).
att(385,532).
att(391,541).
att(451,238).
att(391,549).
att(175,658).
att(242,203).
att(460,172).
att(260,233).
att(394,507).
att(456,170).
att(278,376).
att(160,535).
att(391,502).
att(451,159).
att(460,188).
att(459,174).
att(171,727).
att(449,221).
att(167,571).
att(380,524).
att(389,541).
att(455,166).
att(171,736).
att(249,177).
att(173,679).
att(276,298).
att(385,547).
att(392,503).
att(179,654).
att(247,179).
att(451,168).
att(165,533).
att(391,504).
att(175,673).
att(276,304).
att(286,354).
att(256,165).
att(389,504).
att(358,684).
att(366,601).
att(165,521).
att(256,155).
att(396,520).
att(361,687).
att(260,154).
att(177,736).
att(247,165).
att(459,104).
att(177,734).
att(387,510).
att(389,502).
att(189,729).
att(365,661).
att(450,170).
att(451,261).
att(249,310).
att(318,175).
att(154,676).
att(249,304).
att(463,61).
att(377,552).
att(392,582).
att(469,82).
att(457,204).
att(326,156).
att(383,570).
att(320,181).
att(152,641).
att(314,225).
att(328,162).
att(450,266).
att(328,160).
att(167,729).
att(314,233).
att(328,169).
att(466,95).
att(152,648).
att(463,73).
att(459,230).
att(152,658).
att(314,223).
att(470,31).
att(314,231).
att(449,261).
att(152,654).
att(456,207).
att(458,232).
att(316,171).
att(387,530).
att(465,87).
att(451,214).
att(241,374).
att(241,363).
att(160,663).
att(385,575).
att(457,238).
att(469,35).
att(244,360).
att(467,44).
att(314,156).
att(380,590).
att(389,538).
att(450,194).
att(396,544).
att(314,165).
att(160,666).
att(258,300).
att(260,293).
att(392,539).
att(314,154).
att(463,93).
att(387,540).
att(461,85).
att(401,512).
att(249,256).
att(254,318).
att(385,601).
att(249,254).
att(254,330).
att(385,614).
att(462,112).
att(398,507).
att(412,491).
att(242,291).
att(412,498).
att(241,304).
att(391,623).
att(412,495).
att(251,244).
att(391,629).
att(260,326).
att(459,281).
att(410,499).
att(326,108).
att(312,179).
att(249,311).
att(156,680).
att(247,312).
att(244,297).
att(175,765).
att(173,784).
att(251,273).
att(468,62).
att(383,629).
att(406,498).
att(457,284).
att(467,71).
att(470,85).
att(470,97).
att(396,577).
att(258,249).
att(260,242).
att(167,600).
att(251,278).
att(258,260).
att(463,133).
att(152,628).
att(247,244).
att(152,637).
att(380,633).
att(391,671).
att(270,224).
att(173,533).
att(106,738).
att(114,694).
att(466,172).
att(408,506).
att(117,701).
att(179,576).
att(276,239).
att(464,166).
att(110,722).
att(465,163).
att(110,721).
att(464,151).
att(391,674).
att(410,504).
att(103,694).
att(360,820).
att(463,151).
att(103,691).
att(181,576).
att(128,765).
att(354,800).
att(189,551).
att(369,804).
att(369,798).
att(270,193).
att(410,502).
att(278,231).
att(106,646).
att(280,239).
att(280,237).
att(396,604).
att(117,727).
att(412,516).
att(209,369).
att(283,227).
att(357,756).
att(117,734).
att(108,658).
att(367,824).
att(463,185).
att(389,610).
att(404,513).
att(187,583).
att(196,354).
att(379,775).
att(181,523).
att(379,772).
att(415,495).
att(389,620).
att(265,203).
att(374,744).
att(385,662).
att(466,115).
att(270,235).
att(374,742).
att(377,671).
att(111,711).
att(111,696).
att(463,180).
att(183,525).
att(187,571).
att(410,511).
att(382,789).
att(413,526).
att(465,211).
att(413,538).
att(404,586).
att(480,33).
att(206,308).
att(480,31).
att(117,656).
att(376,700).
att(461,261).
att(404,590).
att(376,716).
att(464,192).
att(471,83).
att(263,237).
att(470,161).
att(128,722).
att(263,235).
att(286,158).
att(470,157).
att(462,217).
att(189,523).
att(265,225).
att(374,762).
att(111,734).
att(102,676).
att(200,360).
att(478,48).
att(382,719).
att(466,222).
att(280,179).
att(469,159).
att(270,103).
att(270,120).
att(462,230).
att(473,44).
att(106,616).
att(111,673).
att(103,594).
att(209,314).
att(461,191).
att(468,157).
att(273,117).
att(203,320).
att(289,187).
att(410,543).
att(367,767).
att(463,222).
att(467,166).
att(219,291).
att(283,175).
att(394,681).
att(471,33).
att(265,165).
att(219,310).
att(467,161).
att(406,633).
att(476,149).
att(404,621).
att(421,491).
att(177,666).
att(421,497).
att(406,638).
att(247,114).
att(270,318).
att(176,616).
att(286,297).
att(419,515).
att(286,298).
att(412,562).
att(175,616).
att(171,663).
att(265,357).
att(417,498).
att(183,689).
att(280,363).
att(244,169).
att(280,369).
att(423,496).
att(183,666).
att(289,300).
att(260,189).
att(468,194).
att(283,314).
att(374,859).
att(270,249).
att(273,241).
att(374,855).
att(419,498).
att(464,271).
att(467,262).
att(479,83).
att(179,594).
att(179,609).
att(376,859).
att(464,264).
att(258,103).
att(479,33).
att(263,306).
att(183,613).
att(382,844).
att(479,41).
att(398,562).
att(173,611).
att(408,577).
att(413,587).
att(466,214).
att(403,564).
att(471,66).
att(408,590).
att(357,850).
att(354,855).
att(106,773).
att(480,129).
att(477,107).
att(171,553).
att(270,273).
att(427,511).
att(413,601).
att(357,859).
att(110,768).
att(429,520).
att(175,569).
att(429,519).
att(179,628).
att(187,596).
att(176,553).
att(289,241).
att(379,810).
att(471,188).
att(280,316).
att(265,330).
att(374,842).
att(270,244).
att(428,511).
att(474,178).
att(265,324).
att(406,607).
att(480,141).
att(280,270).
att(173,579).
att(354,798).
att(177,559).
att(415,638).
att(379,813).
att(404,601).
att(175,579).
att(379,811).
att(357,794).
att(187,624).
att(478,139).
att(382,824).
att(367,846).
att(187,637).
att(415,562).
att(270,283).
att(423,516).
att(183,555).
att(265,258).
att(363,806).
att(102,704).
att(340,27).
att(106,95).
att(430,542).
att(111,69).
att(293,310).
att(479,161).
att(306,318).
att(308,311).
att(419,584).
att(429,549).
att(472,217).
att(344,6).
att(479,166).
att(428,548).
att(308,320).
att(417,524).
att(342,5).
att(108,87).
att(103,69).
att(298,363).
att(193,656).
att(310,320).
att(360,183).
att(114,91).
att(426,549).
att(106,48).
att(426,548).
att(415,674).
att(108,35).
att(114,89).
att(213,609).
att(293,330).
att(308,254).
att(206,635).
att(429,503).
att(337,6).
att(360,111).
att(308,249).
att(295,324).
att(206,632).
att(335,7).
att(304,314).
att(413,687).
att(120,89).
att(477,190).
att(300,244).
att(196,637).
att(300,241).
att(474,170).
att(408,690).
att(229,761).
att(304,276).
att(429,588).
att(111,46).
att(335,52).
att(345,15).
att(426,565).
att(473,290).
att(342,58).
att(306,276).
att(308,265).
att(429,577).
att(213,628).
att(203,551).
att(213,626).
att(306,289).
att(331,50).
att(333,38).
att(476,274).
att(479,217).
att(210,622).
att(219,637).
att(474,284).
att(427,587).
att(477,191).
att(295,260).
att(428,586).
att(300,286).
att(304,242).
att(120,31).
att(473,281).
att(341,15).
att(216,625).
att(297,244).
att(340,15).
att(345,28).
att(227,696).
att(339,10).
att(306,209).
att(308,210).
att(231,691).
att(333,56).
att(237,761).
att(426,577).
att(203,583).
att(213,567).
att(216,553).
att(423,582).
att(231,704).
att(216,561).
att(206,574).
att(337,17).
att(239,761).
att(293,276).
att(213,553).
att(471,214).
att(225,784).
att(297,289).
att(337,12).
att(128,44).
att(297,283).
att(335,17).
att(421,587).
att(219,557).
att(225,763).
att(239,790).
att(106,184).
att(203,720).
att(344,49).
att(426,604).
att(431,510).
att(369,276).
att(265,553).
att(270,581).
att(339,90).
att(273,576).
att(379,193).
att(273,572).
att(117,164).
att(216,761).
att(442,495).
att(128,234).
att(219,781).
att(102,185).
att(187,46).
att(428,629).
att(360,265).
att(440,497).
att(128,232).
att(263,625).
att(263,624).
att(341,36).
att(213,711).
att(434,493).
att(479,281).
att(354,216).
att(374,229).
att(438,499).
att(265,578).
att(354,210).
att(434,496).
att(480,287).
att(103,107).
att(265,572).
att(421,633).
att(331,84).
att(283,585).
att(342,50).
att(417,617).
att(114,174).
att(273,523).
att(280,578).
att(206,724).
att(273,535).
att(331,99).
att(206,722).
att(270,521).
att(280,572).
att(479,284).
att(341,59).
att(263,557).
att(193,761).
att(342,56).
att(382,233).
att(379,229).
att(423,638).
att(379,225).
att(120,185).
att(342,59).
att(265,559).
att(480,264).
att(200,711).
att(200,696).
att(200,692).
att(219,701).
att(367,286).
att(429,671).
att(265,529).
att(280,531).
att(106,137).
att(339,145).
att(265,537).
att(331,105).
att(357,225).
att(331,119).
att(376,160).
att(365,3).
att(374,155).
att(374,154).
att(203,648).
att(110,135).
att(442,504).
att(110,133).
att(435,550).
att(110,149).
att(310,369).
att(102,135).
att(382,154).
att(111,186).
att(440,503).
att(196,646).
att(434,550).
att(286,522).
att(335,140).
att(310,382).
att(435,548).
att(349,3).
att(431,544).
att(106,73).
att(210,648).
att(213,641).
att(339,78).
att(438,508).
att(210,646).
att(440,513).
att(102,82).
att(108,75).
att(213,658).
att(425,684).
att(341,96).
att(367,235).
att(310,306).
att(117,136).
att(436,513).
att(110,73).
att(360,165).
att(423,664).
att(117,141).
att(432,508).
att(265,535).
att(300,310).
att(304,363).
att(369,237).
att(193,729).
att(265,533).
att(300,308).
att(440,515).
att(193,727).
att(421,671).
att(440,514).
att(128,121).
att(300,304).
att(421,690).
att(196,689).
att(263,525).
att(345,100).
att(193,736).
att(382,179).
att(367,239).
att(421,681).
att(423,677).
att(233,609).
att(227,639).
att(355,59).
att(355,58).
att(225,622).
att(154,773).
att(370,28).
att(154,790).
att(223,555).
att(434,575).
att(438,587).
att(235,619).
att(291,117).
att(233,596).
att(326,258).
att(436,588).
att(291,111).
att(237,596).
att(440,539).
att(330,244).
att(328,249).
att(361,17).
att(432,586).
att(237,616).
att(328,258).
att(231,632).
att(366,30).
att(368,23).
att(324,278).
att(225,555).
att(339,130).
att(349,15).
att(370,8).
att(158,768).
att(324,286).
att(365,29).
att(328,280).
att(364,28).
att(162,761).
att(433,586).
att(227,563).
att(339,116).
att(368,6).
att(436,544).
att(358,27).
att(349,17).
att(366,2).
att(366,8).
att(435,528).
att(223,569).
att(366,7).
att(435,526).
att(440,548).
att(345,148).
att(361,21).
att(368,4).
att(224,523).
att(436,634).
att(326,193).
att(433,617).
att(438,627).
att(158,711).
att(318,231).
att(355,100).
att(158,694).
att(438,636).
att(349,98).
att(458,493).
att(155,729).
att(160,714).
att(311,276).
att(229,576).
att(451,496).
att(312,278).
att(435,621).
att(453,491).
att(358,40).
att(154,696).
att(239,559).
att(314,276).
att(435,631).
att(365,56).
att(154,648).
att(433,634).
att(433,621).
att(316,224).
att(358,52).
att(445,584).
att(434,564).
att(162,722).
att(352,36).
att(167,711).
att(432,636).
att(433,631).
att(227,535).
att(449,491).
att(330,237).
att(169,714).
att(328,229).
att(442,582).
att(167,701).
att(328,225).
att(167,720).
att(442,588).
att(450,496).
att(330,223).
att(434,568).
att(169,704).
att(361,51).
att(366,14).
att(152,736).
att(434,565).
att(156,691).
att(224,648).
att(449,549).
att(304,239).
att(370,90).
att(320,357).
att(438,681).
att(231,721).
att(293,219).
att(237,696).
att(293,216).
att(457,507).
att(200,521).
att(364,72).
att(440,617).
att(310,235).
att(440,591).
att(213,578).
att(457,516).
att(213,574).
att(435,662).
att(224,734).
att(227,691).
att(193,559).
att(225,717).
att(310,224).
att(224,722).
att(196,531).
att(450,547).
att(239,704).
att(295,209).
att(209,537).
att(219,589).
att(451,502).
att(436,612).
att(433,684).
att(349,67).
att(365,98).
att(433,664).
att(227,641).
att(297,162).
att(436,610).
att(368,99).
att(449,502).
att(458,516).
att(227,650).
att(432,662).
att(449,501).
att(434,591).
att(457,493).
att(308,160).
att(216,531).
att(432,610).
att(352,88).
att(233,696).
att(193,589).
att(349,80).
att(460,493).
att(310,160).
att(358,92).
att(361,90).
att(366,36).
att(318,354).
att(456,519).
att(227,670).
att(291,167).
att(385,18).
att(300,106).
att(304,177).
att(300,120).
att(365,122).
att(224,613).
att(324,304).
att(293,156).
att(391,28).
att(368,130).
att(451,587).
att(453,573).
att(227,679).
att(312,363).
att(458,528).
att(458,526).
att(364,116).
att(458,524).
att(318,298).
att(316,367).
att(361,116).
att(396,5).
att(306,175).
att(293,158).
att(455,536).
att(300,187).
att(387,30).
att(295,162).
att(308,176).
att(235,680).
att(326,324).
att(227,619).
att(233,676).
att(298,171).
att(355,130).
att(291,176).
att(291,175).
att(361,101).
att(312,295).
att(291,177).
att(366,74).
att(316,293).
att(460,510).
att(328,320).
att(293,181).
att(306,106).
att(224,611).
att(300,128).
att(387,7).
att(387,6).
att(450,538).
att(455,546).
att(456,545).
att(358,140).
att(389,1).
att(450,532).
att(239,670).
att(308,108).
att(449,623).
att(385,43).
att(160,115).
att(155,143).
att(241,717).
att(155,141).
att(160,124).
att(453,629).
att(158,115).
att(314,581).
att(162,115).
att(450,634).
att(155,136).
att(167,190).
att(258,740).
att(460,588).
att(244,701).
att(387,53).
att(459,573).
att(152,112).
att(244,714).
att(247,722).
att(162,121).
att(175,284).
att(385,60).
att(158,149).
att(154,73).
att(385,58).
att(154,71).
att(156,143).
att(173,290).
att(249,663).
att(254,656).
att(311,525).
att(451,568).
att(453,552).
att(251,663).
att(167,118).
att(383,10).
att(456,587).
att(451,586).
att(160,143).
att(258,660).
att(152,143).
att(394,28).
att(450,562).
att(455,590).
att(314,525).
att(380,53).
att(456,573).
att(154,83).
att(249,616).
att(391,99).
att(247,594).
att(249,613).
att(449,677).
att(449,674).
att(244,679).
att(377,76).
att(392,92).
att(464,507).
att(258,663).
att(241,654).
att(176,191).
att(154,87).
att(183,287).
att(456,614).
att(461,507).
att(167,137).
att(176,204).
att(451,604).
att(169,131).
att(387,84).
att(387,98).
att(463,508).
att(387,94).
att(380,76).
att(467,520).
att(169,149).
att(154,44).
att(177,204).
att(463,517).
att(158,81).
att(187,266).
att(249,625).
att(241,663).
att(256,616).
att(158,93).
att(181,192).
att(457,636).
att(456,629).
att(160,81).
att(394,58).
att(183,217).
att(258,600).
att(396,60).
att(169,64).
att(455,636).
att(459,558).
att(464,493).
att(324,606).
att(154,230).
att(224,46).
att(158,214).
att(223,35).
att(312,670).
att(406,23).
att(383,119).
att(464,539).
att(224,31).
att(326,600).
att(469,545).
att(320,632).
att(469,543).
att(227,93).
att(380,116).
att(162,220).
att(169,266).
att(167,274).
att(229,85).
att(312,666).
att(162,214).
att(398,30).
att(464,547).
att(156,264).
att(377,125).
att(380,105).
att(377,123).
att(459,671).
att(237,66).
att(251,763).
att(385,144).
att(225,39).
att(401,8).
att(457,661).
att(469,507).
att(249,768).
att(377,132).
att(403,3).
att(328,635).
att(404,9).
att(251,784).
att(383,138).
att(155,170).
att(165,217).
att(158,228).
att(326,635).
att(162,228).
att(461,549).
att(237,95).
att(167,201).
att(229,46).
att(154,222).
att(239,85).
att(316,603).
att(466,508).
att(467,501).
att(463,548).
att(459,607).
att(152,238).
att(314,594).
att(398,4).
att(459,620).
att(413,16).
att(233,46).
att(154,182).
att(465,566).
att(413,13).
att(154,178).
att(326,551).
att(412,10).
att(258,781).
att(235,44).
att(464,566).
att(233,41).
att(468,588).
att(165,236).
att(406,53).
att(464,577).
att(314,635).
att(258,787).
att(247,784).
att(408,19).
att(314,624).
att(403,54).
att(169,228).
att(324,583).
att(465,588).
att(249,736).
att(392,122).
att(254,717).
att(152,107).
att(401,13).
att(254,711).
att(318,531).
att(326,585).
att(412,26).
att(396,125).
att(465,586).
att(241,768).
att(241,765).
att(244,763).
att(314,557).
att(464,530).
att(169,164).
att(260,711).
att(314,569).
att(461,590).
att(167,170).
att(326,576).
att(169,163).
att(392,123).
att(169,161).
att(403,14).
att(394,134).
att(467,524).
att(387,113).
att(470,545).
att(328,576).
att(413,40).
att(477,498).
att(106,290).
att(398,70).
att(175,62).
att(476,520).
att(465,607).
att(276,663).
att(404,99).
att(469,623).
att(403,94).
att(398,88).
att(403,99).
att(404,32).
att(472,517).
att(176,71).
att(278,683).
att(187,129).
att(472,515).
att(263,722).
att(408,49).
att(374,369).
att(408,45).
att(189,112).
att(467,633).
att(183,143).
att(463,617).
att(117,261).
att(108,194).
att(401,32).
att(406,45).
att(106,204).
att(171,85).
att(177,71).
att(369,300).
att(408,51).
att(106,214).
att(280,680).
att(283,679).
att(415,57).
att(470,565).
att(472,518).
att(179,64).
att(468,570).
att(406,38).
att(286,679).
att(187,149).
att(286,689).
att(382,311).
att(412,12).
att(415,19).
att(175,87).
att(470,588).
att(474,499).
att(103,290).
att(466,566).
att(369,354).
att(408,57).
att(176,89).
att(278,609).
att(374,251).
att(171,33).
att(177,85).
att(280,600).
att(413,74).
att(477,503).
att(276,626).
att(404,142).
att(376,247).
att(404,138).
att(183,95).
att(278,628).
att(286,609).
att(120,220).
att(278,639).
att(181,85).
att(398,132).
att(120,214).
att(417,9).
att(464,677).
att(111,290).
att(363,318).
att(477,507).
att(189,75).
att(369,295).
att(471,544).
att(480,520).
att(480,519).
att(114,238).
att(270,553).
att(203,781).
att(406,78).
att(265,622).
att(401,76).
att(357,247).
att(410,77).
att(179,41).
att(472,548).
att(206,790).
att(376,276).
att(379,265).
att(470,591).
att(117,234).
att(177,34).
att(283,639).
att(357,241).
att(263,603).
att(367,326).
att(379,278).
att(471,508).
att(283,625).
att(410,100).
att(379,286).
att(461,684).
att(106,234).
att(374,242).
att(413,99).
att(466,601).
att(102,153).
att(189,95).
att(196,790).
att(401,78).
att(466,617).
att(128,204).
att(462,661).
att(466,612).
att(289,639).
att(179,234).
att(480,539).
att(423,12).
att(429,21).
att(479,524).
att(181,238).
att(276,768).
att(183,236).
att(187,201).
att(241,606).
att(475,536).
att(410,127).
att(417,17).
att(427,27).
att(173,222).
att(427,25).
att(477,532).
att(428,23).
att(478,526).
att(177,192).
att(177,191).
att(173,184).
att(173,182).
att(280,773).
att(413,144).
att(177,159).
att(474,530).
att(177,157).
att(286,781).
att(425,29).
att(476,526).
att(476,524).
att(249,572).
att(415,146).
att(476,538).
att(276,696).
att(283,787).
att(430,2).
att(167,35).
att(241,625).
att(176,184).
att(417,26).
att(470,674).
att(165,41).
att(187,226).
att(286,790).
att(289,761).
att(472,526).
att(181,161).
att(427,7).
att(169,37).
att(173,151).
att(260,551).
att(167,33).
att(478,543).
att(401,125).
att(258,556).
att(401,123).
att(423,29).
att(173,129).
att(247,533).
att(479,552).
att(176,124).
att(187,164).
att(251,531).
att(254,576).
att(425,50).
att(429,60).
att(247,522).
att(478,558).
att(251,529).
att(263,790).
att(278,727).
att(176,121).
att(183,190).
att(241,553).
att(187,157).
att(251,537).
att(278,724).
att(286,717).
att(429,11).
att(270,720).
att(265,781).
att(179,112).
att(374,382).
att(173,147).
att(427,10).
att(177,112).
att(263,692).
att(417,43).
att(475,558).
att(472,627).
att(278,648).
att(278,658).
att(415,105).
att(181,121).
att(276,652).
att(242,571).
att(280,694).
att(428,12).
att(260,535).
att(477,588).
att(474,570).
att(210,232).
att(203,170).
att(374,561).
att(429,100).
att(210,226).
att(203,151).
att(265,48).
att(367,625).
att(308,784).
att(433,8).
att(475,690).
att(117,540).
att(280,31).
att(425,70).
att(429,84).
att(433,9).
att(106,543).
att(360,639).
att(423,80).
att(379,561).
att(310,765).
att(357,632).
att(417,76).
att(425,90).
att(108,545).
att(110,546).
att(357,630).
att(417,74).
att(108,544).
att(425,86).
att(300,787).
att(367,609).
att(421,70).
att(102,542).
att(363,637).
att(473,662).
att(219,228).
att(477,612).
att(209,163).
att(219,240).
att(360,630).
att(428,88).
att(354,567).
att(429,50).
att(419,77).
att(210,157).
att(426,100).
att(421,84).
att(477,623).
att(196,104).
att(417,70).
att(354,555).
att(475,620).
att(106,501).
att(293,768).
att(213,168).
att(357,555).
att(417,88).
att(478,640).
att(357,563).
att(471,620).
att(357,561).
att(421,92).
att(423,88).
att(219,159).
att(478,623).
att(360,563).
att(382,579).
att(120,549).
att(426,122).
att(429,138).
att(434,22).
att(304,729).
att(203,124).
att(426,130).
att(210,186).
att(300,648).
att(298,720).
att(213,184).
att(295,691).
att(203,107).
att(376,531).
att(425,113).
att(210,174).
att(433,17).
att(117,502).
att(310,738).
att(360,589).
att(432,26).
att(117,503).
att(357,585).
att(433,23).
att(428,150).
att(298,784).
att(102,520).
att(297,717).
att(360,574).
att(435,26).
att(382,533).
att(297,711).
att(442,8).
att(435,29).
att(479,681).
att(480,671).
att(128,513).
att(291,724).
att(430,72).
att(426,145).
att(206,149).
att(417,125).
att(417,101).
att(429,76).
att(210,107).
att(213,126).
att(431,28).
att(209,141).
att(427,78).
att(297,721).
att(117,516).
att(295,734).
att(478,662).
att(297,731).
att(360,522).
att(193,180).
att(363,531).
att(209,136).
att(297,738).
att(360,525).
att(478,677).
att(173,495).
att(433,50).
att(270,133).
att(434,56).
att(369,731).
att(106,640).
att(171,496).
att(376,650).
att(357,736).
att(438,56).
att(108,627).
att(179,520).
att(177,511).
att(360,729).
att(176,495).
att(176,499).
att(106,591).
att(189,503).
att(382,652).
att(128,677).
att(187,501).
att(278,143).
att(286,109).
att(376,680).
att(445,28).
att(265,136).
att(265,135).
att(440,22).
att(206,274).
att(436,19).
att(209,261).
att(436,18).
att(206,287).
att(273,62).
att(177,492).
att(376,686).
att(102,570).
att(187,515).
att(278,73).
att(289,147).
att(442,25).
att(196,262).
att(442,30).
att(181,497).
att(379,689).
att(433,11).
att(427,105).
att(183,498).
att(102,564).
att(263,104).
att(103,636).
att(120,633).
att(213,281).
att(270,87).
att(106,580).
att(354,663).
att(369,676).
att(289,82).
att(445,47).
att(210,284).
att(434,84).
att(357,686).
att(357,683).
att(114,564).
att(206,194).
att(438,86).
att(187,496).
att(367,654).
att(379,619).
att(363,673).
att(435,90).
att(265,149).
att(196,220).
att(289,73).
att(187,498).
att(286,66).
att(203,226).
att(357,600).
att(108,524).
att(436,49).
att(436,47).
att(216,192).
att(280,81).
att(436,45).
att(376,639).
att(280,83).
att(110,528).
att(196,222).
att(367,683).
att(193,261).
att(276,41).
att(117,575).
att(276,35).
att(283,89).
att(108,528).
att(209,222).
att(382,625).
att(434,47).
att(265,79).
att(435,38).
att(442,52).
att(196,234).
att(311,787).
att(320,738).
att(433,123).
att(455,7).
att(311,765).
att(320,724).
att(224,126).
att(456,4).
att(436,132).
att(458,4).
att(432,127).
att(291,551).
att(432,123).
att(316,763).
att(435,138).
att(295,569).
att(237,159).
att(306,571).
att(314,781).
att(328,717).
att(432,140).
att(223,184).
att(435,134).
att(440,72).
att(223,186).
att(227,112).
att(298,574).
att(304,535).
att(431,134).
att(233,190).
att(324,740).
att(297,525).
att(445,96).
att(225,115).
att(442,77).
att(235,184).
att(237,180).
att(318,740).
att(445,100).
att(310,525).
att(295,574).
att(435,63).
att(223,124).
att(231,121).
att(295,583).
att(440,100).
att(233,121).
att(298,533).
att(450,55).
att(455,19).
att(451,57).
att(453,54).
att(457,17).
att(311,731).
att(326,658).
att(453,57).
att(293,521).
att(328,650).
att(453,11).
att(225,129).
att(295,522).
att(459,25).
att(460,23).
att(295,537).
att(293,522).
att(440,130).
att(158,290).
att(326,663).
att(458,29).
att(445,134).
att(155,192).
att(223,87).
att(233,147).
att(453,16).
att(227,68).
att(227,66).
att(453,13).
att(311,650).
att(438,105).
att(451,27).
att(451,26).
att(453,22).
att(432,116).
att(239,131).
att(434,113).
att(152,271).
att(200,66).
att(291,656).
att(300,594).
att(196,89).
att(227,281).
att(227,262).
att(231,261).
att(293,654).
att(210,135).
att(291,650).
att(453,96).
att(306,686).
att(223,262).
att(460,60).
att(206,73).
att(451,45).
att(224,264).
att(210,75).
att(291,689).
att(453,50).
att(227,217).
att(291,663).
att(193,64).
att(450,42).
att(224,236).
att(213,62).
att(203,87).
att(213,73).
att(237,266).
att(210,64).
att(304,594).
att(231,194).
att(300,616).
att(219,62).
att(196,91).
att(450,47).
att(239,274).
att(216,68).
att(295,679).
att(300,556).
att(300,555).
att(449,134).
att(227,234).
att(300,561).
att(455,76).
att(229,240).
att(235,201).
att(291,609).
att(457,70).
att(229,234).
att(225,220).
att(460,90).
att(453,80).
att(233,240).
att(300,585).
att(326,761).
att(326,769).
att(451,70).
att(235,232).
att(235,228).
att(451,77).
att(453,63).
att(224,174).
att(293,625).
att(237,230).
att(293,624).
att(295,637).
att(231,168).
att(193,93).
att(225,238).
att(225,236).
att(308,556).
att(223,164).
att(311,149).
att(324,69).
att(154,588).
att(152,573).
att(154,587).
att(254,281).
att(155,575).
att(320,89).
att(468,29).
att(465,13).
att(311,143).
att(251,211).
att(462,11).
att(256,287).
att(169,638).
att(460,144).
att(167,629).
att(160,564).
att(465,21).
att(247,290).
att(316,141).
att(247,284).
att(318,41).
att(449,119).
att(152,526).
att(455,132).
att(451,130).
att(324,82).
att(256,201).
att(457,150).
att(311,71).
att(241,262).
att(453,113).
att(457,146).
att(169,568).
att(260,217).
att(328,83).
att(242,290).
att(464,6).
att(326,87).
att(316,69).
att(459,76).
att(169,562).
att(314,75).
att(154,542).
att(247,153).
att(462,47).
att(152,542).
att(254,234).
att(258,221).
att(311,97).
att(462,42).
att(465,43).
att(162,532).
att(468,16).
att(156,588).
att(464,52).
att(469,18).
att(254,157).
att(156,547).
att(466,13).
att(156,546).
att(241,240).
att(241,234).
att(154,505).
att(249,182).
att(461,53).
att(312,44).
att(464,17).
att(254,222).
att(162,541).
att(459,113).
att(162,549).
att(225,545).
att(233,536).
att(318,184).
att(154,690).
att(324,168).
att(154,687).
att(465,76).
att(227,549).
att(465,74).
att(298,41).
att(324,153).
att(231,548).
att(239,539).
att(229,541).
att(328,159).
att(235,526).
att(239,526).
att(316,240).
att(231,542).
att(470,42).
att(239,540).
att(155,614).
att(158,661).
att(466,49).
att(162,661).
att(311,153).
att(155,620).
att(465,94).
att(225,501).
att(152,661).
att(229,506).
att(229,504).
att(318,190).
att(316,170).
att(314,163).
att(467,47).
att(324,121).
att(469,142).
att(225,518).
att(478,4).
att(326,121).
att(480,3).
att(468,142).
att(155,640).
att(233,504).
att(320,141).
att(473,21).
att(311,178).
att(468,146).
att(461,105).
att(475,8).
att(229,517).
att(475,5).
att(162,614).
att(462,125).
att(474,25).
att(239,503).
att(165,591).
att(249,287).
att(318,73).
att(247,274).
att(155,552).
att(235,520).
att(464,150).
att(165,604).
att(251,287).
att(464,145).
att(476,9).
att(229,491).
att(312,121).
att(464,76).
att(229,499).
att(474,5).
att(466,70).
att(156,612).
att(471,1).
att(231,495).
att(477,12).
att(273,236).
att(473,60).
att(171,530).
att(171,528).
att(286,211).
att(179,575).
att(249,44).
att(187,554).
att(289,217).
att(475,16).
att(251,37).
att(251,35).
att(476,12).
att(479,28).
att(241,73).
att(286,217).
att(472,53).
att(270,214).
att(189,560).
att(183,573).
att(258,89).
att(475,12).
att(242,73).
att(179,539).
att(477,27).
att(171,544).
att(478,24).
att(374,781).
att(175,548).
att(286,221).
att(473,11).
att(480,27).
att(276,151).
att(263,204).
att(242,91).
att(265,191).
att(471,18).
att(475,26).
att(382,765).
att(181,524).
att(276,163).
att(472,14).
att(244,95).
att(260,39).
att(244,93).
att(265,220).
att(289,230).
att(278,153).
att(179,550).
att(472,72).
att(376,704).
att(108,674).
att(357,781).
att(175,507).
att(179,549).
att(187,526).
att(189,539).
att(241,31).
att(242,44).
att(382,714).
att(475,40).
att(183,550).
att(379,704).
att(382,692).
att(286,170).
att(475,47).
att(189,528).
att(270,170).
att(171,548).
att(189,526).
att(265,228).
att(270,164).
att(474,96).
att(114,690).
att(473,49).
att(108,604).
att(357,711).
att(376,727).
att(354,704).
att(289,186).
att(102,614).
att(471,43).
att(367,761).
att(175,517).
att(374,691).
att(265,168).
att(263,163).
att(289,190).
att(480,74).
att(480,72).
att(154,518).
att(477,65).
att(244,172).
att(155,514).
att(181,684).
att(154,517).
att(480,67).
att(471,132).
att(478,78).
att(155,512).
att(171,674).
att(169,548).
att(260,182).
att(247,136).
att(173,629).
att(173,640).
att(152,496).
att(173,636).
att(473,80).
att(183,591).
att(256,121).
att(476,67).
att(251,149).
att(256,129).
att(181,592).
att(478,92).
att(189,681).
att(475,88).
att(155,493).
att(155,491).
att(183,614).
att(155,498).
att(173,612).
att(244,178).
att(171,617).
att(167,506).
att(474,80).
att(242,182).
att(254,137).
att(177,631).
att(247,71).
att(270,271).
att(181,627).
att(158,496).
att(156,493).
att(179,633).
att(160,491).
att(181,631).
att(183,621).
att(477,113).
att(167,516).
att(179,565).
att(473,116).
att(273,192).
att(480,146).
att(256,62).
att(181,566).
att(476,116).
att(189,636).
att(176,573).
att(251,89).
att(165,492).
att(251,83).
att(479,67).
att(278,194).
att(167,498).
att(270,261).
att(478,142).
att(106,84).
att(114,70).
att(374,121).
att(213,664).
att(270,515).
att(533,838).
att(265,505).
att(289,513).
att(270,519).
att(533,834).
att(265,503).
att(529,856).
att(357,188).
att(537,836).
att(354,184).
att(523,834).
att(102,99).
att(110,86).
att(263,550).
att(521,841).
att(128,132).
att(265,546).
att(278,511).
att(533,875).
att(289,509).
att(187,1).
att(187,7).
att(278,520).
att(522,843).
att(527,805).
att(114,100).
att(280,519).
att(363,135).
att(196,554).
att(265,514).
att(103,36).
att(263,513).
att(537,845).
att(273,497).
att(108,45).
att(535,856).
att(120,96).
att(128,78).
att(360,115).
att(219,592).
att(276,495).
att(283,515).
att(196,633).
att(219,607).
att(103,99).
att(265,492).
att(265,491).
att(522,751).
att(525,827).
att(300,201).
att(535,802).
att(203,554).
att(529,816).
att(535,805).
att(535,803).
att(114,47).
att(213,638).
att(106,54).
att(280,495).
att(209,562).
att(537,801).
att(206,564).
att(102,56).
att(382,66).
att(111,99).
att(263,517).
att(531,854).
att(360,133).
att(310,274).
att(209,552).
att(219,627).
att(263,520).
att(523,805).
att(531,843).
att(114,57).
att(369,66).
att(535,812).
att(106,19).
att(363,82).
att(300,232).
att(203,577).
att(529,753).
att(376,91).
att(114,60).
att(210,554).
att(354,71).
att(110,15).
att(110,14).
att(209,587).
att(295,266).
att(354,61).
att(219,554).
att(304,262).
att(382,83).
att(367,141).
att(128,47).
att(209,577).
att(219,562).
att(193,636).
att(196,588).
att(128,43).
att(297,281).
att(173,13).
att(270,586).
att(581,816).
att(273,577).
att(576,747).
att(177,51).
att(283,566).
att(183,58).
att(571,757).
att(181,55).
att(181,54).
att(571,745).
att(189,36).
att(189,45).
att(522,884).
att(278,586).
att(522,882).
att(374,232).
att(527,870).
att(171,21).
att(171,28).
att(574,771).
att(581,745).
att(189,10).
att(369,201).
att(283,573).
att(273,530).
att(581,752).
att(176,26).
att(363,191).
att(525,889).
att(276,528).
att(360,194).
att(578,771).
att(110,130).
att(270,590).
att(265,558).
att(187,52).
att(382,230).
att(181,12).
att(376,164).
att(376,151).
att(106,142).
att(354,236).
att(581,785).
att(111,116).
att(579,771).
att(175,5).
att(276,550).
att(280,528).
att(179,29).
att(106,134).
att(354,226).
att(374,153).
att(176,7).
att(175,4).
att(360,240).
att(110,140).
att(533,888).
att(103,130).
att(176,3).
att(263,586).
att(286,530).
att(531,882).
att(120,122).
att(280,549).
att(581,718).
att(111,134).
att(280,547).
att(177,5).
att(581,712).
att(357,157).
att(273,506).
att(354,153).
att(357,166).
att(376,190).
att(529,832).
att(206,664).
att(527,840).
att(376,186).
att(581,702).
att(382,188).
att(367,222).
att(531,866).
att(357,153).
att(110,72).
att(181,5).
att(585,709).
att(572,707).
att(263,530).
att(102,63).
att(183,8).
att(103,148).
att(196,687).
att(103,146).
att(181,4).
att(263,538).
att(367,240).
att(525,876).
att(300,68).
att(210,518).
att(320,281).
att(225,629).
att(210,512).
att(306,141).
att(227,633).
att(213,511).
att(216,518).
att(193,509).
att(298,188).
att(225,617).
att(310,131).
att(223,640).
att(239,620).
att(326,266).
att(320,214).
att(225,560).
att(300,93).
att(210,494).
att(237,621).
att(306,73).
att(291,131).
att(304,61).
att(304,68).
att(326,290).
att(235,638).
att(237,631).
att(328,271).
att(293,139).
att(298,124).
att(219,499).
att(231,554).
att(318,264).
att(300,41).
att(223,530).
att(318,230).
att(324,214).
att(311,261).
att(227,573).
att(224,526).
att(237,554).
att(316,262).
att(295,61).
att(239,570).
att(326,234).
att(304,46).
att(298,97).
att(225,536).
att(312,194).
att(293,87).
att(306,39).
att(225,590).
att(310,44).
att(103,23).
att(374,46).
att(525,774).
att(531,752).
att(304,238).
att(196,542).
att(306,232).
att(106,28).
att(203,536).
att(306,236).
att(219,588).
att(379,35).
att(523,743).
att(521,782).
att(216,580).
att(216,590).
att(535,751).
att(196,538).
att(298,287).
att(382,39).
att(128,54).
att(193,560).
att(367,62).
att(379,41).
att(219,590).
att(203,546).
att(111,27).
att(527,709).
att(291,236).
att(304,159).
att(304,170).
att(298,228).
att(297,153).
att(224,684).
att(108,6).
att(354,41).
att(293,222).
att(114,29).
att(210,524).
att(219,539).
att(310,166).
att(206,545).
att(117,27).
att(295,222).
att(308,170).
att(354,31).
att(298,214).
att(522,718).
att(193,580).
att(196,547).
att(209,541).
att(117,24).
att(200,506).
att(196,517).
att(300,121).
att(225,671).
att(231,662).
att(229,671).
att(535,699).
att(293,168).
att(210,545).
att(533,705).
att(206,506).
att(537,718).
att(535,705).
att(224,681).
att(523,707).
att(531,788).
att(297,157).
att(523,702).
att(209,506).
att(310,182).
att(297,166).
att(300,141).
att(203,517).
att(293,188).
att(306,118).
att(213,508).
att(203,514).
att(213,507).
att(231,604).
att(308,104).
att(293,182).
att(225,687).
att(155,145).
att(324,536).
att(626,770).
att(318,547).
att(330,541).
att(312,580).
att(563,861).
att(569,885).
att(311,573).
att(625,705).
att(233,16).
att(160,123).
att(326,540).
att(630,779).
att(326,539).
att(162,119).
att(231,29).
att(160,122).
att(626,753).
att(559,889).
att(667,490).
att(561,871).
att(156,134).
att(324,547).
att(154,72).
att(154,80).
att(152,63).
att(318,507).
att(235,29).
att(251,690).
att(227,6).
att(251,687).
att(311,538).
att(165,130).
att(251,681).
att(233,26).
att(557,868).
att(314,532).
att(557,866).
att(637,778).
att(312,526).
att(326,545).
att(251,677).
att(626,785).
att(559,867).
att(622,718).
att(152,148).
att(169,113).
att(330,513).
att(254,687).
att(330,517).
att(235,5).
att(567,874).
att(320,515).
att(567,877).
att(154,86).
att(569,879).
att(639,712).
att(260,662).
att(328,507).
att(569,871).
att(165,134).
att(152,72).
att(152,80).
att(260,674).
att(162,63).
att(256,592).
att(555,795).
att(167,77).
att(311,505).
att(567,834).
att(241,681).
att(158,94).
att(241,661).
att(242,671).
att(328,520).
att(160,86).
att(165,65).
att(551,853).
att(152,99).
att(320,627).
att(625,803).
att(297,511).
att(225,94).
att(624,807).
att(297,520).
att(635,840).
att(298,506).
att(314,674).
att(237,63).
att(239,77).
att(632,860).
att(624,847).
att(295,504).
att(310,519).
att(626,834).
att(320,558).
att(297,492).
att(223,56).
att(298,518).
att(297,495).
att(624,827).
att(295,493).
att(306,495).
att(326,629).
att(311,610).
att(312,592).
att(233,86).
att(298,511).
att(311,604).
att(293,511).
att(314,620).
att(237,94).
att(328,629).
att(235,88).
att(314,592).
att(306,496).
att(318,636).
att(293,513).
att(330,627).
att(628,819).
att(555,887).
att(326,552).
att(229,57).
att(326,560).
att(233,42).
att(225,51).
att(324,552).
att(314,640).
att(291,494).
att(637,802).
att(235,42).
att(231,51).
att(330,560).
att(239,43).
att(625,782).
att(233,59).
att(555,869).
att(624,778).
att(625,779).
att(316,577).
att(624,771).
att(555,861).
att(561,885).
att(628,743).
att(559,882).
att(312,558).
att(563,882).
att(233,51).
att(625,776).
att(155,116).
att(224,28).
att(227,19).
att(233,53).
att(324,573).
att(553,885).
att(229,16).
att(632,747).
att(622,751).
att(553,882).
att(622,759).
att(330,582).
att(557,698).
att(177,132).
att(169,1).
att(156,20).
att(585,877).
att(256,546).
att(254,542).
att(559,702).
att(167,26).
att(183,140).
att(258,542).
att(176,63).
att(563,718).
att(571,837).
att(251,503).
att(563,712).
att(247,550).
att(553,709).
att(260,543).
att(177,123).
att(258,541).
att(569,774).
att(171,146).
att(242,536).
att(260,550).
att(273,617).
att(247,514).
att(576,843).
att(244,503).
att(571,851).
att(276,601).
att(286,662).
att(254,505).
att(576,860).
att(583,833).
att(241,541).
att(572,834).
att(289,681).
att(175,90).
att(571,843).
att(278,592).
att(567,715).
att(189,144).
att(270,681).
att(270,664).
att(289,677).
att(260,507).
att(569,699).
att(278,610).
att(173,49).
att(173,47).
att(171,42).
att(177,96).
att(177,92).
att(579,853).
att(175,38).
att(256,520).
att(283,607).
att(179,86).
att(173,42).
att(278,627).
att(585,853).
att(251,499).
att(260,514).
att(579,834).
att(278,633).
att(376,281).
att(244,492).
att(280,636).
att(175,53).
att(276,570).
att(583,809).
att(263,604).
att(289,636).
att(382,281).
att(589,847).
att(286,627).
att(585,805).
att(598,482).
att(242,511).
att(579,856).
att(171,50).
att(595,487).
att(183,49).
att(258,497).
att(289,640).
att(571,819).
att(156,38).
att(247,552).
att(160,43).
att(326,499).
att(561,809).
att(241,591).
att(160,42).
att(160,40).
att(242,617).
att(258,629).
att(556,822).
att(167,100).
att(559,851).
att(244,617).
att(314,515).
att(244,614).
att(260,640).
att(312,512).
att(247,573).
att(557,822).
att(241,640).
att(249,575).
att(256,558).
att(160,52).
att(162,57).
att(569,803).
att(241,623).
att(258,560).
att(242,634).
att(567,801).
att(155,16).
att(241,631).
att(242,621).
att(258,570).
att(155,15).
att(254,621).
att(553,812).
att(557,803).
att(569,801).
att(312,492).
att(576,863).
att(169,12).
att(581,890).
att(154,24).
att(175,105).
att(176,123).
att(175,116).
att(154,27).
att(254,573).
att(688,482).
att(162,18).
att(572,884).
att(569,825).
att(556,778).
att(176,119).
att(167,57).
att(569,812).
att(561,752).
att(563,753).
att(551,751).
att(260,582).
att(249,546).
att(247,548).
att(169,21).
att(162,4).
att(256,524).
att(571,876).
att(158,27).
att(561,788).
att(571,875).
att(181,125).
att(256,532).
att(559,770).
att(154,7).
att(152,20).
att(167,13).
att(258,524).
att(183,125).
att(556,699).
att(585,864).
att(162,23).
att(173,123).
att(260,526).
att(581,887).
att(169,18).
att(527,420).
att(676,812).
att(574,202).
att(525,424).
att(574,218).
att(354,623).
att(357,634).
att(354,631).
att(354,627).
att(263,94).
att(367,614).
att(379,554).
att(666,814).
att(585,279).
att(689,791).
att(270,50).
att(265,94).
att(263,90).
att(666,827).
att(360,631).
att(533,422).
att(363,577).
att(289,16).
att(533,407).
att(676,749).
att(529,348).
att(683,822).
att(609,886).
att(673,752).
att(527,351).
att(376,587).
att(379,575).
att(382,587).
att(369,636).
att(522,351).
att(572,199).
att(589,288).
att(596,886).
att(693,490).
att(527,362).
att(673,785).
att(695,481).
att(200,105).
att(606,867).
att(200,119).
att(369,582).
att(596,880).
att(680,753).
att(693,483).
att(273,27).
att(283,18).
att(535,351).
att(354,582).
att(673,776).
att(522,353).
att(276,28).
att(689,753).
att(600,885).
att(619,888).
att(676,776).
att(680,816).
att(382,526).
att(196,113).
att(522,359).
att(679,770).
att(689,747).
att(663,816).
att(533,375).
att(606,876).
att(203,145).
att(210,127).
att(289,2).
att(369,532).
att(363,549).
att(376,547).
att(609,875).
att(203,142).
att(686,778).
att(209,148).
att(686,771).
att(283,27).
att(537,362).
att(367,575).
att(363,539).
att(603,865).
att(600,862).
att(611,885).
att(679,707).
att(244,23).
att(576,303).
att(260,20).
att(676,877).
att(244,27).
att(270,138).
att(680,869).
att(286,123).
att(256,29).
att(583,381).
att(585,353).
att(686,863).
att(273,142).
att(583,362).
att(641,749).
att(572,356).
att(585,378).
att(706,486).
att(650,697).
att(679,879).
att(589,332).
att(679,878).
att(706,484).
att(703,481).
att(270,101).
att(680,886).
att(241,11).
att(572,373).
att(589,351).
att(683,874).
att(673,839).
att(374,684).
att(270,70).
att(679,833).
att(256,9).
att(283,142).
att(716,484).
att(254,1).
att(273,76).
att(589,378).
att(256,3).
att(278,70).
att(382,664).
att(382,661).
att(589,356).
att(286,148).
att(379,687).
att(585,296).
att(581,353).
att(710,484).
att(289,134).
att(673,876).
att(265,127).
att(641,770).
att(660,699).
att(666,838).
att(572,303).
att(576,255).
att(529,446).
att(527,441).
att(574,246).
att(683,836).
att(273,86).
att(521,444).
att(529,443).
att(679,851).
att(354,671).
att(263,140).
att(522,448).
att(286,76).
att(666,843).
att(571,253).
att(663,875).
att(283,67).
att(357,674).
att(289,63).
att(579,305).
att(382,610).
att(571,250).
att(286,67).
att(374,629).
att(527,390).
att(579,245).
att(369,607).
att(574,269).
att(265,86).
att(533,443).
att(289,32).
att(376,623).
att(676,801).
att(357,612).
att(270,32).
att(585,250).
att(666,797).
att(670,851).
att(589,325).
att(278,43).
att(589,323).
att(663,836).
att(286,94).
att(360,612).
att(686,853).
att(379,640).
att(585,243).
att(363,607).
att(572,252).
att(673,841).
att(525,443).
att(369,681).
att(382,631).
att(666,809).
att(572,257).
att(278,49).
att(304,586).
att(603,747).
att(196,23).
att(625,869).
att(533,215).
att(196,27).
att(298,558).
att(628,882).
att(533,195).
att(613,829).
att(613,827).
att(533,202).
att(206,16).
att(213,52).
att(609,755).
att(193,45).
att(600,825).
att(216,52).
att(624,881).
att(594,757).
att(619,819).
att(227,113).
att(637,886).
att(637,885).
att(193,16).
att(635,881).
att(310,545).
att(206,22).
att(231,113).
att(229,122).
att(639,888).
att(310,524).
att(295,577).
att(619,752).
att(209,25).
att(626,882).
att(603,699).
att(637,866).
att(224,76).
att(637,865).
att(298,524).
att(304,547).
att(635,863).
att(200,5).
att(628,879).
att(219,3).
att(600,705).
att(603,697).
att(320,674).
att(625,839).
att(213,24).
att(293,524).
att(308,547).
att(632,880).
att(209,3).
att(625,875).
att(611,743).
att(310,542).
att(628,866).
att(219,29).
att(619,776).
att(239,116).
att(594,715).
att(206,3).
att(310,550).
att(225,67).
att(326,661).
att(298,548).
att(628,837).
att(625,841).
att(324,684).
att(611,709).
att(304,501).
att(235,150).
att(326,687).
att(295,546).
att(632,834).
att(619,705).
att(626,871).
att(616,875).
att(613,874).
att(210,138).
att(367,541).
att(369,547).
att(611,880).
att(363,503).
att(596,856).
att(354,544).
att(537,292).
att(354,543).
att(203,63).
att(533,301).
att(209,74).
att(537,302).
att(735,485).
att(689,712).
att(310,681).
att(308,674).
att(619,871).
att(596,837).
att(663,776).
att(200,148).
att(600,880).
att(219,132).
att(689,697).
att(289,9).
att(525,292).
att(193,127).
att(300,662).
att(310,674).
att(594,839).
att(596,836).
att(600,872).
att(733,487).
att(369,509).
att(382,493).
att(193,63).
att(200,94).
att(600,853).
att(609,841).
att(354,503).
att(374,511).
att(527,248).
att(606,856).
att(354,509).
att(291,674).
att(354,507).
att(521,259).
att(206,88).
att(537,329).
att(537,325).
att(619,832).
att(663,718).
att(263,6).
att(523,325).
att(360,509).
att(613,847).
att(525,275).
att(367,512).
att(611,860).
att(613,841).
att(374,493).
att(535,253).
att(210,86).
att(523,243).
att(209,50).
att(376,498).
att(376,496).
att(219,84).
att(382,495).
att(360,516).
att(523,246).
att(523,259).
att(193,77).
att(523,257).
att(600,845).
att(594,805).
att(596,752).
att(196,10).
att(367,493).
att(596,749).
att(525,199).
att(725,489).
att(297,564).
att(304,565).
att(600,819).
att(354,498).
att(609,814).
att(210,42).
att(293,634).
att(369,492).
att(203,59).
att(525,198).
att(310,568).
att(295,627).
att(206,53).
att(354,491).
att(521,198).
att(531,253).
att(193,99).
att(523,288).
att(594,829).
att(216,42).
att(521,199).
att(600,791).
att(691,718).
att(320,100).
att(318,98).
att(626,319).
att(553,454).
att(312,150).
att(736,839).
att(630,313).
att(635,305).
att(632,319).
att(694,718).
att(722,878).
att(637,307).
att(318,80).
att(626,307).
att(624,313).
att(734,871).
att(555,400).
att(625,282).
att(628,255).
att(318,43).
att(626,246).
att(320,32).
att(563,439).
att(635,325).
att(721,832).
att(622,243).
att(639,325).
att(312,72).
att(729,841).
att(316,80).
att(626,315).
att(625,212).
att(635,253).
att(555,418).
att(561,397).
att(736,793).
att(561,393).
att(729,814).
att(559,386).
att(622,195).
att(312,92).
att(320,56).
att(625,215).
att(632,285).
att(326,40).
att(569,437).
att(320,52).
att(624,279).
att(727,807).
att(750,482).
att(551,402).
att(553,397).
att(750,486).
att(626,208).
att(553,351).
att(553,350).
att(330,16).
att(559,407).
att(312,43).
att(738,825).
att(738,814).
att(311,49).
att(567,386).
att(731,755).
att(561,411).
att(628,202).
att(637,288).
att(563,411).
att(316,45).
att(724,802).
att(632,198).
att(711,821).
att(611,269).
att(300,19).
att(600,202).
att(625,343).
att(711,823).
att(729,882).
att(291,42).
att(694,793).
att(306,59).
att(613,275).
att(630,424).
att(630,411).
att(298,42).
att(691,801).
att(609,205).
att(694,802).
att(297,45).
att(628,397).
att(594,199).
att(619,272).
att(308,55).
att(729,870).
att(318,119).
att(297,13).
att(635,414).
att(740,886).
att(637,405).
att(704,776).
att(611,195).
att(308,13).
att(293,54).
att(306,10).
att(696,827).
att(619,202).
att(696,816).
att(731,871).
att(736,864).
att(628,373).
att(628,362).
att(316,105).
att(696,770).
att(297,30).
att(729,872).
att(306,25).
att(714,778).
att(328,101).
att(630,375).
att(300,3).
att(740,870).
att(330,123).
att(330,101).
att(632,381).
att(727,865).
att(692,752).
att(722,890).
att(722,884).
att(740,861).
att(639,343).
att(740,868).
att(318,127).
att(624,359).
att(720,778).
att(295,14).
att(701,766).
att(720,774).
att(734,885).
att(306,5).
att(630,309).
att(738,873).
att(714,699).
att(721,864).
att(630,296).
att(714,715).
att(736,880).
att(727,877).
att(694,771).
att(639,359).
att(328,150).
att(637,381).
att(694,766).
att(310,7).
att(295,21).
att(626,378).
att(308,4).
att(626,362).
att(295,25).
att(724,870).
att(316,123).
att(639,371).
att(247,42).
att(553,267).
att(247,49).
att(581,452).
att(559,243).
att(581,443).
att(551,268).
att(260,42).
att(574,400).
att(251,45).
att(249,40).
att(650,803).
att(572,441).
att(242,80).
att(563,259).
att(561,245).
att(571,386).
att(251,47).
att(563,243).
att(572,444).
att(244,74).
att(557,327).
att(260,92).
att(553,195).
att(581,399).
att(244,38).
att(553,212).
att(652,814).
att(658,795).
att(555,202).
att(648,822).
att(249,58).
att(241,90).
att(571,422).
att(258,49).
att(579,446).
att(258,45).
att(567,246).
att(641,847).
att(244,94).
att(557,257).
att(583,407).
att(676,888).
att(789,485).
att(679,887).
att(249,19).
att(254,55).
att(676,884).
att(789,481).
att(559,202).
att(648,749).
att(251,11).
att(241,42).
att(567,267).
att(660,823).
att(256,52).
att(589,390).
att(251,19).
att(256,55).
att(650,751).
att(551,208).
att(551,218).
att(569,272).
att(258,56).
att(683,890).
att(654,751).
att(247,25).
att(270,105).
att(273,125).
att(574,371).
att(673,869).
att(581,336).
att(767,485).
att(270,113).
att(673,862).
att(650,785).
att(689,889).
att(764,486).
att(569,212).
att(670,887).
att(762,486).
att(589,405).
att(642,819).
att(673,887).
att(666,870).
att(572,347).
att(561,332).
att(555,356).
att(316,19).
att(648,862).
att(567,420).
att(569,414).
att(251,113).
att(251,125).
att(311,59).
att(731,766).
att(314,57).
att(740,755).
att(251,105).
att(312,60).
att(326,16).
att(553,338).
att(316,57).
att(330,13).
att(249,146).
att(318,5).
att(559,375).
att(729,712).
att(734,788).
att(656,868).
att(330,1).
att(247,138).
att(736,770).
att(311,15).
att(256,119).
att(652,876).
att(658,861).
att(729,707).
att(561,362).
att(326,24).
att(563,371).
att(646,865).
att(731,697).
att(251,142).
att(724,749).
att(724,747).
att(557,347).
att(724,759).
att(648,865).
att(260,116).
att(775,486).
att(314,18).
att(569,351).
att(316,2).
att(650,831).
att(656,874).
att(254,146).
att(254,145).
att(641,862).
att(256,144).
att(561,299).
att(324,2).
att(736,699).
att(242,116).
att(740,715).
att(311,24).
att(326,8).
att(326,7).
att(722,766).
att(567,378).
att(738,715).
att(244,119).
att(328,4).
att(740,707).
att(654,868).
att(551,305).
att(578,446).
att(650,851).
att(576,441).
att(254,78).
att(656,836).
att(241,138).
att(561,319).
att(563,313).
att(556,253).
att(641,877).
att(251,99).
att(311,5).
att(656,838).
att(260,77).
att(556,245).
att(312,6).
att(571,443).
att(563,323).
att(567,309).
att(258,78).
att(722,698).
att(569,299).
att(527,855).
att(763,886).
att(527,842).
att(574,657).
att(376,105).
att(576,643).
att(583,726).
att(529,842).
att(374,105).
att(571,657).
att(784,889).
att(670,348).
att(522,848).
att(781,885).
att(527,794).
att(761,864).
att(529,808).
att(679,294).
att(581,644).
att(765,866).
att(354,119).
att(357,101).
att(583,653).
att(676,303).
att(683,381).
att(763,862).
att(522,792).
att(521,808).
att(379,140).
att(578,675).
att(585,653).
att(761,887).
att(571,665).
att(761,885).
att(769,884).
att(781,861).
att(527,826).
att(574,608).
att(374,70).
att(579,665).
att(680,299).
att(374,80).
att(784,831).
att(525,826).
att(773,853).
att(529,817).
att(529,815).
att(787,831).
att(787,836).
att(535,796).
att(683,305).
att(382,77).
att(521,826).
att(679,327).
att(525,804).
att(533,842).
att(663,381).
att(531,848).
att(663,378).
att(773,833).
att(768,878).
att(773,831).
att(533,820).
att(683,323).
att(527,746).
att(535,818).
att(781,853).
att(367,67).
att(533,813).
att(761,831).
att(357,70).
att(376,98).
att(535,820).
att(354,76).
att(679,250).
att(589,682).
att(594,439).
att(765,834).
att(676,250).
att(369,148).
att(680,296).
att(761,876).
att(533,799).
att(596,439).
att(585,597).
att(768,839).
att(769,871).
att(557,597).
att(673,454).
att(850,485).
att(578,758).
att(578,754).
att(563,599).
att(585,830).
att(561,593).
att(579,808).
att(646,315).
att(676,397).
att(646,267).
att(683,448).
att(689,446).
att(658,243).
att(583,754).
att(686,448).
att(689,454).
att(641,329).
att(567,605).
att(652,288).
att(578,772).
att(650,275).
att(579,830).
att(646,259).
att(673,444).
att(652,268).
att(589,820).
att(641,322).
att(676,407).
att(648,212).
att(683,386).
att(579,777).
att(673,411).
att(654,279).
att(583,789).
att(679,416).
att(658,268).
att(589,744).
att(663,447).
att(679,422).
att(673,397).
att(857,482).
att(576,733).
att(683,411).
att(848,482).
att(680,424).
att(844,489).
att(583,719).
att(676,350).
att(787,882).
att(585,706).
att(641,272).
att(589,764).
att(641,279).
att(842,490).
att(680,390).
att(670,422).
att(572,710).
att(525,678).
att(297,134).
att(531,649).
att(298,130).
att(300,70).
att(768,707).
att(376,5).
att(828,486).
att(717,874).
att(784,705).
att(828,484).
att(533,643).
att(293,101).
att(369,22).
att(527,669).
att(692,863).
att(613,375).
att(826,485).
att(379,9).
att(594,292).
att(295,123).
att(357,30).
att(609,303).
att(529,688).
att(691,886).
att(531,733).
att(594,299).
att(379,2).
att(521,678).
att(765,776).
att(714,834).
att(815,489).
att(304,80).
att(603,315).
att(525,615).
att(692,880).
att(527,599).
att(291,140).
att(527,615).
att(529,593).
att(308,74).
att(357,9).
att(529,602).
att(535,665).
att(600,309).
att(769,782).
att(521,593).
att(594,317).
att(297,146).
att(360,9).
att(523,682).
att(818,489).
att(537,678).
att(304,96).
att(611,327).
att(535,599).
att(613,321).
att(717,841).
att(300,32).
att(308,86).
att(308,92).
att(616,329).
att(308,90).
att(624,447).
att(704,819).
att(692,851).
att(603,285).
att(310,51).
att(594,195).
att(637,441).
att(691,853).
att(616,259).
att(624,390).
att(295,90).
att(600,243).
att(626,443).
att(701,797).
att(295,84).
att(535,742).
att(761,856).
att(525,786).
att(527,775).
att(529,762).
att(689,255).
att(360,99).
att(537,760).
att(768,851).
att(357,96).
att(537,754).
att(670,257).
att(367,76).
att(689,252).
att(600,441).
att(521,775).
att(531,813).
att(663,323).
att(527,713).
att(683,279).
att(603,418).
att(670,208).
att(525,719).
att(369,43).
att(704,883).
att(527,708).
att(376,58).
att(535,786).
att(606,422).
att(763,805).
att(763,803).
att(784,829).
att(683,285).
att(600,397).
att(679,199).
att(529,719).
att(382,55).
att(761,851).
att(603,395).
att(663,246).
att(768,801).
att(689,277).
att(663,255).
att(769,843).
att(769,841).
att(525,725).
att(527,735).
att(717,886).
att(796,490).
att(533,716).
att(798,482).
att(603,347).
att(663,198).
att(367,51).
att(798,488).
att(773,774).
att(798,486).
att(717,890).
att(796,486).
att(763,814).
att(379,14).
att(537,706).
att(701,888).
att(619,418).
att(790,753).
att(594,332).
att(686,218).
att(763,822).
att(382,13).
att(689,195).
att(769,797).
att(768,825).
att(533,726).
att(596,302).
att(363,28).
att(369,19).
att(611,346).
att(363,26).
att(600,372).
att(768,770).
att(781,779).
att(527,644).
att(784,776).
att(694,886).
att(717,868).
att(306,125).
att(533,728).
att(360,17).
att(521,657).
att(696,882).
att(357,13).
att(537,735).
att(308,130).
att(354,11).
att(616,351).
att(696,885).
att(367,54).
att(367,59).
att(367,58).
att(625,710).
att(734,399).
att(717,279).
att(691,252).
att(714,288).
att(731,418).
att(740,397).
att(626,760).
att(624,767).
att(727,400).
att(626,744).
att(625,735).
att(731,332).
att(625,723).
att(731,343).
att(628,713).
att(691,277).
att(736,422).
att(711,195).
att(722,390).
att(622,703).
att(729,371).
att(556,849).
att(628,733).
att(727,372).
att(556,859).
att(630,728).
att(724,416).
att(727,336).
att(740,351).
att(624,672).
att(734,373).
att(556,804).
att(738,362).
att(628,644).
att(556,796).
att(628,643).
att(738,353).
att(721,336).
att(740,362).
att(551,850).
att(563,855).
att(729,353).
att(553,844).
att(600,643).
att(704,303).
att(533,102).
att(606,645).
att(694,332).
att(692,336).
att(696,336).
att(535,103).
att(616,726).
att(611,693).
att(537,102).
att(624,846).
att(624,844).
att(537,120).
att(635,848).
att(714,294).
att(701,322).
att(628,798).
att(635,849).
att(630,806).
att(691,372).
att(609,669).
att(717,301).
att(632,798).
att(711,362).
att(624,796).
att(694,292).
att(691,301).
att(603,602).
att(637,799).
att(616,667).
att(694,305).
att(619,669).
att(611,608).
att(624,777).
att(736,441).
att(624,775).
att(625,764).
att(711,246).
att(625,762).
att(691,315).
att(635,818).
att(738,443).
att(692,315).
att(611,595).
att(704,272).
att(639,826).
att(694,317).
att(632,748).
att(622,750).
att(720,248).
att(626,813).
att(622,754).
att(734,202).
att(734,218).
att(553,739).
att(736,202).
att(650,348).
att(658,407).
att(561,710).
att(642,388).
att(721,268).
att(561,708).
att(660,405).
att(736,198).
att(557,764).
att(642,400).
att(656,347).
att(658,336).
att(578,842).
att(656,350).
att(555,657).
att(650,359).
att(569,710).
att(571,846).
att(563,733).
att(569,700).
att(559,645).
att(578,799).
att(583,844).
att(559,653).
att(567,735).
att(585,846).
att(585,842).
att(563,645).
att(567,726).
att(652,305).
att(574,842).
att(646,353).
att(553,608).
att(559,685).
att(581,808).
att(656,294).
att(551,598).
att(561,682).
att(585,799).
att(656,307).
att(572,794).
att(641,381).
att(571,811).
att(557,659).
att(574,804).
att(581,849).
att(642,373).
att(652,322).
att(561,792).
att(626,668).
att(734,309).
att(729,315).
att(734,307).
att(731,319).
att(738,305).
att(630,669).
att(736,302).
att(567,844).
att(561,798).
att(632,672).
att(740,305).
att(637,651).
att(738,299).
att(630,678).
att(639,659).
att(734,319).
att(734,325).
att(563,815).
att(731,248).
att(556,756).
att(567,804).
att(628,598).
att(561,824).
att(650,443).
att(630,598).
att(740,323).
att(563,828).
att(630,595).
att(637,672).
att(637,669).
att(563,817).
att(626,682).
att(729,279).
att(556,786).
att(556,780).
att(660,444).
att(721,327).
att(724,313).
att(569,826).
att(551,742).
att(646,446).
att(652,400).
att(567,828).
att(738,257).
att(553,754).
att(559,811).
att(724,321).
att(648,448).
att(559,783).
att(656,395).
att(648,407).
att(734,279).
att(567,756).
att(658,397).
att(736,282).
att(563,775).
att(740,282).
att(660,399).
att(724,248).
att(553,764).
att(551,789).
att(740,272).
att(722,252).
att(642,443).
att(574,216).
att(670,820).
att(676,820).
att(583,289).
att(656,675).
att(583,283).
att(656,669).
att(648,608).
att(654,668).
att(656,688).
att(656,685).
att(658,667).
att(663,846).
att(689,808).
att(589,256).
att(658,678).
att(578,219).
att(660,667).
att(579,254).
att(571,206).
att(572,286).
att(660,672).
att(663,857).
att(581,213).
att(679,742).
att(686,815).
att(656,599).
att(787,437).
att(581,206).
att(686,818).
att(689,826).
att(571,233).
att(585,210).
att(686,828).
att(666,750).
att(666,748).
att(773,441).
att(689,830).
att(787,393).
att(680,760).
att(680,758).
att(680,754).
att(790,393).
att(765,447).
att(787,395).
att(663,815).
att(790,399).
att(585,239).
att(641,615).
att(578,158).
att(680,817).
att(784,444).
att(572,227).
att(642,599).
att(572,225).
att(680,775).
att(535,382).
att(683,777).
att(686,764).
att(576,179).
att(527,300).
att(529,293).
att(790,422).
att(790,409).
att(529,310).
att(761,447).
att(525,360).
att(666,703).
att(680,742).
att(781,386).
att(689,777).
att(773,411).
att(663,754).
att(670,762).
att(576,295).
att(646,708).
att(648,695).
att(658,783).
att(559,155).
att(555,177).
att(656,789).
att(555,189).
att(656,783).
att(571,297).
att(555,175).
att(642,758).
att(642,756).
att(551,108).
att(585,291).
att(658,695).
att(658,693).
att(553,110).
att(572,297).
att(660,713).
att(641,789).
att(571,324).
att(652,735).
att(642,777).
att(551,181).
att(557,167).
att(569,156).
att(572,306).
att(581,314).
att(650,645).
att(583,330).
att(648,644).
att(648,643).
att(557,102).
att(652,647).
att(666,844).
att(567,181).
att(658,730).
att(660,723).
att(589,295).
att(658,737).
att(551,114).
att(642,713).
att(641,708).
att(641,706).
att(583,241).
att(676,794).
att(646,665).
att(656,643).
att(676,808).
att(578,273).
att(673,842).
att(670,857).
att(673,850).
att(579,316).
att(571,273).
att(666,804).
att(781,252).
att(522,154).
att(525,225).
att(769,317).
att(527,229).
att(680,598).
att(527,225).
att(680,593).
att(689,615).
att(521,237).
att(720,441).
att(619,818).
att(523,209).
att(603,818).
att(704,448).
att(701,441).
att(603,772).
att(522,176).
att(603,786).
att(761,253).
att(596,719).
att(704,411).
att(768,267).
att(720,393).
att(761,246).
att(701,397).
att(765,248).
att(616,750).
att(619,742).
att(525,233).
att(711,437).
att(773,279).
att(701,390).
att(768,257).
att(594,786).
att(701,388).
att(523,233).
att(596,725).
att(761,288).
att(522,114).
att(594,725).
att(691,384).
att(529,187).
att(784,208).
att(781,195).
att(696,393).
att(787,218).
att(606,706).
att(691,448).
att(704,405).
att(701,422).
att(691,446).
att(711,386).
att(768,282).
att(525,103).
att(692,416).
att(691,420).
att(525,128).
att(624,859).
att(691,405).
att(704,356).
att(694,416).
att(527,114).
att(527,111).
att(529,106).
att(619,693).
att(765,212).
att(527,110).
att(594,732).
att(701,348).
att(765,198).
att(521,114).
att(696,411).
att(773,371).
att(676,728).
att(763,424).
att(529,316).
att(676,737).
att(576,114).
att(578,108).
att(663,764).
att(768,407).
att(790,348).
att(578,120).
att(585,189).
att(523,298).
att(537,306).
att(521,312).
att(533,369).
att(579,167).
att(579,165).
att(680,762).
att(666,726).
att(768,424).
att(589,158).
att(790,346).
att(527,256).
att(579,110).
att(680,732).
att(581,128).
att(533,326).
att(670,643).
att(527,241).
att(606,849).
att(680,739).
att(579,117).
att(761,332).
att(787,373).
att(763,336).
att(790,375).
att(521,256).
att(790,373).
att(609,857).
att(522,247).
att(525,324).
att(533,298).
att(589,173).
att(666,649).
att(670,735).
att(666,657).
att(666,653).
att(768,338).
att(769,416).
att(603,810).
att(603,808).
att(596,830).
att(616,848).
att(529,265).
att(683,645).
att(763,362).
att(761,372).
att(527,286).
att(689,655).
att(686,647).
att(765,373).
att(529,289).
att(609,798).
att(781,362).
att(781,359).
att(689,649).
att(673,618).
att(525,206).
att(784,313).
att(680,685).
att(787,323).
att(527,209).
att(683,675).
att(527,203).
att(606,826).
att(606,817).
att(619,806).
att(594,811).
att(619,798).
att(765,303).
att(683,668).
att(763,302).
att(763,301).
att(787,327).
att(769,378).
att(773,329).
att(666,602).
att(663,659).
att(689,678).
att(537,278).
att(630,311).
att(600,106).
att(691,695).
att(626,320).
att(696,725).
att(600,111).
att(711,733).
att(637,295).
att(704,651).
att(714,735).
att(639,293).
att(694,693).
att(720,730).
att(609,103).
att(619,177).
att(639,310).
att(624,276).
att(731,800).
att(625,263).
att(736,850).
att(740,849).
att(691,725).
att(691,726).
att(736,857).
att(632,251).
att(694,735).
att(692,728).
att(639,320).
att(619,128).
att(736,804).
att(736,798).
att(729,824).
att(628,265).
att(630,273).
att(630,280).
att(721,848).
att(692,643).
att(740,796).
att(717,669).
att(720,665).
att(724,857).
att(622,280).
att(635,263).
att(734,820).
att(635,273).
att(691,665).
att(625,227).
att(736,820).
att(692,665).
att(722,796).
att(626,283).
att(740,820).
att(761,688).
att(525,581).
att(603,210).
att(701,750).
att(768,608).
att(529,574).
att(609,203).
att(787,599).
att(523,563).
att(768,675).
att(521,576).
att(765,678).
att(701,811).
att(596,156).
att(613,206).
att(692,826).
att(533,572).
att(603,227).
att(696,818).
att(527,529).
att(763,602).
att(619,200).
att(596,183).
att(704,716).
att(600,152).
att(624,310).
att(704,695).
att(711,786).
att(611,235).
att(704,693).
att(624,306).
att(701,700).
att(613,223).
att(714,777).
att(717,762).
att(630,363).
att(609,158).
att(696,742).
att(694,758).
att(535,525).
att(701,789).
att(619,224).
att(523,531).
att(696,756).
att(611,169).
att(625,311).
att(626,300).
att(717,713).
att(692,786).
att(630,308).
att(717,693).
att(637,357).
att(637,354).
att(613,165).
att(616,154).
att(609,177).
att(606,175).
att(692,777).
att(692,775).
att(650,799).
att(648,804).
att(553,289).
att(553,283).
att(721,726).
att(561,247).
att(635,117).
att(555,273).
att(556,263).
att(650,806).
att(555,289).
att(660,846).
att(569,330).
att(729,618).
att(729,615).
att(553,200).
att(557,276).
att(650,830).
att(734,667).
att(729,602).
att(642,849).
att(740,665).
att(740,675).
att(642,857).
att(654,850).
att(559,219).
att(734,605).
att(724,597).
att(567,283).
att(721,682).
att(555,225).
att(656,826).
att(721,667).
att(556,229).
att(561,196).
att(660,813).
att(556,239).
att(736,595).
att(551,209).
att(740,605).
att(569,273).
att(578,367).
att(571,369).
att(650,783).
att(555,167).
att(656,756).
att(556,162).
att(569,193).
att(721,593).
att(561,231).
att(646,744).
att(556,376).
att(692,618).
att(738,754).
att(632,233).
att(722,817).
att(694,598).
att(694,597).
att(639,219).
att(624,171).
att(721,741).
att(624,183).
att(622,175).
att(722,741).
att(635,227).
att(721,756).
att(721,746).
att(551,363).
att(622,156).
att(622,167).
att(724,754).
att(632,162).
att(553,320).
att(559,304).
att(622,110).
att(556,328).
att(731,726).
att(567,363).
att(721,786).
att(736,706).
att(563,298).
att(555,330).
att(630,173).
att(635,155).
att(731,732).
att(622,177).
att(639,158).
att(740,700).
att(734,732).
att(727,643).
att(721,716).
att(722,700).
att(551,312).
att(727,737).
att(557,306).
att(622,128).
att(557,523).
att(576,641).
att(646,162).
att(654,239).
att(641,200).
att(658,229).
att(652,165).
att(650,162).
att(642,200).
att(563,523).
att(581,646).
att(646,175).
att(581,654).
att(578,686).
att(679,295).
att(656,158).
att(572,641).
att(658,160).
att(660,162).
att(642,233).
att(673,318).
att(581,663).
att(642,171).
att(676,328).
att(686,293).
att(641,158).
att(663,360).
att(666,314).
att(679,320).
att(686,300).
att(689,298).
att(579,660).
att(641,155).
att(680,354).
att(670,295).
att(673,256).
att(784,844).
att(790,850).
att(787,846).
att(658,106).
att(666,244).
att(583,609).
att(773,859).
att(579,683).
att(641,173).
att(642,187).
att(666,258).
att(670,314).
att(734,114).
att(551,625).
att(646,249).
att(646,247).
att(641,293).
att(722,179).
att(556,622).
att(561,596).
att(658,320).
att(556,626).
att(658,330).
att(553,611).
att(740,108).
att(551,600).
att(740,128).
att(646,278).
att(553,569).
att(578,761).
att(652,273).
att(567,603).
att(646,256).
att(569,603).
att(581,773).
att(648,193).
att(551,574).
att(641,249).
att(572,765).
att(571,714).
att(658,270).
att(561,563).
att(660,270).
att(551,529).
att(551,527).
att(650,225).
att(583,694).
att(579,769).
att(652,239).
att(556,535).
att(555,521).
att(650,223).
att(578,740).
att(572,717).
att(579,763).
att(527,683).
att(673,189).
att(781,719).
att(533,642).
att(531,646).
att(600,300).
att(683,160).
att(606,308).
att(616,360).
att(535,654).
att(606,297).
att(613,376).
att(619,376).
att(790,710).
att(679,189).
att(619,360).
att(676,181).
att(523,652).
att(666,183).
att(773,719).
att(531,724).
att(689,156).
att(522,624).
att(603,324).
att(676,128).
att(535,686).
att(527,600).
att(613,310).
att(537,676).
att(676,102).
att(522,616).
att(619,310).
att(790,739).
att(714,855).
att(761,735).
att(525,639).
att(527,622).
att(683,120).
att(616,316).
att(527,630).
att(761,725).
att(527,626).
att(784,659).
att(701,852).
att(529,632).
att(720,848).
att(683,108).
att(704,842).
att(611,295).
att(663,179).
att(769,713).
att(704,828).
att(769,643).
att(781,688).
att(525,569).
att(704,817).
att(711,808).
att(781,682).
att(616,241).
att(603,276).
att(765,659).
att(537,639).
att(619,242).
att(535,630).
att(531,611).
att(790,688).
att(683,241).
att(572,555).
att(572,553).
att(486,697).
att(676,270).
att(686,254).
att(787,798).
att(686,242).
att(581,622).
att(522,761).
att(522,769).
att(641,111).
att(521,784).
att(485,771).
att(679,286).
att(689,242).
att(481,755).
att(572,632).
att(680,316).
att(768,859).
att(489,715).
att(571,557).
att(585,632).
att(533,784).
att(527,692).
att(765,794).
att(763,810).
att(765,800).
att(683,270).
att(768,796).
att(769,850).
att(523,765).
att(790,824).
att(686,273).
att(790,815).
att(578,589).
att(787,828).
att(781,798).
att(680,242).
att(585,556).
att(522,711).
att(670,265).
att(670,263).
att(666,213).
att(571,579).
att(483,822).
att(535,692).
att(488,757).
att(489,743).
att(579,574).
att(488,747).
att(525,727).
att(533,694).
att(761,813).
att(680,210).
att(537,694).
att(686,210).
att(527,731).
att(482,829).
att(763,815).
att(589,567).
att(583,571).
att(583,576).
att(765,824).
att(485,821).
att(571,527).
att(670,213).
att(769,798).
att(525,691).
att(589,561).
att(781,818).
att(489,755).
att(581,531).
att(761,760).
att(784,764).
att(533,736).
att(579,537).
att(487,770).
att(683,231).
att(487,771).
att(683,229).
att(609,369).
att(490,698).
att(763,754).
att(606,374).
att(680,224).
att(686,224).
att(523,722).
att(765,760).
att(787,777).
att(594,367).
att(485,753).
att(680,193).
att(490,766).
att(589,585).
att(769,817).
att(585,527).
att(689,229).
att(769,813).
att(484,747).
att(531,41).
att(488,807).
att(628,790).
att(489,793).
att(701,196).
att(625,692).
att(711,286).
att(628,765).
att(488,803).
att(717,283).
att(704,196).
att(535,31).
att(694,258).
att(616,628).
att(482,836).
att(533,34).
att(537,33).
att(481,833).
att(622,784).
att(616,625).
att(483,802).
att(600,576).
att(603,589).
att(611,559).
att(635,763).
att(691,263).
att(711,213).
att(603,578).
att(625,731).
att(637,765).
att(487,814).
att(486,822).
att(490,819).
att(717,196).
att(609,579).
att(632,717).
att(632,714).
att(639,763).
att(613,553).
att(485,803).
att(609,571).
att(609,576).
att(622,714).
att(694,278).
att(626,761).
att(624,652).
att(635,692).
att(691,210).
att(624,646).
att(600,531).
att(711,233).
att(635,704).
att(611,578).
att(704,152).
att(632,731).
att(639,717).
att(616,581).
att(616,589).
att(628,691).
att(485,874).
att(594,531).
att(694,196).
att(711,162).
att(736,374).
att(711,165).
att(692,225).
att(487,856).
att(637,734).
att(691,224).
att(738,363).
att(691,223).
att(482,837).
att(482,840).
att(625,689).
att(714,165).
att(486,838).
att(720,165).
att(717,158).
att(740,360).
att(490,843).
att(639,731).
att(696,233).
att(720,156).
att(484,884).
att(773,176).
att(603,658).
att(611,729).
att(522,62).
att(611,740).
att(714,367).
att(531,112).
att(488,867).
att(784,162).
att(763,237).
att(487,863).
att(521,147).
att(686,523).
att(616,731).
att(765,237).
att(486,882).
att(616,738).
att(704,354).
att(790,155).
att(485,881).
att(489,869).
att(537,109).
att(600,724).
att(489,864).
att(523,126).
att(686,521).
att(603,670).
att(603,683).
att(531,143).
att(769,160).
att(484,862).
att(487,880).
att(784,183).
att(717,297).
att(484,865).
att(717,295).
att(533,131).
att(761,162).
att(533,143).
att(483,868).
att(613,656).
att(483,885).
att(487,868).
att(619,642).
att(694,376).
att(787,187).
att(600,660).
att(711,363).
att(711,360).
att(486,868).
att(523,137).
att(696,382).
att(711,354).
att(481,885).
att(701,297).
att(765,160).
att(611,679).
att(523,82).
att(704,256).
att(531,75).
att(596,626).
att(691,297).
att(522,48).
att(533,61).
att(619,683).
att(787,117).
att(763,171).
att(784,110).
att(790,108).
att(691,367).
att(594,603).
att(619,666).
att(523,69).
att(594,619).
att(790,117).
att(787,110).
att(619,689).
att(787,108).
att(611,609).
att(600,625).
att(769,103).
att(596,569).
att(624,790).
att(704,265).
att(625,769).
att(600,626).
att(533,81).
att(525,34).
att(714,249).
att(692,324).
att(704,273).
att(537,93).
att(717,249).
att(535,97).
att(711,316).
att(594,635).
att(701,241).
att(736,210).
att(624,537).
att(553,729).
att(559,714).
att(622,525).
att(727,227).
att(556,736).
att(561,701).
att(731,239).
att(731,235).
att(722,273).
att(734,263).
att(557,765).
att(724,280).
att(626,527).
att(626,533).
att(557,727).
att(721,213).
att(628,537).
att(563,731).
att(630,522).
att(630,527).
att(722,193).
att(734,193).
att(622,531).
att(637,578).
att(559,646).
att(650,291).
att(727,173).
att(734,156).
att(557,646).
att(561,648).
att(652,293).
att(736,160).
att(731,187).
att(736,158).
att(561,642).
att(729,179).
att(734,152).
att(637,525).
att(569,736).
att(563,658).
att(721,223).
att(635,527).
att(556,689).
att(648,367).
att(639,533).
att(637,527).
att(557,666).
att(556,613).
att(641,354).
att(729,110).
att(731,111).
att(658,297).
att(736,179).
att(734,173).
att(642,360).
att(556,594).
att(721,152).
att(551,679).
att(740,175).
att(654,357).
att(557,654).
att(654,367).
att(642,363).
att(721,369).
att(624,603).
att(711,177).
att(704,110).
att(711,176).
att(714,177).
att(714,189).
att(721,363).
att(740,306).
att(692,155).
att(740,295).
att(722,374).
att(632,680).
att(738,310).
att(727,310).
att(734,369).
att(724,376).
att(740,310).
att(696,102).
att(696,108).
att(736,311).
att(624,637).
att(630,613).
att(736,318).
att(736,326).
att(637,670).
att(714,108).
att(734,295).
att(724,308).
att(333,489).
att(720,111).
att(724,304).
att(694,181).
att(555,784).
att(335,488).
att(555,765).
att(626,632).
att(625,561).
att(738,242).
att(628,622).
att(736,247).
att(736,260).
att(724,314).
att(625,555).
att(626,619).
att(340,487).
att(740,251).
att(341,489).
att(624,581).
att(734,289).
att(345,489).
att(729,193).
att(563,765).
att(341,484).
att(738,280).
att(628,555).
att(342,489).
att(722,247).
att(632,557).
att(553,781).
att(551,790).
att(740,273).
att(557,66).
att(576,192).
att(559,64).
att(648,606).
att(559,71).
att(581,274).
att(650,596).
att(652,616).
att(658,673).
att(571,192).
att(567,149).
att(551,73).
att(569,139).
att(567,135).
att(581,220).
att(551,33).
att(646,624).
att(557,97).
att(654,613).
att(555,46).
att(559,83).
att(641,673).
att(567,62).
att(567,75).
att(571,236).
att(652,626).
att(569,64).
att(574,192).
att(660,609).
att(652,625).
att(556,33).
att(641,676).
att(642,625).
att(574,168).
att(578,168).
att(648,553).
att(660,635).
att(641,619).
att(559,34).
att(658,637).
att(551,48).
att(642,606).
att(569,95).
att(569,93).
att(571,161).
att(654,561).
att(683,768).
att(654,557).
att(648,571).
att(654,556).
att(656,557).
att(648,585).
att(654,553).
att(673,704).
att(585,161).
att(571,186).
att(656,556).
att(658,557).
att(686,773).
att(689,769).
att(569,46).
att(642,637).
att(660,559).
att(689,790).
att(734,569).
att(654,787).
att(724,553).
att(648,692).
att(729,578).
att(729,576).
att(736,559).
att(729,572).
att(656,790).
att(569,238).
att(637,37).
att(635,33).
att(658,790).
att(721,630).
att(561,161).
att(724,637).
att(722,622).
att(738,556).
att(724,578).
att(641,761).
att(650,736).
att(734,576).
att(731,522).
att(567,153).
att(641,787).
att(731,525).
att(641,781).
att(652,736).
att(734,537).
att(648,642).
att(557,115).
att(555,133).
att(553,136).
att(563,118).
att(642,694).
att(660,736).
att(567,180).
att(721,581).
att(557,188).
att(551,124).
att(563,104).
att(559,137).
att(576,262).
att(654,656).
att(578,287).
att(656,652).
att(555,73).
att(648,676).
att(561,135).
att(563,149).
att(724,535).
att(773,270).
att(686,613).
att(765,312).
att(676,626).
att(529,222).
att(676,637).
att(680,594).
att(578,37).
att(689,613).
att(523,191).
att(481,202).
att(679,639).
att(686,606).
att(676,622).
att(481,212).
att(663,673).
att(689,596).
att(525,192).
att(589,69).
att(679,622).
att(679,632).
att(606,761).
att(579,35).
att(666,572).
att(761,249).
att(784,286).
att(579,31).
att(784,283).
att(676,556).
att(521,164).
att(537,236).
att(583,35).
att(537,234).
att(769,328).
att(585,31).
att(521,163).
att(663,613).
att(525,184).
att(613,768).
att(613,765).
att(666,522).
att(787,193).
att(768,263).
att(765,270).
att(790,210).
att(676,576).
att(616,787).
att(619,769).
att(787,216).
att(663,630).
att(769,258).
att(666,583).
att(769,256).
att(689,563).
att(488,208).
att(484,272).
att(537,153).
att(484,212).
att(680,589).
att(600,731).
att(663,572).
att(606,729).
att(676,533).
att(683,572).
att(784,231).
att(787,233).
att(533,172).
att(680,578).
att(603,731).
att(525,107).
att(533,180).
att(485,195).
att(594,724).
att(683,578).
att(383,488).
att(594,731).
att(689,574).
att(377,489).
att(663,567).
att(619,701).
att(484,199).
att(594,734).
att(581,190).
att(646,525).
att(581,185).
att(660,521).
att(482,322).
att(648,535).
att(673,729).
att(658,574).
att(578,107).
att(656,571).
att(670,720).
att(589,153).
att(485,325).
att(484,329).
att(391,483).
att(589,157).
att(652,523).
att(660,589).
att(689,720).
att(484,243).
att(487,272).
att(487,267).
att(680,736).
att(642,537).
att(487,285).
att(482,252).
att(482,250).
att(483,243).
att(486,272).
att(683,740).
att(485,245).
att(571,147).
att(689,721).
att(578,137).
att(583,121).
att(484,245).
att(485,255).
att(666,646).
att(585,104).
att(784,297).
att(579,133).
att(525,274).
att(579,131).
att(487,301).
att(525,287).
att(572,64).
att(487,307).
att(765,354).
att(765,367).
att(487,292).
att(784,308).
att(784,306).
att(481,346).
att(482,334).
att(768,360).
att(679,670).
att(583,135).
att(521,266).
att(482,343).
att(490,309).
att(529,271).
att(679,680).
att(765,360).
att(781,360).
att(522,287).
att(689,652).
att(641,537).
att(768,374).
att(489,305).
att(763,291).
att(763,298).
att(525,207).
att(670,600).
att(483,294).
att(576,83).
att(529,211).
att(576,95).
att(763,304).
att(787,312).
att(581,73).
att(763,295).
att(482,362).
att(523,262).
att(576,82).
att(676,596).
att(787,318).
att(787,330).
att(670,689).
att(485,296).
att(689,666).
att(490,313).
att(769,363).
att(781,291).
att(769,360).
att(488,321).
att(522,194).
att(523,287).
att(790,320).
att(613,185).
att(769,576).
att(711,731).
att(531,503).
att(521,494).
att(768,525).
att(701,646).
att(717,734).
att(761,583).
att(781,527).
att(611,174).
att(692,694).
att(619,188).
att(694,701).
att(482,390).
att(535,506).
att(490,348).
att(616,190).
att(790,527).
att(489,351).
att(521,515).
att(488,378).
att(523,492).
att(594,68).
att(691,722).
att(483,346).
att(717,654).
att(525,493).
att(717,642).
att(525,492).
att(714,660).
att(482,351).
att(533,518).
att(490,372).
att(482,405).
att(486,351).
att(606,136).
att(487,343).
att(398,485).
att(490,378).
att(533,512).
att(481,405).
att(486,343).
att(609,136).
att(701,641).
att(720,660).
att(763,522).
att(600,68).
att(600,75).
att(611,149).
att(483,454).
att(403,482).
att(603,61).
att(483,437).
att(704,603).
att(410,481).
att(624,281).
att(485,454).
att(535,494).
att(535,493).
att(701,625).
att(408,486).
att(625,221).
att(691,680).
att(691,663).
att(619,81).
att(408,490).
att(487,422).
att(714,606).
att(637,264).
att(596,31).
att(635,271).
att(487,407).
att(410,488).
att(606,82).
att(616,62).
att(632,204).
att(415,481).
att(482,446).
att(490,420).
att(694,683).
att(632,211).
att(606,95).
att(626,287).
att(609,81).
att(490,409).
att(769,689).
att(763,686).
att(616,264).
att(619,262).
att(529,580).
att(763,673).
att(531,638).
att(679,81).
att(679,87).
att(768,683).
att(521,580).
att(686,66).
att(680,97).
att(488,454).
att(522,548).
att(611,214).
att(522,547).
att(606,226).
att(606,240).
att(535,587).
att(763,611).
att(487,439).
att(609,240).
att(787,630).
att(763,609).
att(529,532).
att(773,637).
att(522,539).
att(531,566).
att(596,221).
att(523,590).
att(619,201).
att(679,48).
att(522,501).
att(761,637).
att(781,561).
att(769,628).
att(781,567).
att(527,543).
att(535,532).
att(784,561).
att(609,159).
att(535,538).
att(523,538).
att(701,790).
att(704,761).
att(769,616).
att(689,37).
att(689,48).
att(619,226).
att(521,546).
att(701,761).
att(692,769).
att(773,537).
att(611,164).
att(784,572).
att(761,555).
att(527,507).
att(717,691).
att(761,561).
att(781,574).
att(704,729).
att(529,504).
att(763,556).
att(529,510).
att(720,696).
att(616,168).
att(763,559).
att(769,637).
att(696,787).
att(790,581).
att(790,579).
att(734,652).
att(556,287).
att(738,642).
att(624,61).
att(635,126).
att(635,109).
att(419,485).
att(419,483).
att(561,261).
att(553,220).
att(721,658).
att(635,139).
att(729,596).
att(561,284).
att(625,93).
att(561,281).
att(624,89).
att(731,611).
att(628,73).
att(628,71).
att(736,683).
att(425,483).
att(722,654).
att(632,68).
att(559,201).
att(734,606).
att(734,603).
att(559,191).
att(635,62).
att(630,91).
att(428,484).
att(721,683).
att(729,624).
att(731,637).
att(555,228).
att(729,622).
att(427,484).
att(561,211).
att(626,81).
att(551,192).
att(563,201).
att(569,281).
att(625,34).
att(630,87).
att(738,606).
att(563,214).
att(734,663).
att(551,207).
att(727,616).
att(724,680).
att(557,261).
att(553,161).
att(559,236).
att(724,624).
att(635,97).
att(635,93).
att(652,769).
att(736,626).
att(736,637).
att(628,44).
att(630,33).
att(556,153).
att(563,226).
att(722,616).
att(567,204).
att(569,207).
att(557,192).
att(701,563).
att(729,781).
att(714,622).
att(603,41).
att(603,39).
att(717,622).
att(606,37).
att(717,626).
att(606,48).
att(609,37).
att(616,81).
att(619,91).
att(624,172).
att(628,170).
att(734,784).
att(701,579).
att(625,178).
att(613,41).
att(696,630).
att(727,790).
att(720,553).
att(721,761).
att(711,583).
att(696,571).
att(711,579).
att(736,692).
att(622,109).
att(701,533).
att(731,740).
att(635,159).
att(731,736).
att(704,537).
att(625,129).
att(701,522).
att(701,521).
att(692,555).
att(714,578).
att(717,579).
att(692,559).
att(720,574).
att(626,151).
att(740,701).
att(694,561).
att(624,141).
att(628,126).
att(714,523).
att(691,574).
att(691,572).
att(625,149).
att(692,578).
att(637,184).
att(637,182).
att(431,486).
att(622,126).
att(727,722).
att(694,585).
att(555,542).
att(656,226).
att(563,536).
att(721,89).
att(556,549).
att(556,547).
att(555,544).
att(740,37).
att(569,573).
att(722,89).
att(740,35).
att(563,530).
att(738,31).
att(660,240).
att(557,544).
att(654,161).
att(648,186).
att(557,547).
att(576,687).
att(569,539).
att(721,37).
att(555,505).
att(563,544).
att(660,159).
att(557,510).
att(585,662).
att(648,109).
att(559,503).
att(652,115).
att(650,109).
att(555,517).
att(551,510).
att(574,662).
att(556,513).
att(567,545).
att(642,151).
att(551,491).
att(557,520).
att(579,610).
att(642,104).
att(583,604).
att(578,634).
att(553,498).
att(553,497).
att(556,497).
att(571,634).
att(574,612).
att(563,517).
att(569,510).
att(641,174).
att(571,631).
att(658,109).
att(559,592).
att(624,494).
att(625,495).
att(555,633).
att(736,112).
att(729,139).
att(632,518).
att(722,178).
att(569,681).
att(563,614).
att(721,180).
att(622,519).
att(740,121).
att(569,671).
att(637,506).
att(626,498).
att(734,143).
att(559,638).
att(626,496).
att(724,136).
att(557,629).
att(567,614).
att(635,520).
att(729,66).
att(561,636).
att(555,568).
att(722,112).
att(637,520).
att(556,564).
att(721,104).
att(652,281).
att(731,75).
att(740,135).
att(557,592).
att(569,607).
att(724,124).
att(734,75).
att(654,271).
att(656,261).
att(567,636).
att(650,201).
att(567,621).
att(729,97).
att(729,93).
att(637,496).
att(556,586).
att(635,492).
att(722,147).
att(652,214).
att(453,490).
att(453,485).
att(559,580).
att(656,192).
att(724,81).
att(656,191).
att(455,488).
att(458,481).
att(652,221).
att(736,83).
att(658,194).
att(729,37).
att(656,201).
att(553,530).
att(559,586).
att(656,214).
att(727,31).
att(721,61).
att(641,287).
att(658,201).
att(721,75).
att(567,570).
att(731,48).
att(654,264).
att(724,71).
att(458,489).
att(487,595).
att(761,787).
att(486,595).
att(765,763).
att(529,684).
att(574,506).
att(576,507).
att(578,505).
att(679,180).
att(486,688).
att(490,608).
att(485,688).
att(790,692).
att(578,507).
att(787,717).
att(666,182).
att(680,221).
att(485,682).
att(689,157).
att(768,781).
att(680,180).
att(572,517).
att(533,664).
att(663,174).
att(769,704).
att(531,671).
att(680,185).
att(535,690).
att(535,687).
att(763,711).
att(481,597).
att(482,618).
att(527,620).
att(574,516).
att(683,188).
att(679,118).
att(585,508).
att(790,734).
att(583,509).
att(686,188).
att(525,681).
att(572,510).
att(761,769).
att(522,620).
att(523,677).
att(663,157).
att(769,781).
att(578,511).
att(527,634).
att(761,738).
att(572,491).
att(663,109).
att(773,679).
att(596,287).
att(666,62).
att(574,494).
att(535,617).
att(490,667).
att(579,512).
att(686,104).
att(686,121).
att(578,499).
att(765,734).
att(583,519).
att(676,141).
att(489,647).
att(679,136).
att(679,135).
att(488,649).
att(488,644).
att(790,660).
att(761,656).
att(589,492).
att(781,686).
att(589,498).
att(670,69).
att(527,552).
att(787,680).
att(606,290).
att(676,79).
att(490,593).
att(533,633).
att(606,266).
att(594,266).
att(787,666).
att(787,673).
att(581,493).
att(535,631).
att(489,688).
att(522,566).
att(689,143).
att(589,518).
att(676,262).
att(581,634).
att(569,492).
att(679,264).
att(487,700).
att(490,725).
att(648,75).
att(482,742).
att(589,614).
att(561,498).
att(650,62).
att(490,719).
att(583,631).
att(589,607).
att(567,516).
att(673,201).
att(462,484).
att(574,588).
att(646,93).
att(572,573).
att(670,201).
att(482,708).
att(487,739).
att(576,584).
att(576,582).
att(464,481).
att(482,767).
att(464,485).
att(481,786).
att(464,484).
att(485,703).
att(489,726).
att(666,204).
att(641,135).
att(488,730).
att(485,693).
att(488,725).
att(571,580).
att(581,590).
att(488,750).
att(484,824).
att(488,748).
att(642,89).
att(571,541).
att(648,41).
att(583,588).
att(641,71).
att(658,85).
att(679,228).
att(585,580).
att(650,39).
att(689,194).
att(482,800).
att(469,482).
att(642,79).
att(484,830).
att(485,815).
att(641,73).
att(680,232).
att(784,768).
att(488,783).
att(680,236).
att(686,221).
att(581,538).
att(574,543).
att(482,813).
att(689,238).
att(583,528).
att(658,46).
att(679,170).
att(689,221).
att(790,761).
att(485,750).
att(773,790).
att(663,217).
att(670,222).
att(485,744).
att(489,786).
att(589,580).
att(578,545).
att(484,848).
att(34,747).
att(769,133).
att(531,38).
att(596,582).
att(714,261).
att(34,753).
att(790,82).
att(33,751).
att(600,558).
att(704,191).
att(527,53).
att(533,38).
att(482,857).
att(603,552).
att(527,57).
att(39,829).
att(486,857).
att(529,55).
att(535,40).
att(787,73).
att(683,498).
att(720,262).
att(606,562).
att(784,64).
att(594,564).
att(701,290).
att(769,124).
att(35,802).
att(765,136).
att(521,53).
att(790,75).
att(35,809).
att(609,554).
att(790,71).
att(594,566).
att(31,819).
att(761,79).
att(522,26).
att(483,808).
att(484,799).
att(488,824).
att(769,79).
att(535,58).
att(784,93).
att(39,749).
att(531,52).
att(596,528).
att(533,58).
att(692,262).
att(761,69).
att(482,844).
att(535,51).
att(609,580).
att(619,565).
att(694,290).
att(763,66).
att(41,752).
att(717,207).
att(606,573).
att(694,281).
att(606,586).
att(763,73).
att(41,759).
att(481,842).
att(485,798).
att(521,15).
att(600,568).
att(696,274).
att(490,817).
att(33,753).
att(489,828).
att(790,91).
att(37,770).
att(37,774).
att(521,4).
att(522,5).
att(611,587).
att(761,87).
att(781,34).
att(533,19).
att(525,27).
att(691,201).
att(692,191).
att(616,575).
att(720,234).
att(616,590).
att(31,778).
att(521,30).
att(696,217).
att(521,29).
att(531,28).
att(37,707).
att(596,509).
att(44,782).
att(701,172).
att(769,46).
att(761,41).
att(603,545).
att(606,550).
att(613,536).
att(596,502).
att(533,30).
att(691,226).
att(619,539).
att(529,6).
att(529,5).
att(41,707).
att(529,9).
att(490,857).
att(694,222).
att(490,859).
att(527,7).
att(31,707).
att(33,709).
att(529,3).
att(720,161).
att(535,24).
att(781,163).
att(39,878).
att(85,702).
att(781,157).
att(663,528).
att(525,150).
att(39,877).
att(473,481).
att(471,485).
att(581,21).
att(787,166).
att(535,130).
att(87,702).
att(763,234).
att(46,869).
att(574,8).
att(535,101).
att(765,228).
att(765,226).
att(787,153).
att(97,785).
att(537,127).
att(95,778).
att(576,8).
att(583,30).
att(686,540).
att(525,123).
att(666,549).
att(91,757).
att(522,145).
att(81,699).
att(521,138).
att(679,549).
att(768,222).
att(527,77).
att(34,853).
att(34,858).
att(39,833).
att(525,72).
att(666,511).
att(39,832).
att(533,145).
att(39,836).
att(525,78).
att(663,542).
att(609,661).
att(673,504).
att(478,486).
att(535,146).
att(579,3).
att(606,681).
att(525,67).
att(579,1).
att(583,6).
att(95,697).
att(529,72).
att(686,550).
att(44,861).
att(85,709).
att(531,130).
att(522,77).
att(33,837).
att(689,548).
att(679,504).
att(594,684).
att(585,9).
att(790,190).
att(603,601).
att(680,510).
att(769,172).
att(781,112).
att(603,591).
att(781,124).
att(48,831).
att(46,839).
att(613,674).
att(613,671).
att(606,612).
att(603,607).
att(673,519).
att(613,684).
att(765,180).
att(529,86).
att(35,832).
att(48,838).
att(48,837).
att(683,505).
att(773,129).
att(91,712).
att(523,72).
att(594,601).
att(600,661).
att(686,505).
att(680,520).
att(531,86).
att(704,287).
att(522,53).
att(784,131).
att(527,36).
att(613,610).
att(46,860).
att(606,636).
att(606,634).
att(784,149).
att(603,631).
att(680,515).
att(784,147).
att(529,40).
att(535,84).
att(44,836).
att(531,77).
att(679,497).
att(689,519).
att(35,856).
att(609,633).
att(734,204).
att(727,232).
att(734,214).
att(731,228).
att(630,590).
att(721,287).
att(701,34).
att(721,264).
att(694,69).
att(722,271).
att(731,232).
att(637,568).
att(720,95).
att(694,73).
att(622,545).
att(729,159).
att(740,238).
att(632,532).
att(738,230).
att(637,588).
att(622,532).
att(632,538).
att(625,504).
att(721,226).
att(630,550).
att(721,238).
att(556,664).
att(721,222).
att(738,163).
att(630,543).
att(722,236).
att(635,528).
att(639,526).
att(727,151).
att(694,48).
att(722,232).
att(559,690).
att(622,512).
att(559,664).
att(639,502).
att(557,674).
att(724,172).
att(559,661).
att(563,662).
att(731,115).
att(736,184).
att(556,612).
att(556,592).
att(561,681).
att(722,159).
att(740,188).
att(738,172).
att(625,513).
att(637,547).
att(556,620).
att(563,664).
att(736,174).
att(622,510).
att(632,505).
att(628,671).
att(531,7).
att(704,126).
att(704,124).
att(701,118).
att(692,166).
att(632,674).
att(48,699).
att(632,671).
att(694,170).
att(694,168).
att(606,509).
att(692,159).
att(594,510).
att(701,190).
att(619,548).
att(696,151).
att(624,623).
att(691,190).
att(600,515).
att(600,514).
att(609,494).
att(603,519).
att(628,607).
att(606,512).
att(606,516).
att(637,687).
att(720,109).
att(619,508).
att(696,185).
att(622,612).
att(691,124).
att(701,62).
att(600,499).
att(630,640).
att(704,64).
att(714,139).
att(616,513).
att(639,604).
att(606,493).
att(622,634).
att(624,573).
att(696,61).
att(729,217).
att(696,64).
att(734,287).
att(624,588).
att(729,191).
att(691,133).
att(635,629).
att(625,582).
att(691,141).
att(704,95).
att(701,81).
att(616,495).
att(714,68).
att(626,640).
att(694,136).
att(622,558).
att(696,149).
att(632,552).
att(622,565).
att(720,79).
att(177,481).
att(648,620).
att(734,509).
att(189,485).
att(557,65).
att(189,486).
att(567,146).
att(559,67).
att(648,607).
att(635,20).
att(569,146).
att(660,684).
att(736,506).
att(551,76).
att(69,880).
att(557,148).
att(722,541).
att(149,707).
att(569,142).
att(637,7).
att(654,607).
att(648,621).
att(64,807).
att(71,845).
att(641,661).
att(68,805).
att(650,627).
att(68,803).
att(559,88).
att(650,638).
att(650,636).
att(650,621).
att(738,515).
att(642,661).
att(650,633).
att(569,67).
att(654,662).
att(569,63).
att(69,831).
att(563,98).
att(73,793).
att(559,50).
att(724,498).
att(551,55).
att(73,802).
att(555,54).
att(734,498).
att(176,489).
att(176,490).
att(175,484).
att(658,633).
att(68,821).
att(658,627).
att(569,88).
att(642,620).
att(652,554).
att(79,853).
att(553,17).
att(69,822).
att(71,812).
att(555,17).
att(641,640).
att(61,743).
att(559,52).
att(177,487).
att(569,49).
att(652,573).
att(569,50).
att(68,885).
att(622,10).
att(139,812).
att(628,51).
att(68,888).
att(481,128).
att(632,58).
att(740,565).
att(149,791).
att(734,580).
att(137,747).
att(135,778).
att(141,743).
att(637,57).
att(143,753).
att(630,19).
att(75,884).
att(727,587).
att(149,821).
att(149,819).
att(724,565).
att(559,130).
att(66,871).
att(553,148).
att(136,715).
att(624,20).
att(625,5).
att(75,861).
att(136,709).
att(628,27).
att(628,25).
att(482,189).
att(729,548).
att(736,539).
att(553,134).
att(551,101).
att(147,752).
att(738,538).
att(556,150).
att(563,101).
att(553,123).
att(131,776).
att(639,14).
att(484,173).
att(559,150).
att(734,548).
att(559,148).
att(553,70).
att(71,873).
att(551,63).
att(556,78).
att(628,1).
att(650,674).
att(650,690).
att(141,712).
att(650,681).
att(481,177).
att(563,142).
att(485,120).
att(721,530).
att(722,540).
att(481,179).
att(567,119).
att(635,22).
att(652,690).
att(630,6).
att(628,4).
att(147,788).
att(563,145).
att(485,114).
att(652,664).
att(551,144).
att(484,103).
att(483,106).
att(131,709).
att(579,90).
att(683,612).
att(646,497).
att(579,84).
att(87,793).
att(660,493).
att(487,158).
att(488,165).
att(663,610).
att(486,154).
att(89,805).
att(654,513).
att(676,634).
att(576,50).
att(650,492).
att(481,219).
att(641,507).
att(689,614).
att(81,797).
att(485,239).
att(656,515).
att(663,674).
att(489,160).
att(666,629).
att(91,837).
att(571,36).
att(585,90).
att(641,504).
att(91,832).
att(642,493).
att(483,158).
att(488,179).
att(673,568).
att(680,627).
att(670,564).
att(680,640).
att(666,577).
att(571,11).
att(641,494).
att(85,825).
att(670,558).
att(97,795).
att(583,50).
att(581,38).
att(485,176).
att(486,183).
att(654,496).
att(95,795).
att(83,793).
att(583,42).
att(679,558).
att(97,809).
att(583,38).
att(787,290).
att(85,803).
att(571,56).
att(488,175).
att(663,601).
att(484,152).
att(85,791).
att(658,498).
att(41,887).
att(673,580).
att(85,751).
att(484,280).
att(487,196).
att(666,524).
att(482,273).
att(763,271).
att(787,214).
att(576,18).
att(676,588).
att(574,15).
att(680,552).
att(683,566).
att(679,584).
att(583,56).
att(481,249).
att(578,19).
att(790,194).
att(117,486).
att(790,191).
att(676,584).
att(666,586).
att(572,59).
att(83,825).
att(666,587).
att(91,791).
att(39,870).
att(39,869).
att(670,526).
att(525,113).
att(34,874).
att(111,482).
att(761,191).
att(483,219).
att(488,233).
att(522,140).
att(35,889).
att(482,209).
att(527,122).
att(683,582).
att(95,743).
att(583,10).
att(790,236).
att(89,770).
att(481,273).
att(765,217).
att(81,766).
att(89,776).
att(521,101).
att(765,214).
att(583,13).
att(763,207).
att(787,240).
att(683,575).
att(679,528).
att(488,224).
att(81,771).
att(765,207).
att(64,770).
att(484,316).
att(557,16).
att(576,123).
att(73,749).
att(650,532).
att(648,528).
att(650,539).
att(553,26).
att(62,743).
att(85,889).
att(563,17).
att(79,823).
att(567,60).
att(650,536).
att(551,19).
att(642,558).
att(61,776).
att(75,752).
att(551,3).
att(581,130).
att(102,486).
att(557,26).
att(581,127).
att(87,873).
att(87,872).
att(487,276).
att(488,265).
att(69,776).
att(85,880).
att(488,280).
att(563,4).
att(559,28).
att(487,289).
att(482,256).
att(482,254).
att(654,528).
att(567,19).
att(75,779).
att(656,526).
att(658,539).
att(87,866).
att(93,888).
att(489,276).
att(642,580).
att(490,263).
att(569,19).
att(556,3).
att(567,11).
att(572,130).
att(91,881).
att(108,481).
att(71,699).
att(673,671).
att(489,298).
att(642,545).
att(69,707).
att(579,144).
att(572,67).
att(87,836).
att(673,662).
att(583,140).
att(676,674).
att(578,77).
att(648,506).
att(676,690).
att(97,877).
att(483,363).
att(559,6).
att(676,687).
att(73,712).
att(73,709).
att(487,293).
att(95,873).
att(486,382).
att(81,837).
att(83,871).
att(487,369).
att(75,712).
att(583,132).
att(583,142).
att(571,67).
att(490,297).
att(486,367).
att(82,837).
att(85,871).
att(579,101).
att(641,526).
att(85,876).
att(87,854).
att(673,620).
att(93,837).
att(680,690).
att(670,604).
att(583,72).
att(686,662).
att(89,851).
att(574,86).
att(666,592).
att(481,374).
att(583,74).
att(569,5).
att(641,545).
att(642,546).
att(572,70).
att(489,324).
att(571,96).
att(79,699).
att(567,8).
att(652,514).
att(44,346).
att(666,4).
att(603,130).
att(37,381).
att(185,757).
att(178,774).
att(773,546).
att(188,755).
att(41,362).
att(670,24).
att(174,698).
att(603,116).
att(686,14).
att(676,21).
att(35,334).
att(129,884).
att(184,782).
att(787,532).
att(121,869).
att(184,766).
att(673,22).
att(44,405).
att(666,30).
att(790,528).
att(689,13).
att(180,699).
att(761,540).
att(109,834).
att(689,4).
att(488,363).
att(689,1).
att(769,532).
att(115,872).
att(121,872).
att(188,779).
att(683,29).
att(603,132).
att(231,488).
att(34,322).
att(487,374).
att(34,321).
att(663,24).
att(787,543).
att(184,699).
att(227,487).
att(35,353).
att(229,481).
att(182,698).
att(129,861).
att(34,292).
att(107,878).
att(663,18).
att(225,486).
att(107,872).
att(619,119).
att(112,862).
att(172,712).
att(34,246).
att(118,831).
att(663,7).
att(704,612).
att(107,860).
att(769,547).
att(107,856).
att(717,684).
att(680,2).
att(717,664).
att(39,321).
att(39,319).
att(613,150).
att(126,876).
att(616,134).
att(686,6).
att(190,709).
att(31,323).
att(129,873).
att(188,702).
att(763,542).
att(784,501).
att(787,507).
att(121,837).
att(616,150).
att(126,880).
att(129,877).
att(765,541).
att(600,145).
att(689,9).
att(765,542).
att(765,549).
att(104,837).
att(109,803).
att(124,834).
att(109,795).
att(596,45).
att(33,267).
att(109,791).
att(768,515).
att(790,491).
att(784,514).
att(126,834).
att(46,327).
att(784,518).
att(781,516).
att(704,631).
att(769,501).
att(704,629).
att(619,78).
att(48,327).
att(129,832).
att(126,840).
att(692,677).
att(696,677).
att(35,319).
att(107,845).
att(701,614).
att(35,317).
att(107,843).
att(104,860).
att(186,831).
att(180,847).
att(185,839).
att(670,96).
att(769,674).
att(37,454).
att(683,63).
att(763,690).
att(184,851).
att(188,836).
att(33,448).
att(174,847).
att(172,853).
att(663,150).
att(81,252).
att(83,325).
att(641,9).
att(87,282).
att(680,98).
att(761,620).
att(761,614).
att(773,554).
att(174,821).
att(186,843).
att(186,851).
att(83,268).
att(666,54).
att(768,633).
att(683,92).
att(182,795).
att(768,591).
att(172,793).
att(679,43).
att(33,393).
att(676,36).
att(35,444).
att(787,638).
att(769,681).
att(768,617).
att(769,662).
att(679,38).
att(190,853).
att(663,32).
att(670,54).
att(93,279).
att(34,347).
att(185,805).
att(185,803).
att(763,638).
att(680,40).
att(180,821).
att(765,629).
att(184,829).
att(206,481).
att(184,827).
att(676,60).
att(37,399).
att(174,814).
att(91,253).
att(35,400).
att(81,202).
att(666,22).
att(769,564).
att(596,130).
att(670,18).
att(34,362).
att(182,749).
att(48,405).
att(46,422).
att(186,821).
att(683,58).
att(48,414).
att(781,577).
att(784,590).
att(670,11).
att(35,407).
att(210,490).
att(48,424).
att(213,484).
att(48,411).
att(37,418).
att(91,288).
att(663,47).
att(790,575).
att(33,348).
att(44,393).
att(663,50).
att(190,821).
att(172,753).
att(787,577).
att(135,838).
att(152,484).
att(711,549).
att(135,837).
att(711,548).
att(729,684).
att(622,65).
att(729,662).
att(637,125).
att(692,540).
att(731,687).
att(118,712).
att(704,503).
att(731,684).
att(635,127).
att(141,873).
att(611,25).
att(129,779).
att(158,487).
att(714,541).
att(637,113).
att(637,130).
att(603,2).
att(156,489).
att(133,873).
att(720,542).
att(626,101).
att(158,484).
att(694,536).
att(711,509).
att(133,853).
att(133,858).
att(720,517).
att(625,86).
att(714,510).
att(625,94).
att(711,506).
att(731,612).
att(147,877).
att(169,481).
att(731,592).
att(628,72).
att(731,591).
att(126,698).
att(149,880).
att(714,501).
att(143,834).
att(165,481).
att(135,805).
att(696,512).
att(734,604).
att(133,802).
att(622,42).
att(720,498).
att(630,94).
att(691,506).
att(143,843).
att(721,690).
att(136,803).
att(711,512).
att(691,503).
att(738,591).
att(691,510).
att(701,493).
att(701,492).
att(137,836).
att(740,614).
att(632,92).
att(714,517).
att(738,601).
att(704,492).
att(137,837).
att(632,90).
att(740,604).
att(637,67).
att(624,57).
att(137,802).
att(622,54).
att(736,633).
att(628,38).
att(135,829).
att(630,32).
att(625,51).
att(149,851).
att(131,801).
att(639,96).
att(720,499).
att(131,805).
att(691,620).
att(109,823).
att(768,491).
att(701,558).
att(121,795).
att(39,267).
att(603,40).
att(692,592).
att(34,208).
att(109,827).
att(696,591).
att(121,809).
att(606,49).
att(784,497).
att(121,797).
att(784,496).
att(696,604).
att(594,50).
att(619,100).
att(44,269).
att(596,13).
att(701,575).
att(107,747).
att(769,499).
att(107,757).
att(35,195).
att(118,821).
att(41,212).
att(109,752).
att(39,205).
att(124,802).
att(761,495).
att(692,634).
att(609,58).
att(121,829).
att(121,827).
att(39,198).
att(609,54).
att(763,494).
att(694,633).
att(594,24).
att(691,566).
att(594,21).
att(107,771).
att(112,751).
att(714,573).
att(143,881).
att(691,554).
att(596,27).
att(129,827).
att(717,575).
att(720,587).
att(235,483).
att(121,759).
att(235,489).
att(129,812).
att(616,57).
att(606,19).
att(131,885).
att(107,753).
att(696,570).
att(616,51).
att(701,545).
att(625,145).
att(711,536).
att(124,743).
att(115,779).
att(104,698).
att(143,863).
att(692,590).
att(147,884).
att(596,8).
att(600,22).
att(616,13).
att(606,27).
att(632,127).
att(149,882).
att(717,532).
att(131,866).
att(107,779).
att(104,776).
att(107,766).
att(139,886).
att(696,590).
att(720,538).
att(619,18).
att(694,573).
att(131,869).
att(137,881).
att(66,420).
att(66,418).
att(139,282).
att(64,424).
att(79,444).
att(135,205).
att(147,245).
att(75,402).
att(136,218).
att(222,860).
att(240,801).
att(143,277).
att(734,60).
att(73,414).
att(734,57).
att(724,55).
att(68,348).
att(236,819).
att(734,54).
att(163,889).
att(61,350).
att(149,282).
att(143,199).
att(153,887).
att(721,45).
att(724,47).
att(222,802).
att(234,793).
att(722,40).
att(62,422).
att(153,890).
att(66,375).
att(724,12).
att(228,785).
att(244,485).
att(147,212).
att(242,482).
att(729,21).
att(170,885).
att(228,770).
att(727,24).
att(242,484).
att(731,22).
att(232,774).
att(147,208).
att(153,861).
att(147,202).
att(79,407).
att(652,123).
att(736,14).
att(64,347).
att(71,416).
att(149,195).
att(740,18).
att(236,766).
att(646,132).
att(654,127).
att(164,869).
att(168,864).
att(238,766).
att(161,880).
att(648,134).
att(656,113).
att(168,867).
att(69,343).
att(157,867).
att(238,776).
att(163,874).
att(660,122).
att(69,338).
att(222,757).
att(69,334).
att(221,751).
att(487,527).
att(696,23).
att(734,122).
att(211,774).
att(483,572).
att(211,771).
att(230,876).
att(211,788).
att(201,705).
att(727,140).
att(194,778).
att(141,372).
att(141,373).
att(221,885).
att(736,127).
att(251,482).
att(143,381).
att(484,578).
att(704,20).
att(192,745).
att(691,10).
att(704,2).
att(234,883).
att(696,17).
att(133,359).
att(488,522).
att(137,334).
att(249,483).
att(131,373).
att(192,751).
att(228,840).
att(139,307).
att(247,484).
att(137,301).
att(734,145).
att(721,130).
att(214,702).
att(260,484).
att(141,294).
att(131,296).
att(481,583).
att(240,874).
att(240,873).
att(256,490).
att(136,317).
att(731,76).
att(136,329).
att(711,20).
att(484,537).
att(724,119).
att(194,774).
att(720,6).
att(131,301).
att(201,712).
att(234,862).
att(133,292).
att(484,523).
att(131,309).
att(483,639).
att(232,841).
att(191,712).
att(486,555).
att(238,831).
att(143,321).
att(149,307).
att(192,715).
att(481,611).
att(240,832).
att(240,831).
att(738,80).
att(485,628).
att(194,702).
att(727,78).
att(228,835).
att(740,63).
att(724,146).
att(484,628).
att(149,309).
att(228,793).
att(487,585).
att(724,98).
att(482,559).
att(136,282).
att(147,315).
att(75,448).
att(75,447).
att(236,853).
att(73,441).
att(481,639).
att(722,70).
att(221,840).
att(721,72).
att(488,576).
att(489,589).
att(489,583).
att(722,65).
att(226,841).
att(240,860).
att(654,60).
att(654,59).
att(182,888).
att(487,603).
att(642,54).
att(157,749).
att(159,743).
att(93,407).
att(164,823).
att(660,16).
att(73,199).
att(161,747).
att(648,16).
att(182,890).
att(166,827).
att(163,751).
att(481,646).
att(83,405).
att(75,215).
att(163,753).
att(489,600).
att(641,32).
att(660,60).
att(641,38).
att(81,346).
att(170,829).
att(182,861).
att(188,885).
att(654,17).
att(159,782).
att(159,779).
att(93,338).
att(660,28).
att(188,890).
att(168,743).
att(188,883).
att(482,611).
att(676,101).
att(486,630).
att(81,381).
att(652,29).
att(489,622).
att(163,782).
att(174,869).
att(82,381).
att(484,606).
att(69,212).
att(164,812).
att(153,785).
att(666,127).
att(683,101).
att(642,28).
att(87,292).
att(186,868).
att(660,2).
att(680,125).
att(89,307).
att(161,702).
att(190,866).
att(483,721).
att(168,766).
att(676,150).
att(89,296).
att(159,697).
att(490,666).
att(87,307).
att(185,889).
att(481,701).
att(658,26).
att(482,691).
att(161,698).
att(81,292).
att(91,351).
att(670,130).
att(485,738).
att(666,138).
att(489,654).
att(484,729).
att(489,656).
att(93,299).
att(186,873).
att(93,305).
att(484,654).
att(773,610).
att(666,88).
att(82,248).
att(180,832).
att(483,660).
att(642,9).
att(680,145).
att(95,301).
att(787,684).
att(95,309).
att(673,67).
att(784,671).
att(188,871).
att(178,877).
att(190,879).
att(790,684).
att(481,729).
att(168,702).
att(184,837).
att(686,148).
att(174,834).
att(174,832).
att(484,658).
att(489,683).
att(484,765).
att(161,836).
att(488,701).
att(71,296).
att(170,876).
att(66,319).
att(161,838).
att(650,77).
att(734,6).
att(221,774).
att(238,697).
att(151,861).
att(650,67).
att(486,763).
att(153,835).
att(286,483).
att(658,150).
att(69,381).
att(166,865).
att(646,150).
att(738,20).
att(62,301).
att(265,489).
att(280,482).
att(722,26).
att(485,769).
att(721,24).
att(721,23).
att(166,837).
att(66,253).
att(159,858).
att(488,729).
att(646,86).
att(265,488).
att(164,838).
att(163,845).
att(656,63).
att(66,248).
att(161,854).
att(166,838).
att(168,835).
att(61,259).
att(490,729).
att(641,140).
att(660,78).
att(486,711).
att(660,77).
att(163,853).
att(641,148).
att(151,876).
att(721,5).
att(81,439).
att(489,731).
att(62,317).
att(62,329).
att(79,302).
att(151,880).
att(222,712).
att(61,248).
att(89,395).
att(64,269).
att(87,386).
att(642,88).
att(93,443).
att(164,858).
att(166,851).
att(164,854).
att(81,397).
att(168,854).
att(161,807).
att(168,843).
att(71,252).
att(64,268).
att(95,441).
att(75,259).
att(641,78).
att(83,448).
att(68,272).
att(73,252).
att(652,32).
att(164,831).
att(69,315).
att(157,843).
att(652,36).
att(93,402).
att(489,763).
att(660,51).
att(64,212).
att(73,272).
att(73,288).
att(168,795).
att(486,773).
att(75,275).
att(170,803).
att(650,55).
att(68,202).
att(73,277).
att(163,823).
att(658,50).
att(650,59).
att(270,486).
att(642,92).
att(62,269).
att(157,803).
att(652,56).
att(157,797).
att(151,856).
att(61,199).
att(761,150).
att(761,148).
att(109,443).
att(91,675).
att(109,437).
att(109,447).
att(48,799).
att(93,675).
att(271,835).
att(290,833).
att(95,665).
att(41,820).
att(33,820).
att(769,127).
att(790,67).
att(37,798).
att(274,836).
att(82,615).
att(83,682).
att(33,813).
att(89,598).
att(291,483).
att(91,597).
att(261,837).
att(44,817).
att(274,797).
att(174,285).
att(178,246).
att(121,439).
att(186,319).
att(121,447).
att(182,255).
att(262,837).
att(39,758).
att(773,32).
att(33,741).
att(35,815).
att(182,250).
att(83,602).
att(178,315).
att(765,65).
att(83,615).
att(31,750).
att(271,843).
att(109,420).
att(262,841).
att(44,760).
att(761,99).
att(174,202).
att(261,854).
att(34,710).
att(174,218).
att(271,822).
att(281,807).
att(773,58).
att(769,100).
att(182,272).
att(761,84).
att(118,400).
att(118,399).
att(46,746).
att(787,38).
att(763,90).
att(190,243).
att(290,797).
att(184,282).
att(784,38).
att(33,786).
att(112,443).
att(178,243).
att(112,441).
att(31,775).
att(266,854).
att(310,487).
att(274,759).
att(781,59).
att(44,786).
att(769,45).
att(204,883).
att(44,762).
att(271,747).
att(763,43).
att(129,393).
att(761,40).
att(262,803).
att(784,57).
att(39,700).
att(39,719).
att(126,395).
att(180,202).
att(290,823).
att(763,40).
att(763,38).
att(308,482).
att(121,420).
att(188,269).
att(287,819).
att(262,802).
att(790,55).
att(112,402).
att(271,823).
att(35,786).
att(290,829).
att(180,420).
att(81,719).
att(190,402).
att(81,716).
att(93,741).
att(82,695).
att(153,215).
att(82,693).
att(174,414).
att(163,208).
att(186,414).
att(95,700).
att(87,726).
att(87,739).
att(172,338).
att(81,735).
att(81,723).
att(83,708).
att(178,424).
att(41,849).
att(284,862).
att(91,732).
att(174,309).
att(781,123).
att(184,356).
att(182,381).
att(264,886).
att(186,350).
att(287,868).
att(93,728).
att(271,867).
att(266,887).
att(290,863).
att(89,647).
att(97,733).
att(290,868).
att(151,218).
att(178,347).
att(790,122).
att(151,212).
att(287,875).
att(91,644).
att(761,123).
att(93,653).
att(781,145).
att(48,842).
att(763,127).
att(93,643).
att(87,669).
att(186,381).
att(784,148).
att(186,375).
att(81,688).
att(190,378).
att(271,877).
att(89,678).
att(97,659).
att(765,125).
att(190,356).
att(284,865).
att(91,737).
att(281,862).
att(266,870).
att(271,873).
att(81,672).
att(107,277).
att(107,288).
att(211,856).
att(46,602).
att(192,832).
att(217,856).
att(143,439).
att(118,257).
att(136,390).
att(217,845).
att(118,255).
att(136,388).
att(217,841).
att(207,797).
att(126,322).
att(126,317).
att(118,250).
att(211,834).
att(711,45).
att(204,823).
att(204,816).
att(701,59).
att(696,36).
att(214,802).
att(704,53).
att(701,51).
att(220,807).
att(194,841).
att(149,437).
att(126,257).
att(135,393).
att(696,100).
att(694,98).
att(137,437).
att(211,822).
att(139,422).
att(720,12).
att(720,11).
att(124,277).
att(214,819).
att(141,418).
att(124,282).
att(131,407).
att(714,51).
att(136,346).
att(147,402).
att(139,384).
att(201,827).
att(133,409).
att(137,399).
att(324,486).
att(314,490).
att(204,785).
att(204,782).
att(696,15).
att(204,766).
att(133,375).
att(192,812).
att(312,490).
att(731,113).
att(314,487).
att(147,414).
att(194,814).
att(192,829).
att(311,486).
att(311,490).
att(228,881).
att(720,13).
att(129,208).
att(194,827).
att(133,343).
att(129,199).
att(137,407).
att(115,346).
att(284,745).
att(704,130).
att(281,749).
att(261,816).
att(768,14).
att(214,887).
att(35,725).
att(284,752).
att(39,730).
att(186,202).
att(186,218).
att(190,212).
att(220,884).
att(220,882).
att(287,757).
att(266,822).
att(112,420).
att(190,208).
att(214,864).
att(204,880).
att(33,667).
att(214,867).
att(220,867).
att(761,16).
att(39,643).
att(284,778).
att(39,651).
att(761,14).
att(761,13).
att(261,751).
att(109,309).
att(284,785).
att(207,873).
att(714,125).
att(48,730).
att(765,17).
att(121,372).
att(194,881).
att(720,101).
att(787,29).
att(115,343).
att(33,653).
att(35,737).
att(37,678).
att(261,785).
att(261,779).
att(211,879).
att(214,876).
att(107,325).
att(126,373).
att(126,362).
att(284,705).
att(34,595).
att(761,30).
att(34,593).
att(46,653).
att(711,134).
att(261,771).
att(763,21).
att(48,647).
att(121,301).
att(784,2).
att(717,138).
att(107,303).
att(115,353).
att(107,296).
att(787,1).
att(31,672).
att(107,250).
att(135,441).
att(204,856).
att(769,9).
att(211,840).
att(115,315).
att(714,74).
att(124,299).
att(136,441).
att(763,8).
att(264,709).
att(211,873).
att(112,305).
att(696,150).
att(211,877).
att(48,667).
att(194,879).
att(31,599).
att(104,323).
att(121,322).
att(66,857).
att(135,655).
att(68,849).
att(228,381).
att(133,649).
att(137,725).
att(236,332).
att(228,362).
att(139,732).
att(136,645).
att(147,719).
att(149,703).
att(226,336).
att(133,678).
att(228,305).
att(236,356).
att(66,800).
att(234,375).
att(238,375).
att(221,343).
att(68,792).
att(61,796).
att(226,359).
att(236,303).
att(228,329).
att(137,665).
att(137,678).
att(487,46).
att(64,828).
att(147,655).
att(481,81).
att(79,849).
att(486,41).
att(481,83).
att(66,820).
att(68,813).
att(230,315).
att(68,818).
att(481,85).
att(221,372).
att(485,83).
att(79,855).
att(490,48).
att(490,46).
att(484,89).
att(62,799).
att(240,292).
att(484,82).
att(484,95).
att(488,39).
att(222,371).
att(484,85).
att(71,830).
att(64,758).
att(482,44).
att(232,250).
att(232,248).
att(240,325).
att(485,39).
att(79,792).
att(484,33).
att(79,800).
att(483,33).
att(240,321).
att(62,826).
att(483,31).
att(483,141).
att(230,448).
att(204,255).
att(112,608).
att(481,136).
att(207,257).
att(115,605).
att(141,817).
att(481,133).
att(486,73).
att(126,665).
att(194,292).
att(131,813).
att(220,315).
att(485,139).
att(112,682).
att(139,799).
att(133,813).
att(484,131).
att(129,675).
att(131,830).
att(482,62).
att(238,452).
att(147,815).
att(485,89).
att(230,388).
att(485,82).
att(194,313).
att(481,137).
att(481,139).
att(489,82).
att(124,595).
att(194,321).
att(137,828).
att(228,447).
att(129,605).
att(137,813).
att(149,830).
att(133,708).
att(487,107).
att(133,703).
att(211,269).
att(194,268).
att(228,411).
att(201,202).
att(228,407).
att(486,107).
att(141,789).
att(147,744).
att(221,446).
att(481,184).
att(149,758).
att(240,384).
att(214,268).
att(488,121).
att(137,742).
att(220,269).
att(236,411).
att(236,407).
att(221,384).
att(136,733).
att(135,730).
att(214,199).
att(221,393).
att(214,218).
att(481,121).
att(221,390).
att(240,405).
att(226,422).
att(489,139).
att(234,397).
att(131,716).
att(149,775).
att(131,713).
att(222,399).
att(93,859).
att(93,857).
att(159,305).
att(166,353).
att(93,844).
att(379,485).
att(89,796).
att(168,353).
att(64,668).
att(166,378).
att(71,647).
att(83,848).
att(376,483).
att(97,857).
att(485,234).
att(153,302).
att(489,170).
att(85,844).
att(85,842).
att(62,657).
att(489,166).
att(64,608).
att(483,159).
att(487,180).
att(85,828).
att(97,796).
att(64,597).
att(486,184).
att(357,481).
att(68,593).
att(481,230).
att(75,688).
att(354,487).
att(97,804).
att(481,236).
att(489,174).
att(485,151).
att(62,672).
att(62,685).
att(75,665).
att(157,292).
att(369,489).
att(354,483).
att(164,322).
att(166,323).
att(484,266).
att(166,315).
att(71,615).
att(484,284).
att(182,447).
att(488,201).
att(157,248).
att(483,264).
att(161,259).
att(87,750).
att(182,454).
att(182,443).
att(482,290).
att(75,605).
att(75,618).
att(490,214).
att(97,826).
att(69,682).
att(153,259).
att(485,262).
att(164,252).
att(188,446).
att(159,288).
att(85,777).
att(157,268).
att(186,441).
att(157,269).
att(174,420).
att(488,234).
att(166,248).
att(487,240).
att(87,772).
att(482,262).
att(490,228).
att(97,760).
att(97,756).
att(170,252).
att(489,228).
att(174,397).
att(228,269).
att(226,268).
att(234,248).
att(66,764).
att(234,246).
att(64,772).
att(75,741).
att(228,267).
att(236,255).
att(170,443).
att(163,402).
att(222,319).
att(64,744).
att(69,824).
att(240,252).
att(147,597).
att(232,277).
att(168,393).
att(66,710).
att(64,706).
att(161,416).
att(228,215).
att(234,272).
att(161,414).
att(69,777).
att(230,202).
att(236,277).
att(161,424).
att(236,269).
att(486,271).
att(234,268).
att(221,248).
att(238,268).
att(490,274).
att(170,400).
att(240,279).
att(157,400).
att(222,259).
att(153,420).
att(66,735).
att(66,733).
att(166,411).
att(234,205).
att(161,343).
att(64,735).
att(163,336).
att(68,733).
att(166,420).
att(151,386).
att(170,411).
att(153,343).
att(168,424).
att(164,390).
att(61,725).
att(62,713).
att(64,643).
att(64,651).
att(168,336).
att(66,645).
att(168,332).
att(170,348).
att(221,199).
att(68,649).
att(68,659).
att(73,730).
att(164,409).
att(82,844).
att(34,300).
att(262,448).
att(93,237).
att(85,158).
att(180,783).
att(186,742).
att(262,446).
att(284,386).
att(174,716).
att(34,295).
att(39,367).
att(188,756).
att(290,393).
att(87,162).
att(188,744).
att(284,400).
att(266,441).
att(190,754).
att(290,399).
att(188,748).
att(85,233).
att(274,395).
att(151,618).
att(83,239).
att(178,746).
att(91,155).
att(39,297).
att(91,154).
att(185,772).
att(261,399).
att(174,726).
att(281,424).
att(82,120).
att(83,175).
att(91,156).
att(185,780).
att(264,386).
att(95,169).
att(264,395).
att(287,409).
att(48,367).
att(287,407).
att(39,300).
att(182,695).
att(89,175).
att(89,173).
att(172,693).
att(89,171).
att(35,367).
att(182,708).
att(188,789).
att(290,416).
att(33,310).
att(81,173).
att(266,400).
att(174,645).
att(185,719).
att(37,328).
att(274,359).
att(287,334).
att(93,181).
att(186,713).
att(271,343).
att(290,336).
att(48,306).
att(87,102).
att(34,312).
att(172,737).
att(46,312).
att(44,330).
att(261,348).
att(118,850).
att(91,117).
att(107,806).
att(182,645).
att(39,247).
att(180,647).
att(48,318).
att(264,338).
att(48,316).
att(44,291).
att(261,416).
att(33,260).
att(107,842).
att(172,659).
att(159,659).
att(69,120).
att(180,848).
att(164,733).
att(71,102).
att(161,657).
att(95,326).
att(161,655).
att(166,726).
att(164,725).
att(73,110).
att(170,733).
att(83,311).
att(73,103).
att(161,651).
att(151,719).
att(174,852).
att(163,651).
att(182,800).
att(157,665).
att(93,244).
att(97,242).
att(168,655).
att(87,289).
att(182,796).
att(190,855).
att(184,810).
att(79,120).
att(153,669).
att(174,794).
att(91,316).
att(170,647).
att(163,678).
att(87,213).
att(85,203).
att(157,593).
att(164,669).
att(164,685).
att(185,804).
att(184,811).
att(89,193).
att(164,668).
att(95,263).
att(188,799).
att(190,804).
att(89,203).
att(91,260).
att(82,216).
att(174,818).
att(185,849).
att(284,441).
att(164,599).
att(284,439).
att(151,597).
att(174,772).
att(182,746).
att(81,239).
att(168,608).
att(184,748).
att(81,233).
att(190,815).
att(89,225).
att(83,200).
att(83,213).
att(170,618).
att(33,108).
att(34,128).
att(207,343).
att(33,106).
att(35,175).
att(217,418).
att(39,183).
att(261,268).
att(46,167).
att(207,347).
att(44,160).
att(284,215).
att(115,703).
att(124,783).
att(207,336).
att(217,414).
att(220,422).
att(104,693).
att(107,695).
att(107,693).
att(290,195).
att(112,767).
att(211,397).
att(266,285).
att(48,162).
att(115,726).
att(135,857).
att(204,381).
att(112,730).
att(204,362).
att(211,350).
att(35,106).
att(207,375).
att(39,111).
att(109,645).
att(118,723).
att(136,842).
att(107,644).
att(121,739).
att(192,422).
att(118,732).
att(262,205).
att(39,108).
att(33,128).
att(48,176).
att(201,338).
att(112,693).
att(214,373).
att(46,114).
att(109,667).
att(214,372).
att(118,655).
att(207,303).
att(217,353).
att(109,688).
att(191,336).
att(44,114).
att(121,645).
att(131,850).
att(131,849).
att(107,593).
att(124,653).
att(204,317).
att(211,303).
att(126,655).
att(115,665).
att(109,599).
att(115,672).
att(136,818).
att(131,798).
att(192,372).
att(118,668).
att(131,799).
att(139,842).
att(139,850).
att(261,378).
att(174,605).
att(44,256).
att(109,815).
att(261,373).
att(115,804).
att(126,855).
att(182,669).
att(182,688).
att(264,381).
att(287,301).
att(182,675).
att(271,307).
att(112,848).
att(172,688).
att(104,808).
att(180,599).
att(39,210).
att(115,830).
att(178,593).
att(37,200).
att(124,792).
att(178,608).
att(107,758).
att(264,292).
att(185,667).
att(41,206).
att(129,796).
att(107,824).
att(172,608).
att(271,323).
att(35,289).
att(266,307).
att(104,828).
att(266,296).
att(34,169).
att(271,268).
att(204,399).
att(39,224).
att(186,602).
att(284,259).
att(39,239).
att(35,193).
att(264,329).
att(262,322).
att(262,319).
att(190,597).
att(35,213).
att(190,599).
att(264,322).
att(104,754).
att(188,597).
att(34,179).
att(191,437).
att(44,239).
att(35,155).
att(107,719).
att(214,393).
att(41,167).
att(39,152).
att(118,772).
att(124,748).
att(191,452).
att(217,386).
att(217,384).
att(290,282).
att(48,225).
att(220,390).
att(48,237).
att(194,447).
att(262,245).
att(121,767).
att(290,267).
att(129,748).
att(136,216).
att(214,688).
att(240,804).
att(147,249).
att(484,516).
att(485,518).
att(484,519).
att(487,493).
att(234,849).
att(211,608).
att(482,496).
att(133,235).
att(221,792).
att(211,593).
att(484,494).
att(136,223).
att(149,265).
att(485,496).
att(214,598).
att(147,289).
att(214,597).
att(141,206).
att(228,818).
att(66,360).
att(137,223).
att(64,382).
att(131,155).
att(66,369).
att(221,818).
att(486,506).
att(482,548).
att(485,501).
att(68,357).
att(490,517).
att(143,229).
att(240,756).
att(136,152).
att(222,811).
att(240,754).
att(143,239).
att(141,229).
att(137,213).
att(222,830).
att(137,155).
att(139,167).
att(139,165).
att(486,513).
att(490,492).
att(221,741).
att(238,767).
att(75,369).
att(482,509).
att(139,160).
att(61,308).
att(240,783).
att(149,233).
att(147,229).
att(484,501).
att(131,158).
att(137,233).
att(149,231).
att(483,584).
att(115,169).
att(112,154).
att(135,293).
att(204,695).
att(139,357).
att(109,171).
att(143,367).
att(124,237).
att(481,575).
att(48,533).
att(192,748).
att(46,523).
att(192,754).
att(488,528).
att(211,742).
att(201,780).
att(129,225).
att(483,536).
att(112,173).
att(139,306).
att(139,295).
att(483,540).
att(126,165).
att(482,532).
att(115,173).
att(204,732).
att(191,764).
att(481,528).
att(109,110).
att(488,544).
att(141,311).
att(230,850).
att(133,258).
att(488,566).
att(488,565).
att(124,171).
att(147,306).
att(232,844).
att(143,311).
att(482,636).
att(141,324).
att(487,565).
att(137,298).
att(126,171).
att(192,700).
att(217,730).
att(207,644).
att(485,631).
att(136,260).
att(129,171).
att(121,106).
att(129,179).
att(121,103).
att(220,726).
att(121,120).
att(487,575).
att(139,258).
att(201,667).
att(230,799).
att(139,254).
att(214,659).
att(230,798).
att(131,244).
att(149,326).
att(143,260).
att(217,649).
att(192,735).
att(136,273).
att(147,330).
att(191,730).
att(481,636).
att(485,568).
att(489,582).
att(226,842).
att(234,605).
att(159,758).
att(489,591).
att(71,213).
att(222,598).
att(64,235).
att(69,200).
att(164,824).
att(483,661).
att(487,614).
att(73,216).
att(166,820).
att(234,598).
att(486,604).
att(482,690).
att(153,746).
att(490,601).
att(489,610).
att(490,617).
att(489,601).
att(164,796).
att(240,593).
att(79,276).
att(484,690).
att(61,225).
att(489,614).
att(66,165).
att(487,631).
att(157,777).
att(483,620).
att(168,744).
att(159,777).
att(486,633).
att(159,775).
att(68,155).
att(485,610).
att(486,612).
att(61,165).
att(75,239).
att(481,674).
att(482,662).
att(75,233).
att(485,607).
att(486,592).
att(61,152).
att(61,162).
att(82,360).
att(95,354).
att(166,762).
att(157,706).
att(157,700).
att(166,786).
att(68,181).
att(168,772).
att(170,762).
att(81,293).
att(89,300).
att(81,291).
att(79,223).
att(157,767).
att(151,754).
att(153,713).
att(159,739).
att(69,173).
att(95,298).
att(487,677).
att(93,297).
att(174,859).
att(82,249).
att(89,328).
att(89,324).
att(89,312).
att(75,179).
att(151,762).
att(97,306).
att(81,311).
att(164,767).
att(153,726).
att(61,117).
att(75,173).
att(61,114).
att(153,733).
att(170,719).
att(71,300).
att(133,120).
att(71,306).
att(133,111).
att(234,716).
att(234,713).
att(230,739).
att(135,117).
att(68,314).
att(236,700).
att(139,183).
att(68,311).
att(143,179).
att(61,326).
att(240,710).
att(79,363).
att(221,780).
att(141,183).
att(79,369).
att(71,367).
att(222,772).
att(240,706).
att(136,110).
att(222,767).
att(137,110).
att(64,256).
att(141,114).
att(73,318).
att(141,111).
att(62,316).
att(153,848).
att(232,649).
att(141,102).
att(75,330).
att(240,723).
att(68,260).
att(64,316).
att(240,739).
att(228,682).
att(71,242).
att(226,672).
att(71,241).
att(66,278).
att(68,280).
att(161,806).
att(228,678).
att(168,852).
att(236,655).
att(61,289).
att(153,794).
att(234,723).
att(240,643).
att(149,114).
att(147,110).
att(228,599).
att(66,193).
att(226,599).
att(228,597).
att(228,595).
att(66,203).
att(71,273).
att(236,682).
att(61,219).
att(61,213).
att(75,270).
att(163,824).
att(168,810).
att(64,280).
att(157,798).
att(79,249).
att(222,655).
att(61,200).
att(87,613).
att(87,611).
att(83,594).
att(188,297).
att(93,666).
att(159,103).
att(83,663).
att(168,183).
att(153,120).
att(85,663).
att(81,596).
att(185,357).
att(83,689).
att(81,603).
att(281,859).
att(91,603).
att(188,324).
att(188,311).
att(93,606).
att(85,624).
att(164,103).
att(89,625).
att(290,859).
att(97,603).
att(97,613).
att(190,311).
att(170,117).
att(180,289).
att(261,859).
att(91,622).
att(95,639).
att(39,790).
att(186,258).
att(287,810).
att(82,557).
att(83,630).
att(91,616).
att(271,796).
att(271,794).
att(34,738).
att(83,576).
att(281,828).
att(44,765).
att(48,765).
att(41,696).
att(188,263).
att(284,820).
att(180,206).
att(266,800).
att(91,637).
att(33,717).
att(83,559).
att(83,557).
att(190,278).
att(31,704).
att(164,273).
att(166,263).
att(93,784).
att(164,270).
att(93,781).
att(153,223).
att(161,216).
att(83,765).
att(73,556).
att(83,769).
att(69,639).
att(69,637).
att(85,765).
att(71,579).
att(164,209).
att(85,729).
att(157,223).
att(82,652).
att(89,734).
att(95,696).
att(73,571).
att(81,736).
att(89,731).
att(151,276).
att(157,210).
att(91,765).
att(91,763).
att(87,656).
att(153,176).
att(157,160).
att(91,729).
att(161,169).
att(182,376).
att(71,537).
att(166,239).
att(182,374).
att(182,360).
att(73,525).
att(161,162).
att(168,237).
att(157,239).
att(174,363).
att(79,585).
att(186,363).
att(93,656).
att(174,320).
att(91,648).
att(95,646).
att(188,374).
att(188,363).
att(93,652).
att(166,165).
att(178,367).
att(89,689).
att(153,181).
att(79,523).
att(83,648).
att(151,237).
att(163,173).
att(118,241).
att(34,557).
att(109,265).
att(35,625).
att(281,657).
att(214,859).
att(109,286).
att(185,103).
att(188,106).
att(46,596).
att(48,613).
att(37,611).
att(31,628).
att(129,318).
att(48,609).
att(37,551).
att(124,242).
att(107,200).
att(266,678).
att(217,796).
att(44,622).
att(46,635).
att(109,203).
att(281,668).
att(217,799).
att(121,276).
att(287,665).
att(192,859).
att(121,286).
att(46,632).
att(35,632).
att(35,630).
att(201,808).
att(211,846).
att(33,567).
att(31,563).
att(48,632).
att(104,280).
att(33,521).
att(191,800).
att(37,579).
att(281,618).
att(201,750).
att(44,556).
att(284,608).
att(118,216).
att(207,754).
att(39,589).
att(281,593).
att(129,263).
att(287,602).
att(211,798).
att(211,796).
att(201,826).
att(264,665).
att(48,563).
att(121,209).
att(44,579).
att(109,165).
att(211,750).
att(211,756).
att(217,754).
att(39,535).
att(48,589).
att(262,595).
att(126,200).
att(201,760).
att(112,216).
att(31,523).
att(35,589).
att(201,746).
att(41,529).
att(261,830).
att(91,576).
att(109,374).
att(284,744).
att(83,527).
att(261,815).
att(91,579).
att(262,820).
att(262,828).
att(93,585).
att(261,820).
att(89,527).
att(89,525).
att(184,235).
att(182,231).
att(182,229).
att(172,227).
att(178,210).
att(89,522).
att(33,722).
att(190,200).
att(266,824).
att(271,741).
att(91,529).
att(109,304).
att(185,225).
att(33,666).
att(34,683).
att(271,706).
att(185,235).
att(261,741).
att(39,652).
att(284,777).
att(186,235).
att(104,363).
att(266,741).
att(95,527).
att(48,738).
att(182,154).
att(188,227).
att(95,523).
att(271,764).
att(31,646).
att(482,21).
att(115,308).
att(33,596).
att(185,156).
att(33,594).
att(109,312).
att(115,297).
att(281,710).
att(126,376).
att(481,28).
att(118,308).
att(39,673).
att(481,30).
att(35,642).
att(104,297).
att(129,363).
att(121,308).
att(121,306).
att(182,171).
att(48,654).
att(41,689).
att(129,369).
att(182,181).
att(266,777).
att(172,181).
att(190,160).
att(483,27).
att(190,158).
att(483,26).
att(109,254).
att(34,635).
att(207,849).
att(178,111).
att(41,616).
att(121,314).
att(186,171).
att(262,719).
att(180,108).
att(287,723).
att(481,2).
att(34,624).
att(186,177).
att(39,619).
att(48,686).
att(266,700).
att(290,725).
att(290,732).
att(483,7).
att(31,606).
att(115,531).
att(211,229).
att(230,354).
att(211,235).
att(487,19).
att(482,58).
att(141,738).
att(485,10).
att(191,193).
att(230,374).
att(214,235).
att(118,527).
att(485,54).
att(490,18).
att(147,704).
att(489,19).
att(232,363).
att(194,206).
att(137,714).
att(131,736).
att(483,18).
att(236,360).
att(236,357).
att(194,155).
att(201,183).
att(131,666).
att(220,176).
att(214,162).
att(238,374).
att(147,721).
att(214,156).
att(230,304).
att(485,28).
att(191,224).
att(147,740).
att(220,155).
att(484,19).
att(194,239).
att(131,658).
att(220,158).
att(228,318).
att(483,96).
att(133,603).
att(488,43).
att(483,92).
att(141,670).
att(482,92).
att(485,42).
att(485,92).
att(131,676).
att(137,656).
att(220,171).
att(220,181).
att(137,641).
att(226,295).
att(226,293).
att(483,45).
att(482,36).
att(137,603).
att(228,242).
att(482,40).
att(236,320).
att(232,251).
att(486,50).
att(136,630).
att(214,102).
att(485,50).
att(228,311).
att(226,314).
att(222,304).
att(143,609).
att(34,44).
att(115,600).
att(281,117).
att(281,114).
att(211,330).
att(107,635).
att(124,673).
att(281,102).
att(44,75).
att(191,295).
att(261,179).
att(486,76).
att(204,249).
att(48,79).
att(39,82).
att(118,596).
att(39,81).
att(126,670).
att(284,110).
att(121,611).
att(217,330).
att(262,179).
att(485,145).
att(264,175).
att(290,117).
att(484,138).
att(37,48).
att(135,768).
att(107,557).
att(204,280).
att(487,94).
att(487,99).
att(136,763).
att(214,258).
att(214,256).
att(41,39).
att(48,91).
att(220,254).
att(217,251).
att(262,103).
att(489,84).
att(126,600).
att(136,773).
att(192,314).
att(31,41).
att(266,117).
att(129,594).
att(489,96).
att(264,108).
att(201,242).
att(484,78).
att(133,701).
att(487,122).
att(44,31).
att(44,39).
att(118,569).
att(44,37).
att(207,193).
att(126,624).
att(121,557).
att(46,39).
att(217,276).
att(118,553).
att(121,556).
att(489,116).
att(194,258).
att(104,567).
att(220,273).
att(194,244).
att(112,578).
att(139,701).
att(104,522).
att(107,535).
att(112,574).
att(201,224).
att(104,521).
att(107,533).
att(211,200).
att(112,585).
att(133,727).
att(483,113).
att(112,579).
att(133,736).
att(115,571).
att(217,213).
att(124,563).
att(124,559).
att(204,224).
att(107,521).
att(124,557).
att(486,138).
att(220,216).
att(121,579).
att(147,790).
att(126,567).
att(207,229).
att(489,145).
att(164,374).
att(166,382).
att(66,686).
att(147,525).
att(221,239).
att(73,652).
att(62,646).
att(62,658).
att(232,173).
att(170,382).
att(161,312).
att(66,611).
att(71,689).
att(226,106).
att(222,175).
att(163,314).
att(75,673).
att(232,111).
att(151,369).
att(163,326).
att(238,189).
att(79,646).
att(153,324).
att(234,111).
att(164,324).
att(161,249).
att(163,241).
att(221,189).
att(168,320).
att(69,683).
att(170,330).
att(157,278).
att(87,773).
att(161,280).
att(221,111).
att(163,270).
att(163,283).
att(66,556).
att(68,557).
att(69,619).
att(62,626).
att(153,270).
att(133,563).
att(131,551).
att(137,626).
att(135,563).
att(236,247).
att(222,314).
att(232,270).
att(226,256).
att(137,611).
att(143,624).
att(228,200).
att(68,717).
att(68,696).
att(73,784).
att(62,768).
att(75,773).
att(136,581).
att(226,283).
att(64,761).
att(131,569).
att(226,265).
att(71,701).
att(139,589).
att(131,522).
att(64,729).
att(131,521).
att(64,727).
att(68,738).
att(68,736).
att(66,731).
att(71,704).
att(61,740).
att(61,738).
att(62,694).
att(135,529).
att(62,701).
att(69,781).
att(149,557).
att(64,648).
att(159,360).
att(226,156).
att(139,529).
att(141,531).
att(228,160).
att(234,223).
att(147,574).
att(153,363).
att(163,363).
att(230,160).
att(69,717).
att(226,237).
att(240,231).
att(69,694).
att(153,376).
att(93,238).
att(69,35).
att(82,174).
att(151,622).
att(180,763).
att(97,221).
att(182,773).
att(166,630).
att(164,624).
att(163,561).
att(89,170).
att(91,191).
att(93,157).
att(82,107).
att(91,161).
att(182,720).
att(184,691).
att(182,714).
att(85,174).
att(157,571).
att(97,161).
att(81,188).
att(168,561).
att(190,765).
att(184,714).
att(172,704).
att(93,190).
att(164,583).
att(151,571).
att(174,650).
att(151,576).
att(151,574).
att(85,124).
att(178,727).
att(87,104).
att(161,531).
att(87,115).
att(89,104).
att(161,529).
att(190,696).
att(166,578).
att(95,182).
att(151,561).
att(91,166).
att(174,722).
att(178,714).
att(97,184).
att(85,141).
att(174,670).
att(178,650).
att(180,642).
att(271,300).
att(274,293).
att(188,736).
att(166,537).
att(93,109).
att(182,660).
att(93,107).
att(188,722).
att(87,149).
att(182,641).
att(89,135).
att(184,650).
att(290,376).
att(87,136).
att(91,188).
att(170,523).
att(178,736).
att(190,731).
att(290,382).
att(159,660).
att(159,654).
att(168,736).
att(73,112).
att(236,535).
att(159,650).
att(64,133).
att(73,109).
att(170,722).
att(68,149).
att(69,190).
att(61,143).
att(62,129).
att(61,141).
att(159,670).
att(164,652).
att(71,149).
att(85,274).
att(164,646).
att(69,143).
att(89,287).
att(166,652).
att(166,648).
att(161,680).
att(166,660).
att(79,126).
att(75,139).
att(151,721).
att(75,137).
att(168,652).
att(168,650).
att(168,658).
att(164,724).
att(151,727).
att(157,656).
att(157,654).
att(62,149).
att(163,679).
att(164,676).
att(164,673).
att(87,192).
att(153,624).
att(93,262).
att(161,603).
att(97,262).
att(166,676).
att(87,201).
att(159,609).
att(161,611).
att(83,264).
att(163,603).
att(153,609).
att(69,147).
att(81,207).
att(164,609).
att(166,611).
att(93,220).
att(164,619).
att(153,553).
att(87,230).
att(87,226).
att(170,611).
att(168,606).
att(61,35).
att(83,220).
att(153,639).
att(124,781).
att(44,168).
att(107,731).
att(172,522).
att(178,574).
att(174,533).
att(126,784).
att(262,289).
att(34,109).
att(185,556).
att(186,557).
att(261,276).
att(118,694).
att(112,769).
att(290,213).
att(287,206).
att(121,717).
att(37,151).
att(190,551).
att(33,185).
att(185,579).
att(37,112).
att(178,537).
att(126,692).
att(207,374).
att(264,203).
att(129,696).
att(126,704).
att(262,209).
att(188,589).
att(190,576).
att(31,109).
att(112,714).
att(266,200).
att(190,581).
att(264,196).
att(115,646).
att(37,143).
att(35,135).
att(115,642).
att(204,293).
att(39,133).
att(34,68).
att(118,660).
att(207,308).
att(262,235).
att(37,136).
att(124,740).
att(207,297).
att(41,135).
att(220,376).
att(46,118).
att(190,537).
att(31,143).
att(290,160).
att(112,721).
att(264,229).
att(191,369).
att(281,181).
att(261,165).
att(211,300).
att(266,176).
att(35,68).
att(115,680).
att(35,66).
att(284,181).
att(118,686).
att(207,328).
att(34,85).
att(115,679).
att(207,324).
att(39,79).
att(44,139).
att(261,156).
att(201,298).
att(129,656).
att(126,652).
att(264,169).
att(287,183).
att(121,680).
att(41,79).
att(271,189).
att(290,171).
att(174,609).
att(262,369).
att(39,266).
att(261,376).
att(82,97).
att(178,673).
att(264,354).
att(31,264).
att(89,79).
att(178,654).
att(97,135).
att(281,367).
att(184,666).
att(271,293).
att(290,300).
att(39,211).
att(174,630).
att(178,596).
att(185,673).
att(85,91).
att(264,293).
att(287,326).
att(262,306).
att(46,284).
att(41,201).
att(174,611).
att(281,297).
att(281,295).
att(271,326).
att(81,91).
att(93,91).
att(284,254).
att(109,761).
att(281,258).
att(44,192).
att(271,273).
att(274,263).
att(284,247).
att(85,41).
att(44,204).
att(31,236).
att(95,89).
att(264,326).
att(87,39).
att(186,596).
att(81,41).
att(97,82).
att(266,320).
att(172,635).
att(266,324).
att(44,240).
att(109,711).
att(37,161).
att(91,37).
att(180,567).
att(261,256).
att(34,188).
att(37,159).
att(115,784).
att(274,213).
att(37,170).
att(109,701).
att(109,720).
att(95,33).
att(178,639).
att(33,168).
att(97,31).
att(135,214).
att(104,82).
att(135,191).
att(211,683).
att(201,600).
att(124,141).
att(109,93).
att(124,149).
att(136,191).
att(115,71).
att(143,274).
att(192,646).
att(131,262).
att(46,497).
att(118,66).
att(143,287).
att(133,266).
att(46,494).
att(129,137).
att(115,81).
att(191,670).
att(124,75).
att(143,191).
att(109,48).
att(135,230).
att(204,622).
att(139,207).
att(139,204).
att(126,62).
att(220,613).
att(192,686).
att(192,683).
att(207,622).
att(137,281).
att(121,87).
att(220,603).
att(230,761).
att(204,567).
att(211,628).
att(211,639).
att(201,561).
att(147,194).
att(211,625).
att(131,222).
att(149,211).
att(192,616).
att(126,91).
att(143,234).
att(129,83).
att(131,226).
att(194,619).
att(211,559).
att(133,190).
att(220,578).
att(214,567).
att(126,35).
att(232,711).
att(194,630).
att(194,628).
att(228,769).
att(131,157).
att(220,561).
att(226,761).
att(34,508).
att(185,46).
att(271,576).
att(211,773).
att(33,508).
att(284,561).
att(274,574).
att(39,547).
att(115,161).
att(214,787).
att(274,583).
att(214,784).
att(41,544).
att(126,232).
att(220,763).
att(39,545).
att(41,546).
att(39,544).
att(31,545).
att(33,550).
att(266,628).
att(104,157).
att(31,546).
att(48,538).
att(201,761).
att(109,124).
att(191,761).
att(281,583).
att(35,502).
att(204,738).
att(35,505).
att(192,763).
att(34,511).
att(274,527).
att(124,159).
att(284,579).
att(261,561).
att(126,170).
att(262,559).
att(284,574).
att(35,549).
att(290,581).
att(107,131).
att(115,112).
att(214,734).
att(281,535).
att(115,126).
att(211,729).
att(112,118).
att(39,515).
att(126,186).
att(284,523).
att(34,497).
att(261,572).
att(204,648).
att(48,509).
att(262,578).
att(39,516).
att(261,571).
att(194,704).
att(35,508).
att(129,184).
att(266,589).
att(214,642).
att(133,271).
att(46,518).
att(124,104).
att(129,124).
att(194,721).
att(264,531).
att(126,121).
att(191,731).
att(48,513).
att(194,727).
att(264,529).
att(48,517).
att(129,112).
att(234,600).
att(71,192).
att(139,81).
att(236,609).
att(133,34).
att(139,95).
att(228,628).
att(147,62).
att(238,594).
att(240,611).
att(141,83).
att(71,261).
att(131,97).
att(69,284).
att(79,271).
att(232,622).
att(161,763).
att(226,553).
att(228,567).
att(139,37).
att(71,232).
att(238,639).
att(141,46).
att(69,220).
att(62,234).
att(221,606).
att(222,555).
att(226,581).
att(164,781).
att(73,157).
att(168,781).
att(228,574).
att(234,551).
att(221,637).
att(230,583).
att(149,37).
att(221,625).
att(69,222).
att(222,637).
att(62,168).
att(222,578).
att(234,579).
att(64,129).
att(62,104).
att(68,124).
att(66,121).
att(168,691).
att(234,572).
att(153,722).
att(232,531).
att(238,585).
att(73,174).
att(75,186).
att(163,724).
att(153,731).
att(61,107).
att(221,556).
att(61,115).
att(133,118).
att(137,172).
att(236,692).
att(141,178).
att(147,164).
att(211,578).
att(141,185).
att(204,537).
att(230,722).
att(222,784).
att(131,186).
att(217,578).
att(240,720).
att(137,109).
att(133,141).
att(136,147).
att(141,129).
att(141,124).
att(221,717).
att(214,521).
att(141,104).
att(147,178).
att(131,121).
att(194,589).
att(222,720).
att(131,124).
att(143,121).
att(131,64).
att(230,689).
att(236,658).
att(192,533).
att(191,525).
att(221,738).
att(238,650).
att(221,734).
att(232,680).
att(131,139).
att(226,656).
att(192,525).
att(228,616).
att(149,135).
att(131,73).
att(222,648).
att(222,660).
att(62,290).
att(131,79).
att(136,82).
att(221,650).
att(87,612).
att(64,519).
att(93,687).
att(64,518).
att(153,136).
att(79,502).
att(91,674).
att(93,662).
att(89,614).
att(97,661).
att(66,520).
att(168,172).
att(97,684).
att(89,601).
att(97,664).
att(168,188).
att(151,161).
att(170,182).
att(68,512).
att(75,510).
att(163,121).
att(93,617).
att(157,143).
att(83,623).
att(91,601).
att(64,494).
att(97,601).
att(81,634).
att(161,133).
att(85,612).
att(170,107).
att(82,634).
att(68,491).
att(93,638).
att(174,204).
att(170,68).
att(174,214).
att(180,262).
att(184,290).
att(73,499).
att(174,266).
att(75,491).
att(172,274).
att(172,287).
att(172,281).
att(85,586).
att(164,73).
att(186,266).
att(93,568).
att(157,85).
att(178,207).
att(153,37).
att(159,87).
att(166,71).
att(93,562).
att(93,560).
att(168,64).
att(163,93).
att(95,562).
att(170,66).
att(170,71).
att(166,262).
att(166,271).
att(61,590).
att(79,638).
att(79,636).
att(79,634).
att(238,71).
att(240,75).
att(153,214).
att(61,580).
att(69,573).
att(240,34).
att(240,33).
att(71,575).
att(228,37).
att(234,81).
att(166,201).
att(166,217).
att(153,222).
att(79,566).
att(168,207).
att(238,91).
att(73,586).
att(151,290).
att(157,194).
att(232,39).
att(240,95).
att(234,48).
att(702,345).
att(166,222).
att(712,361).
att(69,532).
att(66,550).
att(234,37).
att(62,501).
att(79,541).
att(89,681).
att(163,180).
att(89,677).
att(79,528).
att(79,524).
att(39,634).
att(174,71).
att(271,679).
att(261,722).
att(271,676).
att(178,137).
att(46,604).
att(85,491).
att(109,274).
att(39,627).
att(109,290).
att(186,126).
att(93,518).
att(31,638).
att(95,516).
att(264,738).
att(290,660).
att(180,69).
att(274,619).
att(34,590).
att(115,284).
att(271,603).
att(33,582).
att(182,71).
att(284,676).
att(93,495).
att(180,73).
att(185,131).
att(35,621).
att(264,648).
att(266,641).
att(48,638).
att(46,623).
att(287,686).
att(107,281).
att(281,642).
att(97,492).
att(104,274).
att(184,68).
att(190,141).
att(264,652).
att(37,586).
att(33,526).
att(185,69).
att(190,89).
att(262,689).
att(109,230).
att(261,666).
att(44,564).
att(274,632).
att(48,570).
att(48,568).
att(121,217).
att(188,69).
att(188,79).
att(290,600).
att(35,565).
att(109,151).
att(37,532).
att(33,549).
att(118,240).
att(186,93).
att(180,48).
att(281,624).
att(121,228).
att(184,44).
att(39,530).
att(266,603).
att(172,44).
att(190,83).
att(266,600).
att(31,538).
att(48,577).
att(185,201).
att(186,191).
att(170,34).
att(178,232).
att(83,528).
att(157,46).
att(178,228).
att(87,526).
att(184,221).
att(166,95).
att(182,238).
att(95,587).
att(186,201).
att(157,31).
att(188,217).
att(91,570).
att(172,230).
att(83,588).
att(180,157).
att(284,768).
att(93,539).
att(178,161).
att(151,35).
att(33,674).
att(34,662).
att(178,157).
att(85,543).
att(290,781).
att(97,539).
att(172,161).
att(81,543).
att(178,222).
att(83,539).
att(180,178).
att(34,601).
att(82,516).
att(34,617).
att(39,662).
att(174,115).
att(33,610).
att(185,166).
att(274,721).
att(182,180).
att(185,153).
att(284,714).
att(264,790).
att(95,542).
att(33,671).
att(91,540).
att(81,510).
att(97,542).
att(37,610).
att(48,661).
att(85,517).
att(174,136).
att(174,135).
att(95,501).
att(48,684).
att(83,508).
att(178,186).
att(31,610).
att(33,592).
att(290,727).
att(35,24).
att(115,539).
att(782,428).
att(204,164).
att(785,425).
att(201,157).
att(264,34).
att(44,15).
att(33,20).
att(261,97).
att(493,698).
att(109,546).
att(191,194).
att(261,95).
att(493,697).
att(497,771).
att(495,745).
att(770,383).
att(46,19).
att(34,3).
att(284,37).
att(778,389).
att(788,398).
att(492,785).
att(778,385).
att(220,240).
att(778,387).
att(107,508).
att(35,5).
att(133,684).
att(217,164).
att(497,707).
att(499,788).
att(261,35).
att(770,370).
att(107,505).
att(135,687).
att(766,415).
att(39,8).
att(44,23).
att(770,364).
att(136,690).
att(129,528).
att(211,222).
att(266,46).
att(495,778).
att(264,31).
att(776,368).
att(194,238).
att(201,151).
att(220,161).
att(492,709).
att(698,472).
att(264,35).
att(129,540).
att(776,445).
att(785,458).
att(129,501).
att(778,433).
att(778,431).
att(44,1).
att(44,8).
att(118,507).
att(499,718).
att(115,504).
att(44,5).
att(112,502).
att(770,427).
att(217,184).
att(771,432).
att(109,513).
att(109,512).
att(192,151).
att(217,190).
att(194,159).
att(48,1).
att(131,674).
att(121,506).
att(500,697).
att(131,681).
att(782,445).
att(774,429).
att(782,436).
att(194,107).
att(211,126).
att(115,511).
att(147,661).
att(112,513).
att(214,129).
att(112,512).
att(204,141).
att(220,126).
att(118,517).
att(217,118).
att(192,186).
att(126,507).
att(115,513).
att(214,109).
att(141,607).
att(129,503).
att(137,661).
att(770,398).
att(261,188).
att(493,801).
att(271,131).
att(493,805).
att(112,607).
att(186,510).
att(779,480).
att(782,480).
att(749,335).
att(499,833).
att(749,331).
att(774,468).
att(492,841).
att(104,591).
att(495,832).
att(743,366).
att(495,831).
att(500,840).
att(743,368).
att(129,662).
att(107,612).
att(493,843).
att(778,460).
att(492,858).
att(190,510).
att(190,509).
att(757,344).
att(48,65).
att(190,508).
att(771,463).
att(492,843).
att(770,453).
att(778,459).
att(207,262).
att(107,562).
att(271,64).
att(782,470).
att(757,333).
att(186,514).
att(109,564).
att(779,469).
att(44,84).
att(261,121).
att(774,459).
att(34,60).
att(743,345).
att(121,627).
att(287,143).
att(186,512).
att(495,851).
att(774,453).
att(180,494).
att(186,515).
att(496,847).
att(129,607).
att(495,860).
att(129,604).
att(129,601).
att(34,17).
att(115,558).
att(281,75).
att(124,621).
att(107,590).
att(104,575).
att(107,588).
att(757,401).
att(500,795).
att(749,385).
att(261,135).
att(284,75).
att(494,749).
att(274,87).
att(109,584).
att(115,554).
att(497,821).
att(124,640).
att(759,396).
att(126,633).
att(41,60).
att(48,50).
att(126,631).
att(126,629).
att(500,803).
att(747,383).
att(751,370).
att(201,284).
att(35,43).
att(48,40).
att(743,412).
att(121,554).
att(129,629).
att(752,364).
att(290,79).
att(778,474).
att(107,536).
att(204,238).
att(33,26).
att(39,14).
att(217,214).
att(749,355).
att(126,565).
att(44,55).
att(191,284).
att(217,191).
att(37,15).
att(109,539).
att(749,352).
att(129,566).
att(126,564).
att(262,64).
att(287,95).
att(121,588).
att(491,743).
att(745,392).
att(747,352).
att(44,52).
att(194,274).
att(492,759).
att(495,822).
att(201,214).
att(211,262).
att(31,13).
att(41,12).
att(48,55).
att(495,829).
att(771,473).
att(104,588).
att(287,81).
att(64,677).
att(133,509).
att(234,159).
att(702,396).
att(226,172).
att(715,406).
att(133,502).
att(698,352).
att(699,377).
att(238,163).
att(143,550).
att(718,387).
att(141,549).
att(697,365).
att(149,526).
att(143,549).
att(137,503).
att(698,344).
att(131,516).
att(137,509).
att(141,508).
att(230,112).
att(709,383).
att(699,365).
att(230,124).
att(137,502).
att(702,361).
att(61,612).
att(221,166).
att(238,180).
att(68,601).
att(238,190).
att(131,507).
att(240,184).
att(718,349).
att(131,494).
att(131,493).
att(705,426).
att(715,431).
att(137,514).
att(68,638).
att(702,426).
att(698,408).
att(73,612).
att(236,126).
att(702,428).
att(147,503).
att(697,406).
att(75,617).
att(699,427).
att(697,415).
att(698,403).
att(238,126).
att(222,180).
att(69,684).
att(707,406).
att(69,681).
att(143,517).
att(705,415).
att(62,617).
att(707,412).
att(137,498).
att(64,560).
att(159,281).
att(137,499).
att(69,627).
att(73,629).
att(236,143).
att(699,415).
att(236,137).
att(71,633).
att(234,135).
att(238,143).
att(230,66).
att(141,496).
att(697,394).
att(236,135).
att(718,403).
att(232,61).
att(715,408).
att(69,612).
att(69,591).
att(153,287).
att(204,79).
att(211,141).
att(228,284).
att(133,558).
att(194,133).
att(785,333).
att(220,61).
att(230,271).
att(702,455).
att(709,467).
att(766,335).
att(137,617).
att(137,614).
att(707,438).
att(137,612).
att(137,591).
att(118,493).
att(137,564).
att(207,93).
att(135,573).
att(709,460).
att(236,274).
att(139,552).
att(201,82).
att(211,62).
att(143,562).
att(709,450).
att(232,201).
att(699,432).
att(697,426).
att(143,568).
att(204,82).
att(129,495).
att(137,636).
att(143,564).
att(133,538).
att(234,201).
att(137,586).
att(782,396).
att(141,582).
att(779,389).
att(779,383).
att(230,221).
att(702,479).
att(705,474).
att(143,580).
att(217,93).
att(232,236).
att(702,473).
att(788,370).
att(194,79).
att(222,284).
att(699,471).
att(194,33).
att(211,46).
att(715,476).
att(715,474).
att(226,163).
att(782,364).
att(230,159).
att(698,460).
att(712,474).
att(211,31).
att(214,44).
att(712,480).
att(222,192).
att(232,159).
att(136,549).
att(214,33).
att(232,170).
att(702,465).
att(136,546).
att(149,577).
att(707,460).
att(697,450).
att(220,35).
att(143,530).
att(697,455).
att(136,541).
att(64,53).
att(504,822).
att(62,51).
att(64,57).
att(157,562).
att(513,890).
att(222,495).
att(504,825).
att(234,494).
att(506,816).
att(812,463).
att(501,829).
att(819,434).
att(503,793).
att(503,791).
att(68,58).
att(501,814).
att(163,565).
att(73,47).
att(168,638).
att(816,459).
att(502,819).
att(221,511).
att(507,858).
att(507,856).
att(827,442).
att(819,431).
att(79,94).
att(502,816).
att(829,436).
att(164,558).
att(814,451).
att(516,881).
att(513,864).
att(812,457).
att(66,13).
att(161,580).
att(166,564).
att(517,881).
att(825,435).
att(164,552).
att(166,566).
att(501,755).
att(829,430).
att(73,55).
att(66,15).
att(164,621).
att(827,429).
att(62,59).
att(827,430).
att(61,14).
att(157,565).
att(164,586).
att(827,476).
att(793,380).
att(827,474).
att(504,785).
att(827,477).
att(151,586).
att(157,532).
att(503,770).
att(801,341).
att(822,461).
att(89,125).
att(505,776).
att(589,483).
att(509,745).
att(517,861).
att(589,481).
att(791,385).
att(809,339).
att(819,467).
att(506,770).
att(514,882).
att(506,778).
att(511,869).
att(819,465).
att(801,337).
att(166,577).
att(801,331).
att(82,130).
att(163,530).
att(795,364).
att(79,58).
att(502,766).
att(807,341).
att(829,469).
att(163,538).
att(812,478).
att(157,547).
att(170,545).
att(517,880).
att(95,130).
att(511,875).
att(71,25).
att(69,22).
att(803,339).
att(825,467).
att(87,148).
att(93,116).
att(516,880).
att(163,546).
att(509,776).
att(793,345).
att(61,7).
att(68,2).
att(816,465).
att(131,1).
att(234,540).
att(547,779).
att(505,876).
att(543,712).
att(807,403).
att(803,410).
att(544,707).
att(73,125).
att(139,25).
att(793,419).
att(791,425).
att(502,877).
att(809,391).
att(230,545).
att(501,879).
att(797,412).
att(139,23).
att(548,776).
att(546,755).
att(542,771).
att(240,536).
att(502,874).
att(141,24).
att(509,877).
att(69,132).
att(157,677).
att(546,705).
att(69,138).
att(546,699).
att(801,368).
att(139,7).
att(821,475).
att(66,72).
att(71,132).
att(548,712).
att(822,476).
att(71,142).
att(505,840).
att(75,142).
att(507,868).
att(801,358).
att(543,709).
att(147,24).
att(507,869).
att(238,541).
att(807,370).
att(159,620).
att(222,502).
att(793,456).
att(504,858).
att(502,802).
att(73,80).
att(71,63).
att(802,430).
att(791,457).
att(64,86).
att(68,88).
att(61,99).
att(803,434).
att(163,612).
att(809,419).
att(240,509).
att(550,705).
att(238,505).
att(159,627).
att(807,419).
att(62,32).
att(64,50).
att(504,809).
att(153,554).
att(234,513).
att(71,98).
att(234,516).
att(228,499).
att(509,847).
att(234,514).
att(505,807).
att(509,845).
att(510,853).
att(501,803).
att(238,518).
att(66,32).
att(506,801).
att(151,671).
att(164,661).
att(795,421).
att(232,497).
att(503,860).
att(507,834).
att(232,496).
att(151,681).
att(153,636).
att(61,43).
att(68,42).
att(238,516).
att(284,211).
att(519,812).
att(82,28).
att(261,287).
att(274,240).
att(82,27).
att(494,861).
att(497,882).
att(185,568).
att(513,779).
att(753,440).
att(180,575).
att(186,560).
att(516,747).
att(93,59).
att(519,816).
att(82,22).
att(261,271).
att(745,438).
att(89,18).
att(517,751).
att(749,419).
att(517,759).
att(519,822).
att(512,747).
att(97,51).
att(512,755).
att(514,823).
att(174,542).
att(82,8).
att(494,872).
att(498,866).
att(178,526).
att(37,130).
att(172,543).
att(178,532).
att(493,873).
att(188,587).
att(517,779).
att(186,582).
att(519,757).
att(174,545).
att(499,890).
att(284,236).
att(518,749).
att(89,27).
att(747,401).
att(287,230).
att(41,119).
att(519,752).
att(287,238).
att(519,751).
att(515,753).
att(31,105).
att(514,747).
att(743,423).
att(752,396).
att(91,28).
att(180,546).
att(518,771).
att(185,536).
att(518,788).
att(757,465).
att(274,188).
att(107,690).
att(743,474).
att(825,339).
att(500,863).
att(755,465).
att(753,468).
att(109,677).
att(262,236).
att(519,785).
att(93,25).
att(93,30).
att(498,872).
att(755,466).
att(823,342).
att(180,548).
att(186,539).
att(284,168).
att(498,871).
att(109,687).
att(290,168).
att(492,871).
att(182,541).
att(520,774).
att(753,463).
att(511,709).
att(752,442).
att(492,879).
att(512,712).
att(757,460).
att(89,2).
att(492,874).
att(190,532).
att(290,157).
att(514,782).
att(97,30).
att(271,109).
att(757,453).
att(115,687).
att(281,180).
att(757,449).
att(518,709).
att(752,435).
att(497,836).
att(112,671).
att(266,184).
att(498,839).
att(91,20).
att(174,517).
att(109,620).
att(494,854).
att(186,545).
att(287,178).
att(749,431).
att(182,509).
att(37,145).
att(172,510).
att(493,831).
att(743,455).
att(752,421).
att(95,20).
att(266,166).
att(104,681).
att(508,715).
att(519,875).
att(812,413).
att(153,516).
att(153,515).
att(515,839).
att(166,542).
att(819,368).
att(71,7).
att(93,134).
att(164,541).
att(520,877).
att(166,546).
att(180,677).
att(816,389).
att(95,134).
att(511,833).
att(95,144).
att(166,544).
att(749,474).
att(159,502).
att(184,664).
att(79,26).
att(172,677).
att(752,469).
att(814,380).
att(163,504).
att(73,4).
att(153,493).
att(757,476).
att(812,377).
att(85,96).
att(186,661).
att(170,511).
att(759,472).
att(519,840).
att(755,474).
att(85,90).
att(821,335).
att(186,684).
att(514,833).
att(747,467).
att(816,352).
att(814,366).
att(166,502).
att(747,465).
att(97,78).
att(511,845).
att(829,345).
att(91,150).
att(163,513).
att(518,877).
att(814,355).
att(514,838).
att(745,476).
att(512,843).
att(85,47).
att(821,415).
att(170,492).
att(182,627).
att(85,42).
att(829,408).
att(89,47).
att(190,591).
att(89,45).
att(89,43).
att(83,98).
att(151,508).
att(163,491).
att(515,845).
att(816,423).
att(97,86).
att(174,584).
att(174,582).
att(513,757).
att(521,487).
att(822,380).
att(91,47).
att(271,201).
att(518,793).
att(186,631).
att(180,552).
att(494,890).
att(519,795).
att(514,797).
att(95,42).
att(166,493).
att(89,60).
att(95,38).
att(517,829).
att(172,562).
att(814,406).
att(170,499).
att(831,394).
att(211,677).
att(838,358).
att(211,690).
att(107,99).
att(534,833).
att(639,489).
att(290,517).
att(626,483).
att(832,383).
att(118,70).
att(109,96).
att(539,873).
att(637,485).
att(856,471).
att(207,614).
att(499,305).
att(204,607).
att(637,488).
att(271,511).
att(494,243).
att(126,134).
att(500,302).
att(287,503).
att(840,339).
att(847,479).
att(532,875).
att(635,483).
att(220,664).
att(220,662).
att(635,488).
att(264,541).
att(266,546).
att(492,323).
att(491,321).
att(860,468).
att(492,313).
att(590,699).
att(839,341).
att(281,519).
att(266,517).
att(856,468).
att(858,463).
att(839,331).
att(534,847).
att(534,843).
att(832,352).
att(281,511).
att(499,327).
att(530,797).
att(834,341).
att(536,847).
att(191,661).
att(536,845).
att(831,355).
att(262,501).
att(854,463).
att(500,317).
att(118,88).
att(498,250).
att(207,633).
att(498,246).
att(262,508).
att(498,259).
att(845,469).
att(847,461).
att(290,514).
att(495,319).
att(492,255).
att(845,467).
att(860,449).
att(121,88).
att(287,512).
att(853,449).
att(495,327).
att(204,558).
att(112,40).
att(493,218).
att(266,498).
att(832,427).
att(118,45).
att(214,631).
att(261,514).
att(261,519).
att(838,403).
att(264,518).
att(840,396).
att(538,802).
att(118,40).
att(217,631).
att(284,492).
att(834,401).
att(834,415).
att(261,512).
att(840,394).
att(129,86).
att(526,797).
att(121,32).
att(524,801).
att(532,845).
att(840,383).
att(214,565).
att(112,54).
att(831,412).
att(526,749).
att(833,398).
att(838,391).
att(536,821).
att(261,495).
att(632,482).
att(831,410).
att(220,568).
att(630,482).
att(262,497).
att(500,269).
att(217,562).
att(261,494).
att(540,793).
att(630,487).
att(124,40).
att(192,621).
att(109,15).
att(538,816).
att(104,60).
att(526,823).
att(534,791).
att(129,38).
att(495,275).
att(526,814).
att(194,640).
att(495,269).
att(839,361).
att(121,55).
att(262,494).
att(264,495).
att(524,827).
att(833,387).
att(853,472).
att(274,590).
att(494,334).
att(518,288).
att(832,455).
att(577,745).
att(832,456).
att(839,431).
att(172,10).
att(174,17).
att(281,558).
att(832,451).
att(271,586).
att(497,405).
att(582,816).
att(190,56).
att(519,272).
att(182,57).
att(185,32).
att(262,636).
att(519,285).
att(516,199).
att(518,277).
att(587,809).
att(499,390).
att(264,640).
att(287,564).
att(586,829).
att(588,802).
att(186,38).
att(835,451).
att(835,453).
att(840,417).
att(290,552).
att(496,388).
att(190,47).
att(290,562).
att(511,208).
att(496,397).
att(835,458).
att(188,40).
att(290,570).
att(174,29).
att(281,582).
att(497,332).
att(528,868).
att(582,743).
att(588,825).
att(837,427).
att(584,747).
att(494,371).
att(180,14).
att(530,864).
att(178,10).
att(497,350).
att(538,889).
att(184,17).
att(590,825).
att(520,199).
att(835,442).
att(188,58).
att(590,812).
att(498,346).
att(186,54).
att(492,346).
att(493,334).
att(833,425).
att(493,332).
att(580,827).
att(835,433).
att(580,823).
att(590,822).
att(833,429).
att(190,58).
att(834,419).
att(264,562).
att(839,415).
att(575,697).
att(530,875).
att(839,465).
att(107,142).
att(536,868).
att(580,770).
att(839,463).
att(871,365).
att(112,119).
att(840,461).
att(190,21).
att(290,541).
att(580,771).
att(284,524).
att(499,350).
att(494,305).
att(538,865).
att(877,370).
att(834,468).
att(491,375).
att(498,371).
att(284,526).
att(526,869).
att(534,888).
att(835,474).
att(495,351).
att(840,457).
att(840,458).
att(184,30).
att(586,778).
att(124,123).
att(871,341).
att(261,539).
att(587,766).
att(832,466).
att(107,80).
att(190,2).
att(526,840).
att(833,465).
att(271,508).
att(871,345).
att(837,459).
att(109,72).
att(180,5).
att(118,145).
att(281,544).
att(497,307).
att(528,839).
att(588,778).
att(121,150).
att(840,440).
att(586,715).
att(121,146).
att(287,546).
att(540,861).
att(266,536).
att(492,299).
att(129,105).
att(492,307).
att(573,702).
att(835,462).
att(112,123).
att(526,871).
att(580,766).
att(835,468).
att(834,453).
att(835,466).
att(875,342).
att(121,144).
att(833,460).
att(807,464).
att(795,472).
att(544,795).
att(793,475).
att(133,50).
att(807,469).
att(226,629).
att(234,614).
att(807,467).
att(236,610).
att(854,337).
att(141,99).
att(228,623).
att(793,473).
att(791,480).
att(847,331).
att(147,74).
att(845,342).
att(550,833).
att(545,802).
att(802,450).
att(147,78).
att(809,456).
att(543,847).
att(131,94).
att(546,838).
att(131,92).
att(546,837).
att(543,841).
att(801,449).
att(542,854).
att(841,341).
att(841,340).
att(131,56).
att(234,636).
att(141,45).
att(803,459).
att(228,564).
att(236,640).
att(802,440).
att(544,829).
att(793,463).
att(548,795).
att(214,494).
att(232,558).
att(541,825).
att(797,458).
att(191,520).
att(147,99).
att(547,841).
att(797,450).
att(809,435).
att(131,45).
att(807,442).
att(240,629).
att(809,436).
att(143,36).
att(232,564).
att(240,640).
att(795,460).
att(856,387).
att(551,487).
att(238,565).
att(856,385).
att(228,584).
att(228,582).
att(544,757).
att(141,51).
att(147,36).
att(860,364).
att(238,564).
att(191,496).
att(545,752).
att(561,481).
att(561,487).
att(860,370).
att(801,480).
att(557,489).
att(843,394).
att(143,55).
att(222,634).
att(559,483).
att(192,499).
att(64,105).
att(841,394).
att(131,23).
att(131,22).
att(226,526).
att(807,473).
att(226,524).
att(131,28).
att(809,471).
att(856,366).
att(510,883).
att(802,466).
att(567,484).
att(236,580).
att(856,355).
att(228,538).
att(841,389).
att(143,18).
att(238,575).
att(147,53).
att(549,759).
att(854,349).
att(802,462).
att(230,536).
att(548,751).
att(853,333).
att(226,590).
att(505,886).
att(858,339).
att(149,53).
att(541,770).
att(546,814).
att(502,863).
att(61,113).
att(549,752).
att(112,16).
att(211,584).
att(843,434).
att(532,751).
att(133,127).
att(858,421).
att(528,770).
att(124,59).
att(136,123).
att(499,218).
att(545,869).
att(107,22).
att(214,582).
att(135,113).
att(549,886).
att(211,573).
att(543,885).
att(500,202).
att(217,586).
att(500,218).
att(538,759).
att(542,887).
att(207,538).
att(124,54).
att(220,577).
att(194,560).
att(500,198).
att(126,51).
att(532,814).
att(204,546).
att(856,413).
att(544,878).
att(104,2).
att(112,25).
att(547,870).
att(211,540).
att(526,699).
att(532,776).
att(526,715).
att(843,428).
att(547,862).
att(853,394).
att(109,5).
att(851,429).
att(528,707).
att(112,23).
att(536,766).
att(550,884).
att(118,26).
att(847,415).
att(853,383).
att(847,398).
att(118,23).
att(540,759).
att(548,872).
att(137,134).
att(228,687).
att(532,697).
att(845,464).
att(194,543).
att(544,831).
att(220,501).
att(133,77).
att(194,549).
att(544,835).
att(550,867).
att(854,457).
att(115,9).
att(149,127).
att(207,502).
att(538,705).
att(136,63).
att(143,138).
att(546,866).
att(847,458).
att(853,432).
att(147,116).
att(542,877).
att(115,4).
att(136,72).
att(143,145).
att(836,333).
att(135,67).
att(204,502).
att(524,705).
att(192,528).
att(847,456).
att(847,451).
att(118,4).
att(126,28).
att(131,145).
att(546,861).
att(843,458).
att(843,455).
att(548,836).
att(856,433).
att(141,70).
att(841,451).
att(211,505).
att(236,687).
att(136,86).
att(191,544).
att(143,80).
att(550,874).
att(851,458).
att(204,512).
att(129,6).
att(858,430).
att(194,546).
att(131,70).
att(240,671).
att(866,431).
att(226,26).
att(504,372).
att(505,356).
att(627,774).
att(153,132).
att(560,862).
att(510,336).
att(236,19).
att(862,419).
att(562,869).
att(509,338).
att(502,353).
att(868,417).
att(867,427).
att(864,413).
att(863,401).
att(502,375).
att(623,785).
att(867,421).
att(562,872).
att(865,426).
att(634,788).
att(222,26).
att(240,2).
att(504,309).
att(870,394).
att(151,105).
att(621,778).
att(627,699).
att(861,401).
att(166,122).
att(509,371).
att(868,412).
att(509,381).
att(631,715).
att(869,394).
att(568,868).
att(869,391).
att(869,392).
att(552,872).
att(230,6).
att(868,404).
att(868,406).
att(502,299).
att(157,125).
att(238,23).
att(502,305).
att(565,888).
att(565,887).
att(633,698).
att(552,879).
att(232,9).
att(503,373).
att(554,875).
att(505,323).
att(159,78).
att(222,8).
att(634,712).
att(168,146).
att(570,876).
att(505,321).
att(562,839).
att(564,835).
att(505,327).
att(503,296).
att(558,877).
att(570,874).
att(510,296).
att(240,6).
att(554,833).
att(867,457).
att(867,458).
att(554,835).
att(621,779).
att(151,101).
att(164,76).
att(513,400).
att(863,431).
att(870,419).
att(861,432).
att(509,325).
att(159,98).
att(870,421).
att(865,451).
att(168,63).
att(161,88).
att(168,74).
att(163,99).
att(868,436).
att(221,8).
att(558,838).
att(507,303).
att(163,88).
att(512,452).
att(234,74).
att(505,452).
att(631,841).
att(890,345).
att(234,80).
att(642,488).
att(629,845).
att(228,90).
att(884,344).
att(506,441).
att(885,377).
att(627,836).
att(191,6).
att(501,443).
att(867,475).
att(627,839).
att(629,835).
att(541,250).
att(542,325).
att(863,461).
att(862,466).
att(234,92).
att(636,843).
att(234,100).
att(505,384).
att(508,443).
att(627,801).
att(544,267).
att(638,847).
att(869,457).
att(869,458).
att(636,853).
att(234,86).
att(236,99).
att(510,444).
att(548,243).
att(621,833).
att(501,402).
att(503,441).
att(869,456).
att(504,452).
att(542,252).
att(867,462).
att(542,259).
att(867,468).
att(623,805).
att(549,252).
att(867,467).
att(881,415).
att(885,425).
att(234,43).
att(634,807).
att(889,426).
att(884,394).
att(636,801).
att(881,408).
att(544,199).
att(228,59).
att(505,422).
att(621,845).
att(633,822).
att(887,412).
att(633,821).
att(889,423).
att(884,391).
att(638,809).
att(640,791).
att(232,51).
att(882,391).
att(621,858).
att(621,856).
att(550,246).
att(636,823).
att(234,57).
att(240,12).
att(504,351).
att(504,350).
att(627,749).
att(554,870).
att(660,490).
att(510,407).
att(547,195).
att(509,411).
att(506,343).
att(562,883).
att(889,408).
att(887,391).
att(230,16).
att(621,791).
att(230,15).
att(887,394).
att(510,411).
att(884,358).
att(882,370).
att(542,205).
att(882,366).
att(621,809).
att(504,405).
att(221,49).
att(554,887).
att(516,305).
att(157,7).
att(518,378).
att(587,863).
att(515,309).
att(512,321).
att(577,836).
att(582,873).
att(872,404).
att(519,372).
att(519,371).
att(520,356).
att(182,150).
att(180,134).
att(586,877).
att(517,294).
att(562,709).
att(588,861).
att(879,380).
att(168,29).
att(184,145).
att(562,707).
att(880,364).
att(872,396).
att(575,872).
att(168,22).
att(552,712).
att(603,483).
att(274,601).
att(565,707).
att(513,246).
att(872,377).
att(587,873).
att(577,845).
att(271,610).
att(518,303).
att(872,392).
att(274,592).
att(513,253).
att(582,834).
att(178,72).
att(515,327).
att(271,601).
att(166,5).
att(186,132).
att(877,396).
att(188,145).
att(871,380).
att(182,80).
att(180,65).
att(878,355).
att(164,7).
att(878,368).
att(878,364).
att(588,876).
att(590,880).
att(290,681).
att(573,832).
att(520,307).
att(520,305).
att(568,718).
att(519,302).
att(515,303).
att(611,484).
att(873,355).
att(570,697).
att(172,70).
att(840,469).
att(515,252).
att(513,288).
att(178,84).
att(271,623).
att(281,612).
att(512,272).
att(516,245).
att(517,255).
att(586,851).
att(584,856).
att(874,428).
att(184,94).
att(517,252).
att(586,858).
att(182,84).
att(262,677).
att(580,838).
att(271,591).
att(514,323).
att(580,831).
att(494,409).
att(879,413).
att(515,277).
att(879,408).
att(518,257).
att(587,841).
att(515,285).
att(880,401).
att(493,409).
att(514,267).
att(491,397).
att(871,421).
att(186,94).
att(274,554).
att(878,406).
att(261,610).
att(261,601).
att(188,86).
att(182,42).
att(511,282).
att(491,390).
att(495,448).
att(188,92).
att(520,253).
att(495,444).
att(497,446).
att(512,269).
att(876,417).
att(493,397).
att(596,484).
att(184,36).
att(495,454).
att(876,421).
att(492,386).
att(873,410).
att(164,98).
att(861,341).
att(862,333).
att(516,390).
att(508,253).
att(513,420).
att(861,344).
att(511,397).
att(517,388).
att(519,452).
att(164,86).
att(504,268).
att(510,246).
att(874,455).
att(876,470).
att(161,38).
att(570,845).
att(877,470).
att(554,797).
att(560,851).
att(501,268).
att(163,40).
att(507,313).
att(876,469).
att(866,342).
att(560,819).
att(508,285).
att(577,884).
att(879,442).
att(565,801).
att(875,469).
att(876,461).
att(151,38).
att(872,459).
att(520,388).
att(520,395).
att(871,459).
att(512,405).
att(570,807).
att(511,422).
att(511,411).
att(878,433).
att(516,393).
att(554,823).
att(873,436).
att(151,94).
att(163,52).
att(153,58).
att(552,821).
att(163,55).
att(170,45).
att(501,205).
att(512,411).
att(168,40).
att(566,823).
att(862,385).
att(164,59).
att(518,424).
att(164,57).
att(508,212).
att(565,819).
att(174,113).
att(170,16).
att(586,883).
att(686,487).
att(566,821).
att(164,56).
att(517,343).
att(570,827).
att(683,486).
att(573,881).
att(864,368).
att(520,420).
att(568,819).
att(573,886).
att(683,488).
att(575,890).
att(170,54).
att(552,749).
att(873,477).
att(663,490).
att(680,489).
att(683,482).
att(866,396).
att(168,55).
att(552,753).
att(153,4).
att(577,879).
att(865,389).
att(170,24).
att(560,779).
att(862,365).
att(866,385).
att(151,14).
att(663,488).
att(862,358).
att(178,116).
att(151,19).
att(870,339).
att(872,472).
att(159,27).
att(164,11).
att(164,16).
att(517,359).
att(861,358).
att(879,469).
att(865,380).
att(872,474).
att(864,331).
att(166,16).
att(517,371).
att(520,347).
att(182,119).
att(518,405).
att(582,881).
att(163,22).
att(518,414).
att(558,753).
att(168,10).
att(573,869).
att(866,364).
att(271,55).
att(281,50).
att(539,454).
att(687,803).
att(494,719).
att(493,708).
att(684,807).
att(493,706).
att(287,49).
att(540,452).
att(491,780).
att(538,402).
att(287,43).
att(262,96).
att(491,762).
att(526,388).
att(526,384).
att(524,402).
att(287,42).
att(491,775).
att(495,754).
att(266,52).
att(534,424).
att(266,55).
att(528,332).
att(681,825).
att(284,53).
att(538,409).
att(261,40).
att(498,713).
att(610,882).
att(494,726).
att(677,757).
att(677,753).
att(271,10).
att(497,716).
att(539,395).
att(495,764).
att(690,825).
att(690,823).
att(662,807).
att(588,288).
att(677,752).
att(587,268).
att(264,42).
att(664,805).
att(287,55).
att(491,700).
att(664,797).
att(497,733).
att(493,655).
att(671,778).
att(696,488).
att(266,13).
att(496,737).
att(604,862).
att(671,771).
att(617,890).
att(284,18).
att(677,788).
att(620,889).
att(536,336).
att(601,887).
att(687,752).
att(498,728).
att(538,348).
att(274,23).
att(261,51).
att(538,338).
att(664,821).
att(671,757).
att(681,814).
att(604,887).
att(532,418).
att(287,10).
att(491,728).
att(690,759).
att(211,122).
att(204,150).
att(497,653).
att(617,865).
att(534,362).
att(497,644).
att(617,870).
att(498,653).
att(271,20).
att(539,334).
att(536,359).
att(592,883).
att(620,864).
att(530,302).
att(687,774).
att(217,130).
att(220,105).
att(662,752).
att(684,864).
att(684,863).
att(575,301).
att(512,665).
att(575,299).
att(684,867).
att(498,859).
att(690,867).
att(588,347).
att(498,855).
att(584,381).
att(498,848).
att(662,887).
att(518,725).
att(494,798).
att(587,348).
att(704,490).
att(517,651).
att(517,649).
att(271,130).
att(580,351).
att(674,861).
att(575,362).
att(580,334).
att(677,832).
att(518,655).
att(575,317).
att(493,824).
att(684,876).
att(271,70).
att(493,815).
att(516,667).
att(588,375).
att(287,145).
att(498,804).
att(499,855).
att(662,865).
att(515,668).
att(518,649).
att(717,488).
att(499,846).
att(495,848).
att(495,846).
att(520,647).
att(287,144).
att(664,861).
att(714,483).
att(500,859).
att(264,123).
att(588,371).
att(690,871).
att(687,880).
att(711,484).
att(271,146).
att(514,645).
att(580,373).
att(671,874).
att(290,150).
att(674,853).
att(281,74).
att(661,877).
att(587,292).
att(515,599).
att(528,437).
att(575,257).
att(514,593).
att(491,818).
att(577,245).
att(494,748).
att(584,329).
att(274,84).
att(519,682).
att(274,96).
att(516,618).
att(677,847).
att(494,746).
att(518,672).
att(590,305).
att(491,826).
att(495,792).
att(690,834).
att(500,804).
att(491,811).
att(496,804).
att(290,65).
att(674,836).
att(573,319).
att(590,302).
att(496,800).
att(590,299).
att(586,322).
att(493,775).
att(497,756).
att(587,315).
att(493,786).
att(534,454).
att(493,783).
att(674,803).
att(684,841).
att(290,32).
att(674,793).
att(587,322).
att(262,78).
att(497,748).
att(494,780).
att(536,443).
att(690,858).
att(664,831).
att(495,818).
att(284,86).
att(681,833).
att(290,84).
att(671,856).
att(681,831).
att(264,65).
att(520,595).
att(211,60).
att(882,435).
att(534,212).
att(543,350).
att(220,16).
att(204,14).
att(214,58).
att(633,888).
att(204,19).
att(211,55).
att(633,886).
att(542,411).
att(546,397).
att(539,267).
att(550,399).
att(549,420).
att(191,47).
att(536,208).
att(550,384).
att(610,745).
att(889,449).
att(543,418).
att(601,825).
att(194,50).
att(220,57).
att(211,17).
att(612,747).
att(881,430).
att(214,13).
att(549,343).
att(638,883).
att(228,105).
att(545,356).
att(548,347).
att(614,759).
att(604,774).
att(887,427).
att(539,202).
att(617,749).
att(214,16).
att(607,770).
att(191,58).
att(610,766).
att(194,59).
att(194,58).
att(592,821).
att(601,755).
att(192,54).
att(220,18).
att(884,398).
att(592,816).
att(194,23).
att(194,26).
att(192,24).
att(882,470).
att(234,123).
att(230,140).
att(545,307).
att(640,867).
att(544,302).
att(204,9).
att(201,1).
att(211,25).
att(550,350).
att(620,785).
att(542,359).
att(232,138).
att(623,872).
att(621,888).
att(204,20).
att(617,774).
att(623,877).
att(230,132).
att(207,9).
att(591,743).
att(192,11).
att(226,130).
att(620,770).
att(887,468).
att(592,755).
att(192,18).
att(883,460).
att(612,705).
att(631,831).
att(544,315).
att(546,302).
att(592,697).
att(634,879).
att(547,292).
att(592,707).
att(549,294).
att(890,440).
att(890,436).
att(631,838).
att(638,872).
att(228,72).
att(620,712).
att(621,862).
att(627,876).
att(884,436).
att(542,292).
att(591,788).
att(627,875).
att(884,438).
att(887,459).
att(888,449).
att(545,321).
att(214,7).
att(220,9).
att(883,440).
att(222,101).
att(493,602).
att(497,682).
att(211,142).
att(607,835).
att(612,879).
att(194,144).
att(614,875).
att(494,605).
att(497,667).
att(591,862).
att(538,292).
att(617,878).
att(493,598).
att(684,702).
att(740,483).
att(261,29).
att(499,653).
att(496,668).
att(497,688).
att(266,4).
att(262,28).
att(890,472).
att(217,140).
att(661,778).
att(191,119).
att(499,651).
att(499,649).
att(664,774).
att(671,715).
att(884,471).
att(524,301).
att(532,373).
att(287,2).
att(262,23).
att(540,371).
att(884,476).
att(592,864).
att(534,317).
att(614,834).
att(607,851).
att(526,248).
att(882,475).
att(544,439).
att(724,487).
att(214,76).
att(607,853).
att(261,6).
att(882,471).
att(540,307).
att(662,702).
att(262,8).
att(538,317).
att(890,461).
att(498,608).
att(192,146).
att(499,665).
att(538,323).
att(194,142).
att(495,678).
att(264,1).
att(524,321).
att(524,317).
att(601,833).
att(262,3).
att(498,598).
att(204,43).
att(211,92).
att(604,805).
att(548,444).
att(601,801).
att(499,602).
att(191,78).
att(499,618).
att(539,315).
att(545,399).
att(591,836).
att(214,92).
att(528,272).
att(536,253).
att(548,452).
att(538,250).
att(591,840).
att(214,86).
att(524,250).
att(540,317).
att(548,386).
att(544,409).
att(220,56).
att(526,212).
att(543,420).
att(191,100).
att(528,195).
att(539,243).
att(545,409).
att(617,793).
att(549,393).
att(526,198).
att(604,821).
att(207,51).
att(542,388).
att(550,454).
att(731,483).
att(731,481).
att(530,205).
att(539,246).
att(620,791).
att(540,245).
att(192,86).
att(592,858).
att(192,98).
att(538,267).
att(620,801).
att(727,490).
att(543,593).
att(504,828).
att(505,830).
att(547,675).
att(631,315).
att(509,796).
att(501,817).
att(549,685).
att(503,799).
att(510,806).
att(506,820).
att(633,323).
att(634,359).
att(541,593).
att(550,645).
att(501,820).
att(549,678).
att(546,598).
att(636,323).
att(508,830).
att(560,454).
att(548,599).
att(631,246).
att(638,315).
att(638,313).
att(509,826).
att(562,443).
att(633,246).
att(510,826).
att(564,454).
att(501,741).
att(638,327).
att(634,292).
att(621,309).
att(623,259).
att(627,315).
att(627,267).
att(508,754).
att(554,424).
att(623,198).
att(634,255).
att(565,452).
att(640,253).
att(501,762).
att(564,399).
att(633,279).
att(554,390).
att(504,744).
att(640,245).
att(566,388).
att(560,418).
att(509,783).
att(562,420).
att(636,288).
att(568,397).
att(629,205).
att(633,205).
att(501,716).
att(552,416).
att(510,783).
att(566,444).
att(502,710).
att(633,198).
att(558,388).
att(612,277).
att(631,407).
att(604,215).
att(543,719).
att(546,775).
att(634,400).
att(592,277).
att(640,395).
att(614,272).
att(612,268).
att(620,282).
att(610,218).
att(610,215).
att(545,719).
att(546,760).
att(627,402).
att(620,272).
att(621,443).
att(543,730).
att(612,212).
att(636,414).
att(545,735).
att(541,739).
att(633,346).
att(550,762).
att(548,708).
att(546,786).
att(627,422).
att(623,348).
att(504,859).
att(634,348).
att(505,850).
att(631,381).
att(506,846).
att(506,844).
att(636,350).
att(638,343).
att(621,416).
att(548,732).
att(633,373).
att(633,362).
att(638,350).
att(542,728).
att(592,218).
att(546,695).
att(502,846).
att(629,299).
att(636,362).
att(634,371).
att(629,296).
att(510,844).
att(548,655).
att(544,685).
att(504,852).
att(627,356).
att(503,855).
att(542,653).
att(560,246).
att(518,830).
att(507,602).
att(566,321).
att(517,746).
att(560,252).
att(516,760).
att(577,402).
att(570,327).
att(510,615).
att(520,828).
att(520,826).
att(503,599).
att(514,828).
att(512,744).
att(565,252).
att(588,446).
att(516,780).
att(516,764).
att(577,409).
att(582,400).
att(577,407).
att(560,268).
att(519,754).
att(560,277).
att(519,746).
att(518,750).
att(570,243).
att(511,767).
att(517,775).
att(573,395).
att(586,400).
att(515,754).
att(518,818).
att(558,257).
att(587,399).
att(790,487).
att(577,347).
att(565,269).
att(787,487).
att(588,384).
att(570,282).
att(520,789).
att(784,487).
att(520,767).
att(568,285).
att(514,775).
att(558,282).
att(514,772).
att(768,490).
att(765,488).
att(515,728).
att(582,336).
att(674,862).
att(690,887).
att(518,708).
att(765,487).
att(765,485).
att(520,713).
att(690,882).
att(520,695).
att(514,708).
att(570,208).
att(573,346).
att(514,719).
att(671,884).
att(514,716).
att(502,651).
att(513,855).
att(504,737).
att(562,336).
att(636,198).
att(503,708).
att(558,424).
att(627,218).
att(565,386).
att(503,719).
att(501,728).
att(510,708).
att(640,218).
att(508,737).
att(560,362).
att(505,644).
att(506,655).
att(562,381).
att(570,348).
att(564,362).
att(552,378).
att(503,735).
att(516,806).
att(519,852).
att(560,305).
att(554,329).
att(505,665).
att(516,810).
att(564,299).
att(506,675).
att(511,798).
att(564,307).
att(502,669).
att(510,644).
att(514,859).
att(515,849).
att(560,329).
att(560,327).
att(577,448).
att(504,597).
att(510,688).
att(520,810).
att(511,817).
att(509,678).
att(512,828).
att(515,794).
att(503,685).
att(510,667).
att(570,301).
att(558,292).
att(552,323).
att(684,338).
att(684,332).
att(575,655).
att(518,176).
att(519,189).
att(577,651).
att(661,418).
att(516,128).
att(516,108).
att(493,311).
att(511,120).
att(580,693).
att(517,102).
att(511,111).
att(536,852).
att(493,286).
att(496,260).
att(674,294).
att(528,799).
att(530,808).
att(499,328).
att(584,657).
att(687,353).
att(530,792).
att(577,685).
att(500,318).
att(664,343).
att(588,728).
att(491,242).
att(538,848).
att(492,247).
att(671,381).
att(671,378).
att(681,334).
att(526,849).
att(499,241).
att(528,815).
att(492,196).
att(526,830).
att(493,193).
att(496,286).
att(497,289).
att(497,286).
att(586,675).
att(532,850).
att(662,381).
att(584,668).
att(687,301).
att(524,799).
att(577,598).
att(577,597).
att(573,672).
att(681,356).
att(590,651).
att(690,301).
att(532,844).
att(590,645).
att(681,321).
att(528,746).
att(534,828).
att(582,615).
att(526,750).
att(681,325).
att(677,248).
att(684,322).
att(687,315).
att(684,317).
att(494,235).
att(497,219).
att(587,685).
att(661,294).
att(677,243).
att(540,794).
att(610,454).
att(584,608).
att(610,452).
att(573,608).
att(580,685).
att(590,665).
att(671,313).
att(690,319).
att(524,824).
att(540,810).
att(677,439).
att(515,209).
att(674,443).
att(512,227).
att(588,804).
att(516,209).
att(517,193).
att(562,615).
att(513,224).
att(577,750).
att(513,223).
att(513,231).
att(518,276).
att(560,605).
att(519,263).
att(584,815).
att(520,273).
att(568,678).
att(568,675).
att(511,193).
att(586,828).
att(568,669).
att(512,219).
att(570,665).
att(575,815).
att(564,597).
att(580,792).
att(515,227).
att(518,210).
att(565,615).
att(516,229).
att(584,758).
att(577,775).
att(518,203).
att(565,593).
att(582,750).
att(573,741).
att(566,597).
att(515,193).
att(512,233).
att(511,227).
att(684,390).
att(493,297).
att(662,446).
att(664,437).
att(519,231).
att(586,767).
att(588,758).
att(511,162).
att(492,357).
att(493,320).
att(587,780).
att(674,346).
att(494,311).
att(575,728).
att(496,300).
att(674,347).
att(575,739).
att(584,700).
att(584,719).
att(661,390).
att(494,324).
att(511,189).
att(492,298).
att(690,420).
att(588,772).
att(662,399).
att(498,300).
att(662,390).
att(516,175).
att(671,424).
att(580,767).
att(548,850).
att(543,808).
att(601,301).
att(617,362).
att(617,353).
att(534,649).
att(540,737).
att(592,336).
att(539,732).
att(610,299).
att(499,106).
att(536,643).
att(591,347).
att(538,653).
att(610,303).
att(530,688).
att(524,649).
att(601,378).
att(592,351).
att(540,730).
att(592,348).
att(601,356).
att(543,849).
att(592,338).
att(539,655).
att(539,653).
att(617,296).
att(617,294).
att(545,813).
att(592,359).
att(550,857).
att(550,855).
att(539,659).
att(550,842).
att(591,362).
att(617,309).
att(539,657).
att(541,811).
att(592,375).
att(612,317).
att(544,741).
att(629,443).
att(536,599).
att(617,323).
att(633,437).
att(549,818).
att(534,602).
att(633,454).
att(545,748).
att(540,665).
att(538,598).
att(636,452).
att(631,397).
att(547,746).
att(601,275).
att(629,390).
att(614,250).
att(640,444).
att(636,454).
att(550,811).
att(546,830).
att(629,448).
att(543,744).
att(546,817).
att(610,268).
att(550,830).
att(617,444).
att(534,754).
att(681,255).
att(539,824).
att(497,231).
att(498,233).
att(607,402).
att(674,268).
att(499,213).
att(661,315).
att(684,257).
att(497,237).
att(664,313).
att(662,325).
att(661,322).
att(588,618).
att(538,746).
att(532,828).
att(604,448).
att(526,744).
att(590,593).
att(604,446).
att(532,811).
att(492,175).
att(494,181).
att(539,746).
att(591,448).
att(607,420).
att(497,169).
att(617,397).
att(684,285).
att(540,758).
att(498,162).
att(540,744).
att(530,703).
att(540,742).
att(591,452).
att(499,231).
att(530,700).
att(495,231).
att(601,390).
att(495,235).
att(524,783).
att(690,269).
att(601,384).
att(664,243).
att(681,199).
att(492,103).
att(604,347).
att(681,212).
att(664,208).
att(539,780).
att(497,183).
att(661,279).
att(681,195).
att(601,416).
att(540,767).
att(530,730).
att(494,120).
att(610,338).
att(617,422).
att(524,700).
att(607,353).
att(544,842).
att(536,728).
att(610,353).
att(497,111).
att(607,373).
att(614,351).
att(541,859).
att(500,187).
att(498,111).
att(499,183).
att(604,343).
att(524,737).
att(592,418).
att(620,351).
att(629,772).
att(546,224).
att(634,756).
att(545,167).
att(631,775).
att(501,367).
att(631,789).
att(544,160).
att(631,786).
att(636,750).
att(501,357).
att(633,780).
att(542,231).
att(546,219).
att(502,382).
att(591,597).
att(542,237).
att(550,200).
att(505,306).
att(636,767).
att(505,295).
att(509,382).
att(548,169).
att(636,777).
att(509,376).
att(502,291).
att(640,783).
att(633,695).
att(621,760).
att(502,304).
att(550,229).
att(506,324).
att(505,330).
att(621,762).
att(510,306).
att(638,700).
att(634,767).
att(542,181).
att(549,173).
att(509,312).
att(636,723).
att(505,244).
att(505,241).
att(627,647).
att(507,318).
att(621,732).
att(509,320).
att(562,859).
att(564,849).
att(510,330).
att(549,128).
att(631,651).
att(510,316).
att(550,173).
att(550,177).
att(601,643).
att(612,739).
att(543,260).
att(617,733).
att(536,128).
att(545,254).
att(544,249).
att(534,114).
att(591,716).
att(617,728).
att(623,850).
att(540,183).
att(601,723).
att(543,276).
att(631,800).
att(544,273).
att(604,678).
att(640,855).
att(607,668).
att(623,799).
att(640,842).
att(640,852).
att(532,128).
att(629,842).
att(542,260).
att(539,102).
att(591,732).
att(541,270).
att(591,730).
att(631,813).
att(612,669).
att(601,602).
att(592,678).
att(627,820).
att(607,602).
att(607,615).
att(614,685).
att(636,808).
att(638,800).
att(612,665).
att(620,682).
att(617,678).
att(591,657).
att(545,206).
att(549,283).
att(633,824).
att(601,685).
att(620,667).
att(610,598).
att(627,798).
att(541,203).
att(620,688).
att(612,608).
att(546,206).
att(550,283).
att(638,830).
att(640,818).
att(542,209).
att(541,231).
att(623,760).
att(621,806).
att(634,799).
att(549,196).
att(620,599).
att(554,726).
att(507,158).
att(517,308).
att(505,181).
att(505,179).
att(508,162).
att(510,158).
att(509,155).
att(570,762).
att(517,300).
att(512,300).
att(515,360).
att(512,297).
att(504,120).
att(508,189).
att(518,310).
att(560,739).
att(565,719).
att(517,328).
att(520,295).
att(519,310).
att(520,291).
att(566,703).
att(517,312).
att(509,173).
att(510,187).
att(558,716).
att(515,293).
att(514,310).
att(501,117).
att(503,187).
att(570,719).
att(554,665).
att(560,659).
att(565,728).
att(513,286).
att(558,647).
att(568,723).
att(562,653).
att(513,278).
att(507,102).
att(508,114).
att(562,649).
att(552,651).
att(514,326).
att(577,826).
att(515,276).
att(584,799).
att(512,196).
att(512,206).
att(515,286).
att(519,247).
att(562,688).
att(588,846).
att(514,244).
att(520,258).
att(562,665).
att(570,644).
att(562,799).
att(634,645).
att(554,828).
att(506,283).
att(564,799).
att(564,806).
att(554,804).
att(550,103).
att(623,672).
att(640,649).
att(508,286).
att(562,818).
att(562,826).
att(636,669).
att(566,806).
att(633,618).
att(623,608).
att(503,289).
att(558,792).
att(508,216).
att(621,608).
att(562,746).
att(504,224).
att(501,235).
att(570,824).
att(506,225).
att(638,615).
att(504,193).
att(503,203).
att(621,685).
att(570,820).
att(562,762).
att(508,237).
att(516,363).
att(560,780).
att(504,154).
att(506,155).
att(510,227).
att(568,748).
att(565,815).
att(552,789).
att(621,615).
att(577,213).
att(514,556).
att(575,219).
att(573,196).
att(584,270).
att(661,857).
att(494,711).
att(497,787).
att(671,800).
att(664,842).
att(586,265).
att(492,787).
att(493,727).
att(582,193).
att(577,223).
att(687,817).
att(582,196).
att(499,781).
att(515,576).
att(664,796).
att(690,828).
att(491,711).
att(493,691).
att(496,765).
att(511,583).
att(580,263).
att(492,694).
att(495,784).
att(590,270).
att(492,692).
att(496,727).
att(674,780).
att(498,738).
att(494,660).
att(499,717).
att(687,744).
att(677,783).
att(687,742).
att(494,656).
att(684,756).
att(690,756).
att(491,734).
att(517,535).
att(492,740).
att(681,813).
att(496,692).
att(586,223).
att(684,780).
att(497,654).
att(497,641).
att(661,748).
att(661,760).
att(497,652).
att(661,758).
att(497,650).
att(530,298).
att(491,658).
att(524,357).
att(584,152).
att(687,772).
att(499,731).
att(526,363).
att(664,750).
att(671,786).
att(526,360).
att(565,231).
att(565,229).
att(554,179).
att(518,724).
att(518,721).
att(566,225).
att(554,173).
att(520,727).
att(562,155).
att(517,646).
att(570,223).
att(570,231).
att(518,646).
att(577,326).
att(515,689).
att(558,177).
att(516,679).
att(566,156).
att(588,354).
att(513,606).
att(514,642).
att(573,297).
att(573,298).
att(512,670).
att(570,158).
att(570,156).
att(677,844).
att(560,128).
att(587,293).
att(674,855).
att(565,187).
att(570,110).
att(562,114).
att(586,311).
att(584,324).
att(558,102).
att(520,673).
att(520,686).
att(566,173).
att(568,187).
att(515,680).
att(582,298).
att(511,606).
att(514,686).
att(511,603).
att(513,559).
att(565,120).
att(674,810).
att(512,551).
att(582,254).
att(580,251).
att(493,765).
att(687,844).
att(671,850).
att(588,320).
att(568,128).
att(511,625).
att(575,244).
att(520,596).
att(520,594).
att(568,110).
att(570,111).
att(495,571).
att(526,227).
att(534,213).
att(604,746).
att(532,200).
att(528,224).
att(607,756).
att(540,280).
att(499,555).
att(687,599).
att(536,209).
att(604,811).
att(492,589).
att(532,263).
att(592,804).
att(607,762).
att(604,780).
att(497,523).
att(539,193).
att(545,363).
att(607,786).
att(528,158).
att(617,742).
att(496,525).
att(614,756).
att(662,599).
att(610,772).
att(591,824).
att(620,742).
att(526,233).
att(612,811).
att(592,826).
att(534,169).
att(604,716).
att(539,233).
att(534,154).
att(614,775).
att(544,300).
att(607,695).
att(610,706).
att(541,308).
att(499,529).
att(500,521).
att(592,760).
att(538,154).
att(548,291).
att(524,108).
att(532,179).
att(528,117).
att(536,187).
att(614,700).
att(539,154).
att(617,703).
att(540,154).
att(546,376).
att(546,360).
att(610,725).
att(528,316).
att(684,693).
att(526,320).
att(534,293).
att(664,708).
att(671,726).
att(584,179).
att(684,706).
att(536,304).
att(587,169).
att(674,732).
att(661,762).
att(690,716).
att(586,179).
att(500,660).
att(584,171).
att(539,382).
att(661,777).
att(500,642).
att(590,154).
att(534,367).
att(690,706).
att(590,156).
att(540,382).
att(684,733).
att(497,611).
att(496,619).
att(495,596).
att(538,314).
att(494,628).
att(538,312).
att(687,733).
att(524,316).
att(540,308).
att(677,644).
att(587,176).
att(588,189).
att(495,680).
att(540,310).
att(681,657).
att(664,651).
att(497,632).
att(493,551).
att(536,254).
att(534,249).
att(536,242).
att(498,624).
att(588,103).
att(538,247).
att(690,653).
att(534,311).
att(664,735).
att(690,647).
att(524,256).
att(590,111).
att(664,733).
att(604,824).
att(601,820).
att(620,799).
att(684,672).
att(536,263).
att(687,667).
att(498,553).
att(499,625).
att(494,574).
att(530,203).
att(499,632).
att(497,555).
att(532,260).
att(532,256).
att(664,645).
att(491,561).
att(524,280).
att(662,649).
att(629,326).
att(601,120).
att(612,189).
att(548,670).
att(601,102).
att(541,619).
att(545,606).
att(633,324).
att(546,658).
att(541,594).
att(620,181).
att(623,328).
att(617,176).
att(629,247).
att(546,596).
att(547,613).
att(634,318).
att(542,624).
att(543,635).
att(549,613).
att(545,626).
att(549,611).
att(545,639).
att(627,328).
att(621,300).
att(627,316).
att(617,102).
att(627,312).
att(546,624).
att(542,556).
att(633,263).
att(631,283).
att(629,273).
att(501,790).
att(502,769).
att(633,270).
att(545,559).
att(544,555).
att(621,320).
att(546,613).
att(550,600).
att(634,278).
att(629,216).
att(629,213).
att(634,270).
att(634,283).
att(623,223).
att(631,213).
att(640,280).
att(504,781).
att(501,704).
att(612,273).
att(524,572).
att(532,557).
att(604,203).
att(539,622).
att(591,247).
att(500,31).
att(592,256).
att(547,720).
att(526,531).
att(548,720).
att(614,206).
att(528,535).
att(607,233).
att(530,527).
att(550,787).
att(592,263).
att(620,216).
att(536,574).
att(617,200).
att(540,555).
att(592,289).
att(538,576).
att(542,717).
att(592,283).
att(545,641).
att(550,717).
att(617,225).
att(633,363).
att(601,235).
att(610,155).
att(610,152).
att(541,646).
att(604,189).
att(548,646).
att(607,177).
att(539,523).
att(620,165).
att(610,177).
att(550,724).
att(617,167).
att(633,297).
att(543,641).
att(610,176).
att(623,306).
att(623,304).
att(562,241).
att(566,316).
att(504,630).
att(621,102).
att(554,286).
att(502,559).
att(513,765).
att(505,622).
att(562,244).
att(570,328).
att(636,108).
att(552,251).
att(640,106).
att(621,187).
att(501,630).
att(503,613).
att(501,626).
att(513,717).
att(554,203).
att(516,761).
att(516,769).
att(504,555).
att(516,790).
att(517,761).
att(562,265).
att(562,263).
att(510,630).
att(511,768).
att(562,278).
att(511,761).
att(565,314).
att(510,625).
att(552,286).
att(552,283).
att(504,572).
att(502,523).
att(502,535).
att(509,557).
att(508,553).
att(509,567).
att(519,781).
att(560,209).
att(517,691).
att(519,768).
att(566,283).
att(511,714).
att(520,773).
att(520,768).
att(552,200).
att(560,237).
att(503,521).
att(518,711).
att(558,231).
att(577,369).
att(518,692).
att(517,738).
att(568,213).
att(519,720).
att(505,535).
att(504,529).
att(566,219).
att(565,196).
att(520,701).
att(520,717).
att(505,527).
att(552,229).
att(558,216).
att(512,722).
att(636,210).
att(542,522).
att(482,487).
att(627,229).
att(483,481).
att(546,581).
att(548,579).
att(543,522).
att(636,216).
att(640,213).
att(548,574).
att(631,223).
att(501,721).
att(502,727).
att(502,740).
att(541,527).
att(623,225).
att(485,490).
att(502,724).
att(621,280).
att(501,727).
att(623,175).
att(560,360).
att(621,223).
att(506,642).
att(509,724).
att(629,160).
att(508,729).
att(552,363).
att(552,354).
att(510,734).
att(564,374).
att(627,239).
att(507,717).
att(623,160).
att(490,486).
att(507,696).
att(490,488).
att(550,589).
att(508,646).
att(505,680).
att(554,328).
att(568,374).
att(504,641).
att(554,295).
att(560,326).
att(565,310).
att(560,316).
att(507,673).
att(636,177).
att(509,663).
att(506,606).
att(570,293).
att(631,120).
att(636,175).
att(570,298).
att(503,679).
att(621,160).
att(501,609).
att(621,165).
att(510,666).
att(633,103).
att(575,660).
att(514,107).
att(512,139).
att(519,186).
att(566,589).
att(582,729).
att(586,738).
att(590,692).
att(520,185).
att(560,522).
att(511,115).
att(580,691).
att(518,112).
att(512,68).
att(518,129).
att(587,721).
att(684,357).
att(684,367).
att(513,66).
att(584,658).
att(687,360).
att(513,64).
att(577,686).
att(519,107).
att(588,727).
att(580,736).
att(671,376).
att(590,731).
att(494,192).
att(661,354).
att(497,281).
att(674,328).
att(580,679).
att(582,663).
att(681,308).
att(674,314).
att(580,670).
att(519,147).
att(577,606).
att(513,83).
att(513,97).
att(687,298).
att(520,137).
att(586,689).
att(687,310).
att(511,66).
att(580,641).
att(511,71).
att(575,622).
att(684,324).
att(493,240).
att(681,328).
att(573,624).
att(500,264).
att(588,683).
att(518,68).
att(519,79).
att(515,82).
att(584,616).
att(684,320).
att(582,606).
att(515,85).
att(590,686).
att(690,328).
att(495,264).
att(498,204).
att(580,686).
att(573,600).
att(671,316).
att(511,91).
att(560,600).
att(552,622).
att(519,274).
att(505,83).
att(508,66).
att(504,82).
att(566,673).
att(505,93).
att(508,75).
att(562,611).
att(507,61).
att(513,230).
att(570,683).
att(510,69).
att(520,287).
att(511,201).
att(570,689).
att(515,232).
att(518,220).
att(515,230).
att(515,228).
att(518,214).
att(577,765).
att(503,41).
att(554,557).
att(512,163).
att(565,613).
att(575,787).
att(562,628).
att(566,594).
att(520,204).
att(568,609).
att(520,220).
att(568,600).
att(501,39).
att(560,557).
att(584,763).
att(565,630).
att(558,553).
att(512,184).
att(565,637).
att(513,184).
att(518,230).
att(564,561).
att(564,557).
att(566,624).
att(503,44).
att(558,572).
att(588,781).
att(562,589).
att(584,714).
att(566,567).
att(513,118).
att(587,784).
att(520,164).
att(519,161).
att(564,571).
att(570,551).
att(552,579).
att(580,781).
att(575,691).
att(511,182).
att(496,143).
att(664,154).
att(681,167).
att(539,736).
att(661,239).
att(497,143).
att(493,66).
att(607,308).
att(493,62).
att(690,165).
att(664,227).
att(491,133).
att(524,646).
att(540,740).
att(526,606).
att(496,79).
att(491,81).
att(524,594).
att(671,111).
att(690,110).
att(610,312).
att(528,603).
att(674,117).
att(607,314).
att(540,654).
att(592,369).
att(662,167).
att(536,679).
att(687,189).
att(524,676).
att(491,64).
att(601,297).
att(601,293).
att(687,176).
att(601,291).
att(492,35).
att(491,33).
att(664,103).
att(532,600).
att(494,44).
att(499,69).
att(610,241).
att(534,596).
att(528,628).
att(496,87).
att(534,603).
att(500,79).
att(499,64).
att(536,594).
att(497,89).
att(536,609).
att(524,603).
att(601,324).
att(662,175).
att(664,189).
att(491,95).
att(538,594).
att(524,553).
att(524,551).
att(528,561).
att(500,93).
att(591,318).
att(497,34).
att(538,639).
att(528,555).
att(532,613).
att(540,594).
att(540,609).
att(540,619).
att(497,236).
att(493,168).
att(528,761).
att(518,81).
att(661,318).
att(588,611).
att(499,220).
att(684,251).
att(516,46).
att(664,314).
att(517,37).
att(586,628).
att(588,606).
att(577,556).
att(518,82).
att(520,81).
att(671,244).
att(492,221).
att(690,247).
att(586,632).
att(493,180).
att(575,572).
att(684,263).
att(526,701).
att(575,589).
att(577,585).
att(584,569).
att(587,628).
att(661,256).
att(530,694).
att(536,784).
att(684,270).
att(577,579).
att(674,209).
att(677,210).
att(497,170).
att(587,637).
att(495,222).
att(687,273).
att(518,34).
att(587,625).
att(662,244).
att(588,637).
att(671,286).
att(496,221).
att(573,559).
att(520,39).
att(590,628).
att(493,115).
att(493,129).
att(496,182).
att(528,721).
att(496,188).
att(534,694).
att(687,213).
att(497,172).
att(661,289).
att(499,151).
att(493,118).
att(590,567).
att(500,157).
att(588,561).
att(687,206).
att(494,107).
att(577,529).
att(661,273).
att(681,265).
att(573,581).
att(495,170).
att(588,555).
att(497,124).
att(582,531).
att(493,137).
att(681,229).
att(526,656).
att(494,137).
att(493,135).
att(536,738).
att(587,581).
att(528,648).
att(536,736).
att(582,533).
att(690,233).
att(538,740).
att(538,738).
att(498,115).
att(661,209).
att(530,646).
att(539,720).
att(687,239).
att(587,574).
att(491,104).
att(491,118).
att(588,578).
att(547,238).
att(601,551).
att(629,784).
att(601,561).
att(534,39).
att(633,761).
att(532,33).
att(534,44).
att(550,211).
att(607,555).
att(546,217).
att(546,194).
att(539,87).
att(631,691).
att(547,168).
att(592,556).
att(629,714).
att(634,787).
att(634,784).
att(633,692).
att(607,576).
att(633,720).
att(638,773).
att(548,163).
att(540,37).
att(592,639).
att(550,240).
att(610,585).
att(620,569).
att(629,740).
att(546,178).
att(627,727).
att(638,696).
att(604,525).
att(638,694).
att(604,523).
att(601,521).
att(549,182).
att(591,557).
att(621,763).
att(541,124).
att(591,569).
att(633,740).
att(548,184).
att(607,537).
att(614,574).
att(610,521).
att(546,164).
att(610,527).
att(621,787).
att(627,692).
att(629,660).
att(546,104).
att(627,650).
att(634,738).
att(548,126).
att(547,118).
att(638,729).
att(544,135).
att(548,118).
att(627,740).
att(542,118).
att(591,576).
att(542,126).
att(492,497).
att(534,126).
att(681,531).
att(612,740).
att(495,515).
att(528,133).
att(536,126).
att(528,139).
att(492,493).
att(620,738).
att(661,571).
att(539,172).
att(591,720).
att(661,574).
att(494,495).
att(607,652).
att(491,516).
att(612,694).
att(690,525).
att(532,185).
att(540,182).
att(498,512).
att(592,696).
att(496,495).
att(604,683).
att(543,287).
att(601,673).
att(534,141).
att(614,656).
att(499,515).
att(530,71).
att(536,143).
att(661,535).
att(495,518).
att(498,493).
att(601,641).
att(662,523).
att(604,600).
att(612,679).
att(614,680).
att(543,204).
att(604,613).
att(540,68).
att(612,666).
att(530,85).
att(591,646).
att(530,83).
att(539,139).
att(539,147).
att(592,646).
att(526,46).
att(540,82).
att(543,240).
att(540,89).
att(548,204).
att(607,628).
att(614,619).
att(542,192).
att(545,232).
att(540,66).
att(592,683).
att(539,66).
att(629,579).
att(508,170).
att(508,168).
att(504,178).
att(627,583).
att(508,153).
att(566,773).
att(505,190).
att(552,696).
att(550,37).
att(621,639).
att(633,574).
att(552,714).
att(508,178).
att(560,727).
att(621,578).
att(627,535).
att(505,104).
att(629,523).
att(552,722).
att(638,572).
att(501,124).
att(509,182).
att(507,170).
att(565,765).
att(501,107).
att(554,721).
att(623,531).
att(633,529).
att(552,666).
att(562,646).
att(568,724).
att(508,121).
att(504,135).
att(634,525).
att(501,149).
att(506,135).
att(558,740).
att(501,131).
att(552,656).
att(570,740).
att(504,68).
att(504,64).
att(564,689).
att(568,650).
att(510,147).
att(564,663).
att(552,679).
att(552,676).
att(501,64).
att(506,68).
att(543,68).
att(636,658).
att(549,141).
att(623,663).
att(640,658).
att(542,141).
att(623,676).
att(640,652).
att(550,129).
att(633,679).
att(547,79).
att(634,676).
att(508,284).
att(504,217).
att(508,264).
att(631,600).
att(506,194).
att(636,673).
att(505,217).
att(508,274).
att(503,264).
att(548,61).
att(638,666).
att(545,83).
att(503,271).
att(623,600).
att(541,97).
att(633,594).
att(550,149).
att(640,689).
att(505,221).
att(621,596).
att(542,37).
att(627,626).
att(636,594).
att(544,35).
att(547,87).
att(547,85).
att(629,630).
att(508,204).
att(509,192).
att(547,93).
att(510,207).
att(633,635).
att(503,217).
att(546,39).
att(504,157).
att(502,184).
att(504,170).
att(546,46).
att(504,168).
att(562,787).
att(505,157).
att(562,781).
att(636,637).
att(638,624).
att(501,168).
att(633,569).
att(554,768).
att(552,790).
att(503,238).
att(501,159).
att(633,551).
att(552,781).
att(507,495).
att(513,587).
att(575,217).
att(516,554).
att(560,66).
att(584,284).
att(570,147).
att(586,290).
att(552,75).
att(552,73).
att(564,64).
att(568,136).
att(515,573).
att(552,34).
att(565,79).
att(515,590).
att(582,194).
att(584,211).
att(514,566).
att(590,271).
att(568,66).
att(674,790).
att(575,161).
att(587,192).
att(677,769).
att(575,157).
att(575,168).
att(566,83).
att(519,580).
att(588,194).
att(577,157).
att(566,82).
att(586,240).
att(560,34).
att(566,87).
att(588,220).
att(584,230).
att(514,586).
att(573,230).
att(590,207).
att(573,238).
att(515,542).
att(575,172).
att(575,182).
att(512,503).
att(494,677).
att(518,538).
att(494,681).
att(584,151).
att(573,151).
att(516,545).
att(512,546).
att(511,547).
att(671,763).
att(507,530).
att(503,544).
att(565,236).
att(508,524).
att(566,236).
att(568,232).
att(636,34).
att(506,549).
att(506,548).
att(503,536).
att(504,508).
att(558,180).
att(558,178).
att(516,690).
att(552,184).
att(554,185).
att(501,504).
att(512,681).
att(565,182).
att(502,499).
att(515,617).
att(565,185).
att(520,662).
att(562,112).
att(507,501).
att(514,661).
att(564,124).
att(510,501).
att(510,503).
att(504,499).
att(515,640).
att(558,141).
att(515,636).
att(504,492).
att(519,617).
att(560,133).
att(566,115).
att(507,513).
att(518,610).
att(554,66).
att(560,141).
att(520,601).
att(564,149).
att(505,491).
att(520,614).
att(509,519).
att(512,621).
att(564,143).
att(526,230).
att(496,588).
att(674,622).
att(528,240).
att(580,82).
att(499,552).
att(530,228).
att(662,680).
att(690,596).
att(674,569).
att(526,170).
att(582,41).
att(681,624).
att(687,626).
att(586,33).
att(526,221).
att(590,83).
att(690,632).
att(532,194).
att(690,630).
att(532,191).
att(662,609).
att(690,626).
att(524,234).
att(492,505).
att(534,166).
att(496,546).
att(681,567).
att(610,694).
att(617,784).
att(493,501).
att(674,578).
att(610,691).
att(539,221).
att(674,572).
att(607,694).
att(677,578).
att(538,166).
att(587,41).
att(610,714).
att(687,569).
att(494,510).
att(661,628).
att(532,240).
att(524,161).
att(590,44).
att(601,765).
att(662,622).
att(664,635).
att(620,773).
att(524,104).
att(617,711).
att(493,517).
att(497,507).
att(614,720).
att(492,513).
att(681,572).
att(661,556).
att(661,555).
att(539,170).
att(493,513).
att(591,765).
att(524,178).
att(532,151).
att(498,502).
att(592,784).
att(592,768).
att(494,591).
att(513,518).
att(674,727).
att(496,677).
att(674,736).
att(575,129).
att(573,104).
att(580,178).
att(494,604).
att(584,190).
att(512,513).
att(575,109).
att(661,763).
att(491,690).
att(586,190).
att(519,543).
att(575,185).
att(590,161).
att(496,610).
att(687,724).
att(518,510).
att(497,617).
att(512,492).
att(584,109).
att(517,519).
att(496,664).
att(664,720).
att(573,126).
att(495,684).
att(515,495).
att(573,61).
att(681,646).
att(573,64).
att(518,520).
att(590,126).
att(584,133).
att(687,658).
att(573,143).
att(492,634).
att(534,271).
att(580,66).
att(492,584).
att(496,568).
att(536,271).
att(584,69).
att(530,194).
att(536,284).
att(493,586).
att(575,87).
att(534,274).
att(687,673).
att(587,136).
att(687,670).
att(588,147).
att(573,73).
att(690,676).
att(526,514).
att(601,104).
att(614,184).
att(269,364).
att(205,475).
att(614,190).
att(544,620).
att(205,474).
att(197,465).
att(530,516).
att(591,159).
att(267,337).
att(542,662).
att(530,514).
att(499,7).
att(607,107).
att(269,355).
att(548,677).
att(277,337).
att(591,163).
att(499,3).
att(592,151).
att(272,345).
att(212,479).
att(524,491).
att(532,514).
att(601,141).
att(285,349).
att(536,518).
att(279,366).
att(202,470).
att(272,331).
att(549,607).
att(591,178).
att(617,104).
att(536,515).
att(549,617).
att(199,470).
att(539,507).
att(607,131).
att(548,607).
att(540,503).
att(199,463).
att(285,426).
att(275,408).
att(620,61).
att(534,491).
att(548,640).
att(269,413).
att(604,62).
att(532,493).
att(272,404).
att(604,71).
att(549,629).
att(549,627).
att(269,408).
att(549,636).
att(267,391).
att(545,570).
att(542,633).
att(592,129).
att(623,290).
att(539,517).
att(272,394).
att(275,377).
att(282,410).
att(620,82).
att(620,89).
att(269,394).
att(607,93).
att(545,587).
att(269,391).
att(631,214).
att(548,565).
att(631,211).
att(268,368).
att(279,412).
att(282,398).
att(549,562).
att(607,82).
att(550,636).
att(591,149).
att(268,355).
att(545,580).
att(544,577).
att(288,380).
att(541,575).
att(620,62).
att(285,389).
att(546,634).
att(541,586).
att(610,87).
att(623,214).
att(285,451).
att(285,449).
att(534,568).
att(604,217).
att(495,51).
att(491,12).
att(3,743).
att(493,19).
att(674,95).
att(9,809).
att(498,60).
att(539,631).
att(539,629).
att(684,61).
att(494,13).
att(499,49).
att(277,430).
att(540,640).
att(275,425).
att(496,18).
att(601,232).
att(536,582).
att(7,752).
att(534,575).
att(8,743).
att(614,201).
att(607,221).
att(681,83).
att(662,71).
att(498,14).
att(591,287).
att(617,207).
att(269,427).
att(497,11).
att(539,558).
att(591,281).
att(617,201).
att(661,75).
att(684,89).
att(530,540).
att(6,823).
att(500,56).
att(277,413).
att(250,333).
att(495,23).
att(601,153).
att(255,366).
att(288,472).
att(255,364).
att(495,25).
att(534,526).
att(492,20).
att(604,163).
att(493,9).
att(496,26).
att(498,27).
att(620,238).
att(687,35).
att(8,770).
att(269,464).
att(617,232).
att(687,46).
att(20,718).
att(530,548).
att(4,698).
att(268,455).
att(497,28).
att(269,469).
att(494,9).
att(528,544).
att(2,788).
att(6,745).
att(664,93).
att(6,743).
att(662,89).
att(1,774).
att(498,28).
att(285,464).
att(257,333).
att(524,503).
att(612,164).
att(253,335).
att(497,5).
att(536,546).
att(607,178).
att(526,502).
att(282,469).
att(282,464).
att(532,541).
att(269,455).
att(538,546).
att(269,453).
att(9,785).
att(268,438).
att(497,2).
att(530,509).
att(536,542).
att(610,186).
att(268,435).
att(591,222).
att(499,29).
att(661,44).
att(6,779).
att(495,30).
att(1,697).
att(610,174).
att(610,172).
att(623,62).
att(636,126).
att(547,518).
att(633,141).
att(633,137).
att(506,633).
att(633,149).
att(504,592).
att(212,344).
att(638,109).
att(505,565).
att(215,333).
att(550,491).
att(504,566).
att(562,274).
att(547,498).
att(629,73).
att(501,570).
att(633,73).
att(506,554).
att(564,274).
att(631,68).
att(506,562).
att(564,284).
att(636,135).
att(506,570).
att(549,493).
att(507,612).
att(621,129).
att(640,141).
att(548,494).
att(504,582).
att(508,566).
att(623,41).
att(503,577).
att(562,204).
att(562,211).
att(552,194).
att(218,391).
att(510,560).
att(564,204).
att(218,392).
att(509,564).
att(507,640).
att(554,211).
att(205,366).
att(195,349).
att(215,394).
att(640,69).
att(554,163).
att(566,192).
att(215,380).
att(505,538).
att(197,342).
att(506,538).
att(621,71).
att(507,565).
att(621,79).
att(633,39).
att(510,573).
att(543,524).
att(199,429).
att(199,430).
att(614,93).
att(636,220).
att(198,403).
att(591,79).
att(607,41).
att(617,97).
att(607,39).
att(614,81).
att(638,201).
att(592,73).
att(208,404).
att(623,230).
att(627,217).
att(208,401).
att(592,79).
att(218,428).
att(617,82).
att(617,81).
att(620,91).
att(621,266).
att(202,415).
att(543,547).
att(634,238).
att(541,502).
att(202,406).
att(612,34).
att(636,228).
att(547,524).
att(544,546).
att(550,588).
att(617,35).
att(199,398).
att(218,408).
att(544,545).
att(541,544).
att(546,588).
att(550,573).
att(623,159).
att(208,377).
att(627,234).
att(591,85).
att(541,547).
att(205,457).
att(547,546).
att(629,178).
att(198,445).
att(505,681).
att(502,607).
att(504,687).
att(548,547).
att(505,671).
att(544,507).
att(640,166).
att(545,510).
att(545,509).
att(550,536).
att(640,161).
att(195,435).
att(198,430).
att(543,520).
att(541,494).
att(208,433).
att(550,501).
att(508,661).
att(547,505).
att(205,432).
att(212,458).
att(212,455).
att(636,190).
att(212,456).
att(545,515).
att(547,502).
att(636,174).
att(627,188).
att(549,505).
att(29,882).
att(29,881).
att(14,776).
att(319,412).
att(321,412).
att(512,132).
att(313,433).
att(501,2).
att(14,782).
att(23,873).
att(510,24).
att(515,125).
att(566,586).
att(566,582).
att(15,774).
att(319,410).
att(323,430).
att(10,788).
att(22,868).
att(509,10).
att(505,23).
att(323,421).
att(25,887).
att(317,410).
att(562,524).
att(323,417).
att(501,28).
att(34,486).
att(13,757).
att(34,487).
att(570,580).
att(33,481).
att(503,2).
att(321,380).
att(29,866).
att(33,486).
att(517,146).
att(519,113).
att(21,875).
att(317,391).
att(319,392).
att(24,838).
att(24,834).
att(516,148).
att(25,863).
att(16,697).
att(245,480).
att(517,144).
att(505,1).
att(41,481).
att(566,528).
att(14,779).
att(514,119).
att(313,401).
att(512,148).
att(22,879).
att(327,389).
att(11,709).
att(322,368).
att(22,874).
att(506,2).
att(19,770).
att(511,140).
att(24,845).
att(325,459).
att(518,150).
att(512,88).
att(321,435).
att(507,5).
att(322,435).
att(512,84).
att(586,662).
att(508,8).
att(28,837).
att(560,504).
att(560,510).
att(24,854).
att(507,2).
att(513,96).
att(560,508).
att(584,662).
att(25,874).
att(21,833).
att(508,3).
att(509,9).
att(515,145).
att(552,509).
att(570,543).
att(313,455).
att(26,871).
att(568,541).
att(513,45).
att(518,70).
att(24,793).
att(27,847).
att(587,661).
att(582,592).
att(28,858).
att(323,442).
att(519,70).
att(30,831).
att(566,509).
att(566,508).
att(588,662).
att(24,805).
att(321,419).
att(565,504).
att(323,431).
att(317,423).
att(30,838).
att(586,614).
att(560,512).
att(23,841).
att(580,687).
att(313,434).
att(22,856).
att(511,92).
att(322,463).
att(301,341).
att(504,98).
att(301,342).
att(502,36).
att(554,627).
att(558,610).
att(507,74).
att(565,684).
att(296,370).
att(505,98).
att(634,501).
att(16,851).
att(323,473).
att(631,512).
att(570,664).
att(319,465).
att(323,477).
att(299,331).
att(509,76).
att(502,92).
att(294,355).
att(552,601).
att(315,476).
att(570,671).
att(15,803).
att(12,827).
att(15,795).
att(313,476).
att(560,621).
att(565,612).
att(636,514).
att(629,497).
att(16,793).
att(319,460).
att(504,38).
att(510,92).
att(509,88).
att(10,793).
att(19,854).
att(323,464).
att(509,98).
att(503,96).
att(503,94).
att(313,467).
att(638,513).
att(313,470).
att(638,516).
att(305,408).
att(508,50).
att(301,396).
att(305,410).
att(503,52).
att(82,485).
att(504,57).
att(552,577).
att(82,483).
att(14,825).
att(299,392).
att(505,58).
att(508,49).
att(15,829).
att(508,47).
att(504,54).
att(10,829).
att(564,560).
att(564,558).
att(636,493).
att(87,490).
att(89,483).
att(509,38).
att(89,484).
att(558,640).
att(640,495).
att(322,477).
att(11,816).
att(85,490).
att(294,410).
att(510,49).
att(513,116).
att(503,12).
att(504,19).
att(15,745).
att(292,403).
att(513,130).
att(17,825).
att(24,868).
att(501,22).
att(27,887).
att(319,480).
att(508,51).
att(509,57).
att(21,886).
att(18,827).
att(562,588).
att(21,889).
att(504,16).
att(301,352).
att(502,22).
att(22,887).
att(317,475).
att(506,18).
att(21,881).
att(13,819).
att(14,812).
att(294,380).
att(501,13).
att(501,17).
att(552,587).
att(93,484).
att(26,697).
att(250,383).
att(493,72).
att(573,501).
att(493,77).
att(664,153).
att(515,20).
att(587,524).
att(1,876).
att(9,862).
att(497,132).
att(661,236).
att(674,174).
att(684,159).
att(493,65).
att(248,387).
att(515,8).
att(4,834).
att(497,148).
att(2,876).
att(500,113).
att(268,471).
att(253,401).
att(577,502).
att(494,65).
att(499,122).
att(587,528).
att(520,23).
att(22,718).
att(520,22).
att(21,702).
att(664,234).
att(267,476).
att(586,549).
att(690,170).
att(497,77).
att(684,185).
att(575,520).
att(493,100).
att(534,687).
att(3,856).
att(573,517).
att(6,840).
att(664,174).
att(7,836).
att(573,514).
att(580,507).
att(499,138).
att(687,185).
att(243,394).
att(493,88).
att(497,72).
att(536,681).
att(253,391).
att(580,501).
att(2,836).
att(5,872).
att(269,476).
att(5,877).
att(20,860).
att(584,504).
att(268,466).
att(9,878).
att(269,479).
att(243,387).
att(687,188).
att(671,190).
att(492,80).
att(495,142).
att(520,1).
att(586,506).
att(269,473).
att(690,180).
att(257,366).
att(524,684).
att(520,9).
att(662,161).
att(534,620).
att(575,499).
att(580,515).
att(7,845).
att(6,853).
att(257,438).
att(590,512).
att(8,856).
att(246,429).
att(253,436).
att(8,847).
att(250,419).
att(674,139).
att(243,436).
att(243,438).
att(259,430).
att(530,633).
att(498,96).
att(590,505).
att(495,74).
att(257,427).
att(250,415).
att(590,510).
att(243,435).
att(252,412).
att(491,96).
att(500,65).
att(252,413).
att(2,843).
att(243,431).
att(3,821).
att(250,404).
att(580,498).
att(250,406).
att(248,415).
att(671,62).
att(2,822).
att(532,629).
att(601,274).
att(690,61).
att(492,58).
att(495,36).
att(590,498).
att(528,554).
att(684,131).
att(530,566).
att(674,66).
att(499,99).
att(528,562).
att(684,147).
att(492,52).
att(528,568).
att(243,426).
att(259,413).
att(499,84).
att(661,121).
att(245,391).
att(8,809).
att(491,40).
att(6,845).
att(250,458).
att(518,100).
att(587,591).
att(575,560).
att(515,43).
att(580,633).
att(26,809).
att(327,333).
att(23,814).
att(24,822).
att(677,274).
att(577,552).
att(677,290).
att(24,827).
att(677,281).
att(565,515).
att(29,845).
att(245,440).
att(586,629).
att(253,461).
att(28,801).
att(30,854).
att(21,791).
att(511,42).
att(22,807).
att(514,99).
att(564,496).
att(252,445).
att(518,43).
att(677,191).
att(514,56).
att(23,745).
att(674,192).
att(512,17).
att(580,558).
att(24,751).
att(519,45).
att(687,284).
att(30,793).
att(518,38).
att(20,888).
att(248,445).
att(23,752).
att(518,47).
att(24,745).
att(255,451).
att(566,494).
att(588,623).
att(690,284).
att(517,53).
att(30,809).
att(586,566).
att(245,429).
att(246,436).
att(690,261).
att(259,432).
att(671,287).
att(25,802).
att(511,54).
att(22,825).
att(514,50).
att(245,423).
att(245,417).
att(252,427).
att(568,497).
att(512,21).
att(582,580).
att(514,12).
att(580,575).
att(23,785).
att(26,749).
att(26,747).
att(37,482).
att(514,13).
att(319,349).
att(323,389).
att(662,261).
att(577,538).
att(516,18).
att(575,530).
att(677,234).
att(494,123).
att(518,59).
att(575,528).
att(677,222).
att(248,479).
att(493,119).
att(587,566).
att(315,383).
att(517,14).
att(590,566).
att(664,262).
att(2,886).
att(28,752).
att(30,829).
att(662,264).
att(22,747).
att(573,586).
att(25,822).
att(511,15).
att(321,341).
att(259,473).
att(517,12).
att(586,577).
att(690,204).
att(3,889).
att(259,477).
att(664,266).
att(497,125).
att(674,166).
att(327,352).
att(671,163).
att(22,707).
att(573,544).
att(325,368).
att(8,870).
att(20,873).
att(4,880).
att(23,698).
att(24,715).
att(674,153).
att(23,697).
att(255,477).
att(577,546).
att(248,470).
att(255,478).
att(494,145).
att(661,191).
att(25,745).
att(520,18).
att(590,588).
att(30,749).
att(662,220).
att(315,349).
att(516,23).
att(687,230).
att(690,222).
att(588,580).
att(662,211).
att(5,886).
att(315,358).
att(516,27).
att(661,204).
att(681,194).
att(22,779).
att(375,459).
att(5,268).
att(6,285).
att(334,337).
att(662,493).
att(8,285).
att(607,570).
att(372,445).
att(612,623).
att(32,829).
att(661,511).
att(32,823).
att(661,514).
att(530,58).
att(50,841).
att(45,841).
att(540,88).
att(45,851).
att(690,495).
att(687,492).
att(381,436).
att(540,94).
att(610,554).
att(20,195).
att(604,580).
att(532,54).
att(40,743).
att(612,570).
att(49,812).
att(607,590).
att(373,438).
att(534,54).
att(532,51).
att(9,275).
att(32,759).
att(49,822).
att(538,59).
att(32,757).
att(591,627).
att(617,552).
att(610,590).
att(371,426).
att(373,433).
att(378,429).
att(538,52).
att(5,272).
att(36,819).
att(36,829).
att(1,205).
att(591,623).
att(620,558).
att(540,50).
att(612,586).
att(45,759).
att(56,866).
att(543,122).
att(612,584).
att(347,370).
att(543,116).
att(45,753).
att(378,480).
att(532,18).
att(137,482).
att(149,490).
att(542,105).
att(601,532).
att(338,370).
att(346,339).
att(607,540).
att(60,888).
att(526,22).
att(47,755).
att(614,580).
att(614,588).
att(40,785).
att(346,345).
att(49,749).
att(362,477).
att(610,540).
att(528,22).
att(530,29).
att(539,57).
att(545,116).
att(54,884).
att(43,825).
att(55,889).
att(334,368).
att(32,770).
att(50,822).
att(540,59).
att(50,821).
att(336,365).
att(540,58).
att(592,565).
att(536,12).
att(547,113).
att(378,462).
att(378,463).
att(620,545).
att(51,877).
att(56,878).
att(50,753).
att(338,333).
att(372,449).
att(373,467).
att(338,335).
att(52,880).
att(381,453).
att(539,12).
att(541,142).
att(52,873).
att(53,870).
att(538,25).
att(539,16).
att(591,586).
att(7,373).
att(47,868).
att(534,127).
att(86,702).
att(534,125).
att(7,356).
att(40,871).
att(4,301).
att(32,876).
att(575,4).
att(582,28).
att(684,538).
att(49,866).
att(94,778).
att(575,7).
att(100,757).
att(100,745).
att(338,415).
att(662,587).
att(32,872).
att(530,138).
att(8,381).
att(587,14).
att(6,338).
att(84,774).
att(92,755).
att(524,116).
att(133,484).
att(586,28).
att(690,536).
att(586,26).
att(2,356).
att(98,778).
att(524,123).
att(604,690).
att(534,148).
att(47,876).
att(526,72).
att(671,503).
att(47,875).
att(6,307).
att(334,410).
att(348,396).
att(604,662).
att(671,507).
att(4,321).
att(8,307).
att(96,702).
att(343,415).
att(9,356).
att(96,699).
att(343,412).
att(587,30).
att(8,303).
att(141,489).
att(338,394).
att(536,148).
att(684,547).
att(49,875).
att(4,315).
att(580,1).
att(671,501).
att(100,782).
att(343,398).
att(1,303).
att(141,481).
att(50,863).
att(684,541).
att(343,404).
att(582,3).
att(607,677).
att(532,130).
att(5,372).
att(92,782).
att(100,778).
att(590,30).
att(690,549).
att(371,474).
att(381,480).
att(36,878).
att(526,84).
att(348,436).
att(350,436).
att(664,504).
att(690,517).
att(610,591).
att(674,511).
att(348,431).
att(528,84).
att(42,847).
att(7,319).
att(614,671).
att(40,858).
att(338,442).
att(661,541).
att(662,546).
att(100,709).
att(351,430).
att(49,840).
att(530,96).
att(536,63).
att(539,150).
att(677,519).
att(664,548).
att(540,132).
att(351,426).
att(588,8).
att(620,671).
att(20,245).
att(7,255).
att(532,90).
att(3,269).
att(604,638).
att(348,425).
att(664,517).
att(350,426).
att(604,621).
att(45,845).
att(4,272).
att(7,245).
att(49,851).
att(536,99).
att(40,802).
att(47,854).
att(526,40).
att(681,514).
att(677,491).
att(49,853).
att(617,610).
att(536,86).
att(49,856).
att(532,78).
att(540,74).
att(662,504).
att(1,248).
att(687,517).
att(546,56).
att(547,57).
att(301,429).
att(542,10).
att(54,747).
att(12,869).
att(541,23).
att(623,526).
att(302,428).
att(623,524).
att(16,890).
att(56,753).
att(56,745).
att(59,825).
att(547,53).
att(629,582).
att(51,753).
att(296,440).
att(12,881).
att(309,417).
att(640,554).
att(542,57).
att(591,497).
att(640,564).
att(12,885).
att(541,17).
att(57,791).
att(505,123).
att(634,580).
att(12,879).
att(54,771).
att(550,12).
att(623,545).
att(15,868).
att(502,142).
att(634,587).
att(17,882).
att(550,16).
att(59,753).
att(505,130).
att(505,127).
att(309,415).
att(51,785).
att(53,743).
att(548,10).
att(640,587).
att(299,406).
att(542,19).
att(501,105).
att(502,125).
att(11,863).
att(353,368).
att(17,870).
att(309,463).
att(17,863).
att(507,113).
att(305,462).
att(506,146).
att(636,538).
att(353,358).
att(505,140).
att(543,8).
att(18,864).
att(59,766).
att(302,450).
att(506,134).
att(506,142).
att(13,867).
att(10,871).
att(549,23).
att(627,539).
att(51,705).
att(14,867).
att(545,1).
att(353,342).
att(554,610).
att(17,880).
att(634,547).
att(507,132).
att(546,5).
att(560,664).
att(353,344).
att(19,872).
att(547,7).
att(508,132).
att(353,337).
att(509,145).
att(505,80).
att(508,142).
att(505,78).
att(506,67).
att(303,450).
att(296,458).
att(10,833).
att(564,664).
att(17,867).
att(294,456).
att(549,8).
att(11,833).
att(309,438).
att(548,4).
att(633,503).
att(638,544).
att(532,8).
att(547,150).
att(62,482).
att(601,503).
att(43,707).
att(55,832).
att(540,3).
att(62,489).
att(543,80).
att(629,664).
att(371,366).
att(302,472).
att(47,709).
att(60,875).
att(353,404).
att(629,674).
att(362,389).
att(545,67).
att(549,138).
att(633,671).
att(362,396).
att(536,6).
att(51,831).
att(56,840).
att(73,485).
att(71,481).
att(538,3).
att(591,528).
att(620,549).
att(43,766).
att(541,76).
att(592,539).
att(617,541).
att(542,145).
att(546,67).
att(302,466).
att(353,392).
att(636,661).
att(356,392).
att(375,370).
att(546,74).
att(375,368).
att(372,344).
att(592,510).
att(607,518).
att(301,467).
att(301,470).
att(544,100).
att(303,473).
att(541,100).
att(591,547).
att(50,712).
att(296,479).
att(303,474).
att(53,832).
att(381,344).
att(545,92).
att(638,690).
att(60,834).
att(546,145).
att(53,839).
att(541,96).
att(542,78).
att(309,469).
att(375,430).
att(378,426).
att(541,52).
att(542,36).
att(56,807).
att(373,430).
att(53,847).
att(617,515).
att(53,843).
att(53,851).
att(56,801).
att(610,492).
att(620,514).
att(621,671).
att(378,410).
att(57,834).
att(621,684).
att(610,495).
att(52,793).
att(359,428).
att(545,42).
att(627,554).
att(546,36).
att(378,404).
att(52,751).
att(638,636).
att(60,791).
att(373,404).
att(612,492).
att(68,486).
att(56,812).
att(636,640).
att(636,638).
att(614,493).
att(638,640).
att(359,401).
att(549,32).
att(623,568).
att(550,100).
att(17,309).
att(384,396).
att(422,476).
att(67,845).
att(424,474).
att(72,834).
att(424,472).
att(23,441).
att(16,325).
att(78,873).
att(146,699).
att(399,368).
att(566,150).
att(15,329).
att(554,88).
att(565,134).
att(150,715).
att(186,486).
att(390,352).
att(80,874).
att(636,1).
att(418,478).
att(395,394).
att(80,877).
att(146,698).
att(390,358).
att(65,837).
att(13,301).
att(564,67).
att(638,2).
att(388,365).
att(28,447).
att(386,355).
att(65,802).
att(422,463).
att(14,257).
att(65,805).
att(21,448).
att(405,477).
att(562,94).
att(418,469).
att(566,72).
att(407,473).
att(28,437).
att(566,78).
att(15,257).
att(388,344).
att(22,448).
att(10,255).
att(76,853).
att(390,333).
att(21,452).
att(411,466).
att(424,459).
att(390,342).
att(397,361).
att(390,340).
att(418,465).
att(568,78).
att(13,327).
att(564,84).
att(24,416).
att(402,404).
att(11,208).
att(402,406).
att(27,397).
att(65,827).
att(393,432).
att(560,32).
att(560,42).
att(562,50).
att(384,427).
att(24,420).
att(67,829).
att(558,32).
att(10,288).
att(76,802).
att(397,417).
att(22,395).
att(76,803).
att(570,88).
att(388,401).
att(570,94).
att(395,421).
att(24,334).
att(23,351).
att(90,889).
att(172,489).
att(26,422).
att(65,757).
att(65,755).
att(399,383).
att(397,408).
att(15,202).
att(18,282).
att(30,395).
att(172,481).
att(560,59).
att(180,489).
att(22,416).
att(182,483).
att(388,396).
att(562,60).
att(568,50).
att(70,805).
att(424,476).
att(70,795).
att(26,393).
att(400,440).
att(634,47).
att(634,45).
att(621,40).
att(388,453).
att(138,821).
att(397,459).
att(18,390).
att(55,218).
att(56,198).
att(13,386).
att(144,827).
att(150,795).
att(60,279).
att(399,432).
att(12,407).
att(134,823).
att(393,459).
att(17,447).
att(621,100).
att(395,457).
att(638,42).
att(11,407).
att(57,198).
att(146,816).
att(393,449).
att(621,52).
att(15,332).
att(402,421).
att(623,26).
att(134,782).
att(400,419).
att(384,435).
att(76,881).
att(399,426).
att(13,409).
att(395,445).
att(60,218).
att(19,422).
att(10,332).
att(17,384).
att(65,884).
att(388,426).
att(621,43).
att(57,279).
att(640,57).
att(12,299).
att(134,707).
att(140,788).
att(439,349).
att(621,15).
att(627,29).
att(72,863).
att(134,712).
att(454,339).
att(76,868).
att(142,785).
att(146,749).
att(562,125).
att(142,779).
att(386,473).
att(634,15).
att(18,338).
att(78,888).
att(15,378).
att(67,880).
att(10,381).
att(10,378).
att(63,862).
att(10,373).
att(63,867).
att(629,24).
att(16,381).
att(621,59).
att(623,29).
att(14,336).
att(70,890).
att(72,886).
att(446,370).
att(552,130).
att(13,350).
att(397,472).
att(564,105).
att(388,470).
att(437,341).
att(386,466).
att(400,459).
att(565,116).
att(402,457).
att(554,70).
att(65,840).
att(388,462).
att(562,140).
att(568,125).
att(74,879).
att(146,788).
att(386,462).
att(560,140).
att(565,105).
att(10,307).
att(150,782).
att(390,457).
att(150,766).
att(142,698).
att(448,333).
att(399,453).
att(552,145).
att(27,255).
att(350,464).
att(4,386).
att(7,452).
att(671,633).
att(3,388).
att(587,76).
att(8,452).
att(677,640).
att(99,833).
att(8,441).
att(90,795).
att(99,832).
att(99,831).
att(8,437).
att(29,315).
att(88,809).
att(577,50).
att(405,355).
att(590,78).
att(343,476).
att(662,690).
att(346,459).
att(347,466).
att(588,72).
att(28,248).
att(661,674).
att(3,448).
att(86,845).
att(351,458).
att(409,335).
att(336,470).
att(586,98).
att(350,451).
att(575,58).
att(671,552).
att(4,414).
att(3,418).
att(336,462).
att(687,636).
att(28,282).
att(29,246).
att(28,279).
att(29,259).
att(90,823).
att(348,450).
att(577,60).
att(584,50).
att(96,807).
att(332,465).
att(29,255).
att(348,458).
att(99,851).
att(23,205).
att(100,856).
att(687,623).
att(98,801).
att(100,854).
att(584,42).
att(1,399).
att(332,462).
att(1,388).
att(5,447).
att(9,452).
att(346,438).
att(671,640).
att(3,384).
att(351,432).
att(681,591).
att(3,395).
att(3,393).
att(343,461).
att(351,434).
att(40,884).
att(590,51).
att(677,580).
att(4,346).
att(418,385).
att(582,54).
att(20,343).
att(88,747).
att(26,198).
att(96,816).
att(4,338).
att(98,821).
att(414,413).
att(687,552).
att(99,802).
att(1,409).
att(29,267).
att(30,279).
att(424,370).
att(577,16).
att(3,407).
att(573,58).
att(6,386).
att(92,803).
att(6,397).
att(5,400).
att(92,793).
att(690,558).
att(84,823).
att(409,389).
att(422,368).
att(4,359).
att(40,870).
att(86,770).
att(350,475).
att(573,24).
att(671,530).
att(528,101).
att(129,489).
att(407,383).
att(661,568).
att(684,584).
att(42,861).
att(8,343).
att(30,205).
att(424,342).
att(338,479).
att(20,372).
att(5,405).
att(29,198).
att(124,484).
att(5,416).
att(36,888).
att(5,414).
att(30,212).
att(99,819).
att(124,490).
att(99,829).
att(587,55).
att(2,346).
att(664,562).
att(338,471).
att(407,366).
att(664,558).
att(5,424).
att(25,215).
att(422,345).
att(690,582).
att(30,195).
att(414,377).
att(2,334).
att(407,438).
att(407,435).
att(65,771).
att(70,752).
att(70,749).
att(575,127).
att(22,372).
att(407,436).
att(30,407).
att(30,405).
att(405,432).
att(416,445).
att(24,378).
att(405,440).
att(74,753).
att(577,113).
att(90,868).
att(411,421).
att(568,58).
att(418,419).
att(26,411).
att(86,884).
att(63,747).
att(70,823).
att(99,886).
att(577,146).
att(94,870).
att(552,1).
att(582,125).
att(63,698).
att(70,774).
att(407,428).
att(570,21).
att(65,712).
att(67,698).
att(566,13).
att(418,410).
att(577,132).
att(99,884).
att(584,130).
att(77,749).
att(74,779).
att(405,428).
att(554,8).
att(552,20).
att(418,403).
att(30,347).
att(65,779).
att(575,123).
att(414,425).
att(107,490).
att(564,26).
att(570,17).
att(107,487).
att(586,105).
att(27,296).
att(27,294).
att(580,144).
att(674,681).
att(26,307).
att(580,140).
att(671,674).
att(78,782).
att(587,105).
att(566,30).
att(407,465).
att(560,5).
att(27,309).
att(407,463).
att(80,782).
att(568,30).
att(397,337).
att(584,144).
att(90,840).
att(100,868).
att(588,127).
att(70,788).
att(570,27).
att(92,863).
att(409,459).
att(564,5).
att(586,144).
att(4,437).
att(407,456).
att(684,662).
att(671,607).
att(671,604).
att(584,72).
att(20,437).
att(24,257).
att(582,63).
att(20,447).
att(575,88).
att(424,429).
att(25,292).
att(78,705).
att(100,874).
att(84,836).
att(405,449).
att(418,435).
att(98,837).
att(26,292).
att(409,435).
att(590,144).
att(21,322).
att(409,440).
att(411,431).
att(671,28).
att(681,17).
att(3,655).
att(690,22).
att(122,862).
att(47,350).
att(42,359).
att(42,356).
att(671,23).
att(119,863).
att(677,22).
att(661,56).
att(9,719).
att(49,351).
att(130,884).
att(677,27).
att(684,11).
att(8,730).
att(9,713).
att(20,657).
att(105,867).
att(661,60).
att(610,101).
att(45,405).
att(45,416).
att(105,869).
att(119,877).
att(123,870).
att(7,644).
att(7,659).
att(3,675).
att(101,883).
att(9,728).
att(113,866).
att(1,653).
att(617,119).
att(9,737).
att(684,21).
att(20,685).
att(230,487).
att(42,299).
att(674,2).
att(601,123).
att(601,65).
att(125,872).
att(612,150).
att(6,682).
att(42,327).
att(42,325).
att(47,307).
att(604,72).
att(36,296).
att(620,148).
att(20,605).
att(32,327).
att(32,325).
att(122,837).
att(113,879).
att(38,292).
att(36,307).
att(38,252).
att(6,602).
att(5,595).
att(43,317).
att(56,441).
att(604,84).
att(7,599).
att(119,847).
att(130,839).
att(130,837).
att(52,444).
att(661,5).
att(607,98).
att(614,67).
att(38,323).
att(2,618).
att(620,65).
att(113,838).
att(32,245).
att(101,880).
att(592,148).
att(5,685).
att(36,325).
att(52,441).
att(105,856).
att(7,811).
att(8,828).
att(192,483).
att(88,252).
att(32,444).
att(661,146).
att(99,292).
att(88,257).
att(100,303).
att(5,792).
att(687,74).
att(662,146).
att(20,758).
att(27,598).
att(687,80).
att(25,678).
att(671,80).
att(25,669).
att(84,329).
att(664,146).
att(98,322).
att(674,43).
att(47,448).
att(92,246).
att(99,325).
att(9,813).
att(49,439).
att(90,282).
att(684,98).
att(29,618).
att(8,744).
att(96,252).
att(38,443).
att(5,820).
att(92,323).
att(664,78).
att(690,96).
att(2,746).
att(690,94).
att(1,750).
att(687,90).
att(86,208).
att(40,409).
att(6,786).
att(99,255).
att(207,488).
att(674,54).
att(7,772).
att(7,789).
att(47,388).
att(674,58).
att(32,422).
att(204,490).
att(677,51).
att(204,487).
att(684,40).
att(4,708).
att(201,489).
att(45,446).
att(84,282).
att(3,726).
att(92,198).
att(3,739).
att(690,12).
att(2,728).
att(9,764).
att(99,277).
att(36,416).
att(105,888).
att(32,336).
att(99,285).
att(38,409).
att(5,786).
att(84,215).
att(100,272).
att(58,371).
att(592,22).
att(58,362).
att(592,26).
att(620,1).
att(621,105).
att(623,65).
att(59,372).
att(163,483).
att(638,101).
att(116,707).
att(148,861).
att(612,27).
att(640,127).
att(633,148).
att(443,392).
att(443,387).
att(113,788).
att(123,745).
att(592,18).
att(138,870).
att(54,356).
att(145,881).
att(145,888).
att(640,119).
att(51,302).
att(134,877).
att(633,144).
att(58,299).
att(437,394).
att(634,144).
att(58,307).
att(140,839).
att(54,327).
att(623,86).
att(170,490).
att(452,361).
att(56,315).
att(400,477).
att(636,148).
att(148,876).
att(633,72).
att(138,875).
att(443,355).
att(56,322).
att(132,831).
att(638,148).
att(101,776).
att(138,880).
att(54,294).
att(138,879).
att(101,788).
att(390,478).
att(617,2).
att(640,140).
att(101,779).
att(132,838).
att(441,358).
att(439,438).
att(140,860).
att(634,74).
att(627,84).
att(441,433).
att(57,317).
att(444,450).
att(629,90).
att(454,426).
att(148,835).
att(633,96).
att(11,448).
att(447,442).
att(638,74).
att(60,327).
att(638,72).
att(148,839).
att(54,323).
att(138,840).
att(591,1).
att(53,317).
att(621,148).
att(60,322).
att(15,390).
att(145,853).
att(623,51).
att(18,446).
att(134,829).
att(140,797).
att(56,285).
att(142,802).
att(56,282).
att(142,797).
att(10,402).
att(447,428).
att(14,452).
att(627,100).
att(145,832).
att(441,401).
att(621,70).
att(57,323).
att(134,791).
att(53,257).
att(145,835).
att(38,267).
att(59,446).
att(43,250).
att(45,243).
att(56,400).
att(444,474).
att(40,277).
att(47,259).
att(56,384).
att(40,285).
att(454,451).
att(36,243).
att(591,72).
att(105,795).
att(617,84).
att(122,807).
att(49,253).
att(43,327).
att(113,858).
att(610,32).
att(50,322).
att(54,439).
att(617,90).
att(52,386).
att(43,268).
att(45,279).
att(116,812).
att(42,215).
att(51,416).
att(56,418).
att(60,384).
att(116,821).
att(125,805).
att(53,390).
att(591,92).
att(448,449).
att(53,397).
att(607,53).
att(127,809).
att(592,100).
att(592,99).
att(617,32).
att(49,267).
att(45,199).
att(58,424).
att(142,881).
att(240,485).
att(612,57).
att(116,753).
att(144,883).
att(604,16).
att(144,885).
att(612,53).
att(591,45).
att(591,43).
att(617,53).
att(101,791).
att(130,823).
att(53,405).
att(617,59).
att(130,812).
att(620,55).
att(591,32).
att(113,825).
att(105,747).
att(610,16).
att(101,805).
att(617,51).
att(50,269).
att(52,334).
att(53,418).
att(116,766).
att(113,774).
att(441,474).
att(125,752).
att(437,478).
att(452,469).
att(604,25).
att(59,338).
att(629,119).
att(142,863).
att(221,485).
att(629,116).
att(617,13).
att(51,373).
att(617,18).
att(53,343).
att(122,785).
att(138,889).
att(132,867).
att(448,477).
att(452,465).
att(57,420).
att(58,414).
att(101,829).
att(130,752).
att(610,30).
att(140,269).
att(77,447).
att(12,693).
att(78,452).
att(70,448).
att(63,388).
att(142,277).
att(11,772).
att(14,754).
att(65,384).
att(11,767).
att(138,208).
att(18,772).
att(145,267).
att(63,407).
att(80,399).
att(19,789).
att(63,414).
att(142,208).
att(148,288).
att(16,719).
att(70,402).
att(70,400).
att(70,388).
att(67,375).
att(65,371).
att(72,347).
att(18,710).
att(80,420).
att(16,732).
att(19,719).
att(16,726).
att(14,695).
att(150,208).
att(10,726).
att(17,737).
att(23,808).
att(11,665).
att(24,799).
att(17,723).
att(28,848).
att(15,647).
att(77,346).
att(15,657).
att(80,336).
att(19,735).
att(76,373).
att(70,347).
att(15,855).
att(134,301).
att(134,299).
att(145,348).
att(16,846).
att(55,647).
att(58,728).
att(146,348).
att(60,728).
att(132,353).
att(54,723).
att(134,359).
att(138,347).
att(132,378).
att(58,645).
att(52,598).
att(146,362).
att(140,292).
att(55,675).
att(55,669).
att(51,688).
att(150,373).
att(148,372).
att(150,353).
att(132,299).
att(51,672).
att(58,688).
att(67,452).
att(67,441).
att(67,437).
att(17,796).
att(10,818).
att(146,301).
att(142,323).
att(13,796).
att(51,615).
att(56,602).
att(55,598).
att(142,322).
att(17,842).
att(11,815).
att(138,292).
att(18,811).
att(57,593).
att(140,243).
att(67,395).
att(72,439).
att(138,246).
att(142,243).
att(15,758).
att(10,758).
att(59,597).
att(10,746).
att(19,817).
att(14,818).
att(77,279).
att(22,732).
att(23,733).
att(29,789).
att(28,706).
att(100,384).
att(99,402).
att(80,275).
att(671,122).
att(22,647).
att(99,420).
att(27,732).
att(77,218).
att(99,405).
att(70,218).
att(86,338).
att(80,208).
att(27,653).
att(86,309).
att(3,798).
att(664,105).
att(92,371).
att(8,844).
att(96,362).
att(30,730).
att(690,125).
att(28,643).
att(2,849).
att(98,375).
att(98,373).
att(1,842).
att(25,726).
att(86,356).
att(22,653).
att(2,848).
att(690,113).
att(3,820).
att(23,615).
att(26,688).
att(664,134).
att(86,325).
att(96,299).
att(677,78).
att(8,796).
att(9,850).
att(27,672).
att(88,319).
att(100,359).
att(99,381).
att(684,134).
att(7,849).
att(92,378).
att(671,148).
att(25,647).
att(100,372).
att(662,105).
att(12,602).
att(15,682).
att(14,675).
att(24,818).
att(11,593).
att(65,329).
att(72,294).
att(271,482).
att(14,682).
att(24,820).
att(18,657).
att(78,353).
att(15,688).
att(287,488).
att(72,301).
att(80,375).
att(76,307).
att(80,353).
att(23,792).
att(26,852).
att(80,372).
att(284,482).
att(26,850).
att(25,855).
att(70,353).
att(27,826).
att(72,317).
att(67,243).
att(15,595).
att(18,672).
att(74,329).
att(28,817).
att(29,808).
att(30,800).
att(27,820).
att(77,309).
att(22,811).
att(76,321).
att(80,305).
att(261,487).
att(16,618).
att(63,322).
att(22,824).
att(25,808).
att(261,483).
att(17,599).
att(29,811).
att(72,255).
att(65,269).
att(88,386).
att(17,598).
att(29,830).
att(67,275).
att(29,824).
att(25,813).
att(21,754).
att(76,257).
att(28,750).
att(76,255).
att(65,253).
att(70,327).
att(26,818).
att(84,454).
att(24,693).
att(96,386).
att(23,700).
att(26,777).
att(27,767).
att(23,710).
att(94,386).
att(27,789).
att(88,422).
att(78,252).
att(21,762).
att(98,399).
att(78,257).
att(92,437).
att(274,484).
att(6,278).
att(40,824).
att(94,685).
att(3,216).
att(6,273).
att(7,263).
att(3,213).
att(42,828).
att(8,283).
att(96,682).
att(4,210).
att(94,675).
att(98,675).
att(5,241).
att(90,593).
att(1,265).
att(49,808).
att(43,842).
att(40,756).
att(92,598).
att(2,229).
att(122,441).
att(49,811).
att(8,193).
att(42,744).
att(119,452).
att(99,667).
att(36,815).
att(8,196).
att(1,210).
att(1,193).
att(8,206).
att(9,286).
att(32,742).
att(50,800).
att(84,605).
att(45,754).
att(125,447).
att(49,744).
att(127,443).
att(47,754).
att(1,237).
att(8,224).
att(32,786).
att(105,386).
att(20,165).
att(99,618).
att(99,615).
att(36,750).
att(38,744).
att(32,777).
att(113,441).
att(9,196).
att(36,754).
att(113,437).
att(6,152).
att(45,772).
att(125,393).
att(130,395).
att(122,407).
att(119,424).
att(6,155).
att(47,767).
att(101,448).
att(9,237).
att(42,706).
att(42,700).
att(5,231).
att(1,155).
att(36,777).
att(116,397).
att(27,165).
att(23,187).
att(88,693).
att(7,369).
att(20,298).
att(96,783).
att(98,775).
att(21,165).
att(28,160).
att(30,235).
att(90,703).
att(1,357).
att(28,156).
att(30,231).
att(7,295).
att(3,324).
att(22,120).
att(20,312).
att(8,295).
att(84,695).
att(84,693).
att(100,783).
att(28,181).
att(98,710).
att(99,786).
att(3,293).
att(86,693).
att(86,643).
att(86,647).
att(38,857).
att(86,655).
att(29,187).
att(8,314).
att(88,657).
att(20,247).
att(20,256).
att(27,110).
att(3,311).
att(5,300).
att(94,659).
att(3,289).
att(38,810).
att(45,848).
att(92,649).
att(9,314).
att(99,735).
att(30,117).
att(100,737).
att(36,842).
att(20,286).
att(29,117).
att(42,810).
att(6,312).
att(100,730).
att(84,657).
att(98,644).
att(134,400).
att(60,815).
att(144,439).
att(144,437).
att(60,818).
att(57,800).
att(122,248).
att(132,439).
att(60,830).
att(58,792).
att(105,255).
att(116,269).
att(55,767).
att(146,441).
att(116,282).
att(116,279).
att(52,703).
att(119,269).
att(138,448).
att(56,775).
att(140,437).
att(50,595).
att(50,593).
att(53,758).
att(57,815).
att(57,813).
att(105,282).
att(52,762).
att(123,275).
att(55,695).
att(146,386).
att(145,400).
att(51,719).
att(60,777).
att(122,215).
att(56,700).
att(150,397).
att(134,418).
att(113,285).
att(53,772).
att(134,414).
att(55,735).
att(58,713).
att(12,848).
att(125,215).
att(150,409).
att(59,706).
att(130,195).
att(53,700).
att(134,334).
att(52,733).
att(53,716).
att(138,405).
att(7,183).
att(119,336).
att(127,414).
att(49,700).
att(4,110).
att(42,732).
att(2,189).
att(113,422).
att(38,693).
att(43,767).
att(50,772).
att(55,855).
att(43,725).
att(123,351).
att(45,725).
att(119,375).
att(40,645).
att(127,343).
att(6,106).
att(8,128).
att(2,128).
att(1,103).
att(50,708).
att(101,424).
att(43,695).
att(36,735).
att(130,346).
att(55,794).
att(54,806).
att(51,799).
att(56,798).
att(45,651).
att(51,810).
att(9,114).
att(50,735).
att(51,798).
att(53,850).
att(122,296).
att(9,102).
att(38,608).
att(55,824).
att(36,598).
att(47,688).
att(56,824).
att(119,325).
att(125,299).
att(101,356).
att(47,668).
att(53,799).
att(54,796).
att(57,857).
att(130,309).
att(17,297).
att(53,106).
att(134,655).
att(148,710).
att(59,187).
att(146,713).
att(56,108).
att(142,725).
att(144,735).
att(52,111).
att(134,733).
att(11,314).
att(18,311).
att(17,314).
att(12,263).
att(18,318).
att(67,810).
att(19,320).
att(76,848).
att(14,324).
att(57,189).
att(11,241).
att(132,653).
att(134,608).
att(74,800).
att(72,806).
att(138,678).
att(14,289).
att(74,810).
att(78,844).
att(144,669).
att(80,848).
att(14,254).
att(138,657).
att(63,804).
att(17,270).
att(138,595).
att(145,672).
att(11,227).
att(15,196).
att(142,599).
att(10,210).
att(16,206).
att(148,669).
att(80,792).
att(10,196).
att(13,270).
att(70,804).
att(70,794).
att(113,597).
att(116,598).
att(59,280).
att(116,605).
att(146,808).
att(127,667).
att(122,602).
att(130,682).
att(60,270).
att(150,804).
att(144,828).
att(53,278).
att(105,605).
att(52,213).
att(52,210).
att(122,597).
att(134,811).
att(51,206).
att(122,608).
att(58,219).
att(101,593).
att(142,750).
att(56,233).
att(148,817).
att(146,820).
att(125,615).
att(53,193).
att(145,798).
att(130,602).
att(138,815).
att(60,196).
att(132,756).
att(12,308).
att(57,229).
att(145,754).
att(56,165).
att(59,237).
att(58,231).
att(60,227).
att(144,772).
att(144,786).
att(53,229).
att(52,165).
att(15,306).
att(146,780).
att(58,167).
att(18,367).
att(138,708).
att(12,316).
att(17,360).
att(17,357).
att(56,187).
att(16,297).
att(140,703).
att(56,175).
att(72,653).
att(65,688).
att(94,846).
att(67,688).
att(96,848).
att(24,265).
att(76,659).
att(98,855).
att(78,737).
att(13,120).
att(96,792).
att(99,857).
att(77,651).
att(29,260).
att(90,824).
att(99,848).
att(90,817).
att(25,241).
att(76,669).
att(30,260).
att(76,682).
att(24,196).
att(78,659).
att(100,852).
att(26,254).
att(70,659).
att(21,278).
att(84,806).
att(80,659).
att(72,618).
att(86,756).
att(90,756).
att(24,225).
att(72,602).
att(76,605).
att(21,210).
att(29,278).
att(28,219).
att(78,685).
att(100,800).
att(92,808).
att(25,289).
att(22,193).
att(22,155).
att(86,775).
att(28,235).
att(20,369).
att(29,210).
att(98,750).
att(21,235).
att(24,154).
att(90,772).
att(100,811).
att(78,598).
att(80,599).
att(84,754).
att(72,748).
att(70,750).
att(72,744).
att(15,229).
att(12,152).
att(15,225).
att(10,237).
att(19,219).
att(19,210).
att(13,206).
att(138,615).
att(10,229).
att(80,830).
att(148,597).
att(11,175).
att(23,310).
att(77,744).
att(24,298).
att(67,703).
att(72,777).
att(76,775).
att(28,382).
att(22,382).
att(63,783).
att(10,156).
att(23,328).
att(15,183).
att(15,181).
att(77,775).
att(14,176).
att(74,693).
att(77,783).
att(25,354).
att(30,376).
att(23,291).
att(11,187).
att(10,171).
att(63,700).
att(88,848).
att(72,733).
att(23,244).
att(18,177).
att(78,710).
att(15,120).
att(17,173).
att(72,725).
att(15,111).
att(21,330).
att(76,728).
att(80,713).
att(16,120).
att(18,175).
att(18,171).
att(10,110).
att(70,716).
att(25,300).
att(13,189).
att(76,732).
att(42,367).
att(86,167).
att(9,694).
att(88,154).
att(4,648).
att(29,579).
att(94,229).
att(8,731).
att(99,203).
att(90,158).
att(90,169).
att(1,727).
att(5,711).
att(86,181).
att(29,533).
att(42,295).
att(3,679).
att(1,660).
att(20,679).
att(100,237).
att(98,156).
att(29,527).
att(9,724).
att(30,522).
att(3,616).
att(84,106).
att(43,300).
att(96,179).
att(4,603).
att(96,189).
att(90,108).
att(99,162).
att(96,171).
att(4,609).
att(43,382).
att(43,354).
att(45,330).
att(119,850).
att(3,635).
att(2,632).
att(4,630).
att(47,326).
att(4,635).
att(42,241).
att(50,304).
att(20,626).
att(100,173).
att(99,176).
att(105,857).
att(5,680).
att(92,318).
att(27,596).
att(72,108).
att(99,297).
att(99,295).
att(24,637).
att(99,291).
att(25,663).
att(28,596).
att(78,181).
att(98,316).
att(84,330).
att(3,787).
att(25,625).
att(90,286).
att(98,242).
att(88,270).
att(24,553).
att(24,551).
att(94,311).
att(25,619).
att(25,616).
att(21,628).
att(100,330).
att(86,196).
att(94,283).
att(26,557).
att(22,585).
att(6,784).
att(88,209).
att(26,555).
att(1,787).
att(28,553).
att(24,576).
att(30,637).
att(8,790).
att(25,630).
att(3,769).
att(21,563).
att(30,622).
att(7,711).
att(3,740).
att(26,583).
att(3,734).
att(20,724).
att(24,531).
att(23,525).
att(4,736).
att(94,209).
att(26,574).
att(21,589).
att(28,576).
att(24,522).
att(90,223).
att(98,193).
att(100,278).
att(21,585).
att(84,210).
att(59,369).
att(38,179).
att(45,165).
att(36,176).
att(54,310).
att(36,173).
att(56,304).
att(56,297).
att(9,535).
att(101,742).
att(47,155).
att(47,154).
att(130,762).
att(40,175).
att(36,162).
att(113,789).
att(43,237).
att(54,363).
att(54,357).
att(101,760).
att(50,225).
att(125,710).
att(43,183).
att(54,318).
att(119,726).
att(47,189).
att(55,318).
att(56,312).
att(116,728).
att(51,316).
att(56,320).
att(127,719).
att(54,291).
att(49,183).
att(113,644).
att(57,320).
att(140,846).
att(55,249).
att(56,241).
att(142,855).
att(59,316).
att(60,318).
att(47,106).
att(54,312).
att(142,794).
att(55,263).
att(57,251).
att(101,643).
att(116,668).
att(148,848).
att(55,270).
att(148,842).
att(116,675).
att(146,857).
att(122,672).
att(138,850).
att(138,849).
att(150,855).
att(45,260).
att(119,792).
att(2,555).
att(45,241).
att(7,632).
att(49,249).
att(8,630).
att(9,611).
att(100,117).
att(36,254).
att(45,280).
att(43,276).
att(2,583).
att(1,571).
att(47,283).
att(7,557).
att(127,800).
att(7,567).
att(130,806).
att(49,270).
att(101,852).
att(49,286).
att(9,635).
att(127,808).
att(2,569).
att(5,628).
att(1,563).
att(105,830).
att(113,796).
att(20,572).
att(43,206).
att(119,758).
att(49,210).
att(130,818).
att(32,224).
att(101,798).
att(38,162).
att(43,224).
att(125,742).
att(55,369).
att(116,777).
att(119,767).
att(9,581).
att(49,225).
att(50,210).
att(130,741).
att(42,169).
att(56,382).
att(105,775).
att(52,376).
att(101,826).
att(146,242).
att(57,632).
att(12,696).
att(52,583).
att(140,263).
att(53,551).
att(55,563).
att(58,625).
att(142,283).
att(16,761).
att(60,630).
att(56,561).
att(59,622).
att(144,283).
att(101,117).
att(10,773).
att(144,278).
att(145,278).
att(18,761).
att(134,229).
att(145,283).
att(16,717).
att(140,206).
att(144,200).
att(148,278).
att(59,555).
att(51,578).
att(57,637).
att(13,773).
att(10,701).
att(17,717).
att(140,237).
att(134,156).
att(54,527).
att(146,216).
att(144,229).
att(10,738).
att(11,734).
att(14,691).
att(10,731).
att(56,529).
att(15,654).
att(132,175).
att(12,663).
att(57,531).
att(138,156).
att(74,382).
att(18,736).
att(17,731).
att(74,360).
att(10,660).
att(16,648).
att(19,724).
att(11,646).
att(132,160).
att(138,233).
att(150,231).
att(10,652).
att(116,156).
att(142,354).
att(119,156).
att(56,654).
att(125,229).
att(125,227).
att(122,156).
att(60,740).
att(51,642).
att(101,206).
att(101,203).
att(113,235).
att(49,525).
att(51,648).
att(122,162).
att(52,596).
att(53,642).
att(56,666).
att(119,173).
att(150,360).
att(54,654).
att(140,354).
att(52,686).
att(130,158).
att(146,304).
att(101,176).
att(57,676).
att(101,183).
att(125,183).
att(142,316).
att(119,110).
att(145,369).
att(101,110).
att(138,249).
att(59,603).
att(125,120).
att(55,626).
att(142,242).
att(146,326).
att(59,596).
att(134,254).
att(57,686).
att(101,189).
att(145,298).
att(11,521).
att(17,557).
att(77,280).
att(14,583).
att(27,692).
att(14,589).
att(67,224).
att(74,203).
att(67,223).
att(74,216).
att(14,574).
att(18,555).
att(28,704).
att(10,585).
att(27,736).
att(77,210).
att(14,531).
att(67,154).
att(77,200).
att(30,720).
att(26,711).
att(10,527).
att(63,229).
att(13,581).
att(25,701).
att(10,535).
att(21,729).
att(80,200).
att(10,531).
att(23,670).
att(96,369).
att(23,663).
att(63,173).
att(88,298).
att(67,173).
att(72,154).
att(65,173).
att(25,722).
att(67,175).
att(22,646).
att(13,531).
att(70,233).
att(80,229).
att(65,103).
att(72,177).
att(88,326).
att(94,308).
att(23,616).
att(63,108).
att(26,686).
att(96,300).
att(72,181).
att(92,367).
att(76,177).
att(98,310).
att(80,152).
att(92,360).
att(92,357).
att(100,382).
att(17,658).
att(145,156).
att(77,354).
att(65,326).
att(132,103).
att(76,295).
att(18,642).
att(80,360).
att(138,169).
att(13,650).
att(11,686).
att(13,646).
att(132,187).
att(63,306).
att(13,654).
att(14,616).
att(72,314).
att(70,318).
att(78,306).
att(74,328).
att(17,679).
att(63,316).
att(148,171).
att(144,111).
att(148,179).
att(142,120).
att(148,189).
att(70,306).
att(144,103).
att(67,283).
att(67,280).
att(77,311).
att(65,289).
att(74,249).
att(74,260).
att(146,114).
att(17,609).
att(12,561).
att(17,603).
att(145,103).
att(148,103).
att(63,241).
att(80,312).
att(10,630).
att(80,330).
att(14,551).
att(27,784).
att(17,639).
att(72,289).
att(65,200).
att(27,769).
att(12,583).
att(15,567).
att(80,254).
att(10,555).
att(70,256).
att(22,768).
att(13,635).
att(3,204).
att(86,609).
att(94,686).
att(6,274).
att(94,683).
att(88,596).
att(90,616).
att(94,673).
att(98,673).
att(100,656).
att(29,136).
att(98,686).
att(1,262).
att(24,83).
att(21,69).
att(26,95).
att(90,635).
att(27,95).
att(96,611).
att(1,220).
att(24,33).
att(100,683).
att(90,626).
att(23,34).
att(21,87).
att(5,274).
att(92,683).
att(5,284).
att(100,670).
att(26,35).
att(26,48).
att(86,561).
att(84,555).
att(3,151).
att(84,551).
att(8,234).
att(7,230).
att(94,624).
att(30,95).
att(90,555).
att(29,81).
att(9,201).
att(27,34).
att(42,790).
att(21,39).
att(2,238).
att(21,37).
att(84,639).
att(90,556).
att(3,180).
att(40,696).
att(86,583).
att(38,701).
att(4,190).
att(7,168).
att(47,765).
att(99,622).
att(9,238).
att(20,188).
att(96,551).
att(99,639).
att(32,691).
att(30,35).
att(65,583).
att(63,571).
att(22,182).
att(80,556).
att(78,635).
att(24,180).
att(67,572).
att(98,763).
att(88,704).
att(77,639).
att(90,691).
att(84,768).
att(98,784).
att(67,578).
att(77,624).
att(80,628).
att(25,236).
att(22,107).
att(92,704).
att(98,694).
att(90,736).
att(28,185).
att(98,691).
att(24,129).
att(65,522).
att(84,692).
att(78,559).
att(94,761).
att(21,174).
att(22,186).
att(70,529).
att(94,740).
att(86,650).
att(23,135).
att(90,642).
att(88,648).
att(74,527).
att(29,172).
att(22,112).
att(21,112).
att(25,185).
att(100,720).
att(26,143).
att(25,135).
att(86,689).
att(25,133).
att(28,147).
att(90,686).
att(20,262).
att(96,656).
att(24,61).
att(78,537).
att(20,281).
att(98,642).
att(22,147).
att(30,121).
att(116,258).
att(45,613).
att(38,626).
att(43,606).
att(6,82).
att(38,625).
att(116,249).
att(8,87).
att(9,73).
att(42,624).
att(47,596).
att(38,611).
att(5,69).
att(20,39).
att(101,306).
att(130,320).
att(20,35).
att(5,41).
att(5,35).
att(130,258).
att(52,769).
att(50,611).
att(56,773).
att(122,265).
att(52,773).
att(101,320).
att(1,37).
att(113,244).
att(36,637).
att(101,324).
att(113,209).
att(54,720).
att(43,559).
att(47,567).
att(38,578).
att(40,579).
att(59,781).
att(42,576).
att(9,44).
att(130,283).
att(60,773).
att(40,578).
att(5,48).
att(50,624).
att(105,206).
att(9,41).
att(53,773).
att(58,720).
att(50,571).
att(54,738).
att(101,196).
att(36,523).
att(123,210).
att(59,701).
att(119,239).
att(59,714).
att(125,200).
att(119,233).
att(60,704).
att(42,533).
att(32,529).
att(57,784).
att(101,289).
att(92,578).
att(6,184).
att(84,521).
att(38,738).
att(32,740).
att(8,180).
att(9,164).
att(9,151).
att(43,787).
att(38,692).
att(38,691).
att(50,773).
att(98,572).
att(20,104).
att(119,357).
att(6,121).
att(8,124).
att(99,572).
att(98,531).
att(99,585).
att(32,654).
att(4,135).
att(49,734).
att(100,585).
att(45,658).
att(5,135).
att(2,73).
att(127,376).
att(3,64).
att(6,135).
att(36,641).
att(20,71).
att(20,79).
att(42,676).
att(49,654).
att(43,722).
att(130,382).
att(5,61).
att(38,619).
att(2,93).
att(3,89).
att(6,61).
att(119,326).
att(119,324).
att(105,316).
att(32,613).
att(49,670).
att(50,654).
att(101,369).
att(42,606).
att(7,68).
att(116,298).
att(123,367).
att(134,652).
att(57,182).
att(140,722).
att(52,139).
att(142,727).
att(55,118).
att(142,738).
att(123,578).
att(116,537).
att(142,734).
att(140,729).
att(122,535).
att(132,724).
att(54,185).
att(122,537).
att(12,266).
att(145,736).
att(123,521).
att(144,646).
att(59,109).
att(144,642).
att(57,185).
att(52,87).
att(58,136).
att(16,281).
att(146,650).
att(59,147).
att(146,648).
att(54,61).
att(15,271).
att(144,670).
att(56,75).
att(60,149).
att(148,650).
att(150,642).
att(16,290).
att(132,676).
att(132,673).
att(138,656).
att(60,136).
att(150,650).
att(150,648).
att(51,69).
att(145,673).
att(57,62).
att(17,266).
att(138,606).
att(53,85).
att(138,600).
att(55,85).
att(15,207).
att(55,91).
att(15,217).
att(56,83).
att(56,97).
att(59,66).
att(55,81).
att(11,201).
att(12,191).
att(132,609).
att(138,689).
att(138,683).
att(11,191).
att(57,274).
att(32,31).
att(113,600).
att(116,596).
att(38,89).
att(55,201).
att(49,69).
att(122,616).
att(47,62).
att(51,192).
att(56,201).
att(101,660).
att(101,658).
att(49,64).
att(54,230).
att(36,31).
att(52,153).
att(134,773).
att(45,81).
att(59,201).
att(59,194).
att(56,228).
att(45,82).
att(47,95).
att(130,596).
att(53,204).
att(49,89).
att(32,46).
att(122,632).
att(134,704).
att(52,180).
att(45,37).
att(56,163).
att(47,37).
att(49,34).
att(113,639).
att(134,781).
att(134,768).
att(53,238).
att(105,567).
att(132,787).
att(122,551).
att(58,157).
att(116,579).
att(140,717).
att(146,765).
att(134,729).
att(140,714).
att(113,583).
att(123,567).
att(57,159).
att(144,692).
att(142,720).
att(142,717).
att(142,711).
att(148,769).
att(60,159).
att(132,692).
att(127,569).
att(138,790).
att(51,174).
att(122,571).
att(122,578).
att(127,556).
att(150,790).
att(145,537).
att(14,147).
att(23,264).
att(15,133).
att(76,641).
att(24,274).
att(17,104).
att(76,648).
att(146,525).
att(150,533).
att(17,147).
att(23,217).
att(72,683).
att(78,656).
att(24,201).
att(74,689).
att(72,679).
att(27,287).
att(22,261).
att(16,73).
att(74,676).
att(13,143).
att(13,139).
att(22,287).
att(10,75).
att(26,201).
att(27,191).
att(63,625).
att(26,217).
att(70,600).
att(77,679).
att(67,632).
att(78,663).
att(72,594).
att(28,191).
att(16,87).
att(25,264).
att(80,666).
att(10,83).
att(13,79).
att(26,261).
att(65,551).
att(27,234).
att(13,33).
att(63,556).
att(65,567).
att(15,48).
att(15,46).
att(15,44).
att(77,600).
att(24,151).
att(30,207).
att(80,616).
att(78,609).
att(80,611).
att(18,97).
att(78,619).
att(25,207).
att(13,93).
att(12,159).
att(138,624).
att(138,622).
att(132,555).
att(65,787).
att(17,191).
att(138,626).
att(146,594).
att(54,39).
att(57,82).
att(10,240).
att(19,204).
att(148,594).
att(10,234).
att(19,211).
att(55,41).
att(13,207).
att(53,95).
att(150,594).
att(10,230).
att(60,83).
att(65,704).
att(146,626).
att(18,222).
att(150,635).
att(14,221).
att(63,773).
att(65,761).
att(17,157).
att(77,763).
att(145,557).
att(14,190).
att(15,172).
att(16,186).
att(76,692).
att(142,589).
att(67,731).
att(145,553).
att(72,704).
att(63,696).
att(144,581).
att(18,153).
att(76,714).
att(78,787).
att(142,583).
att(138,569).
att(138,529).
att(65,650).
att(145,581).
att(14,115).
att(80,714).
att(144,531).
att(16,118).
att(132,535).
att(150,585).
att(10,118).
att(148,576).
att(70,39).
att(29,590).
att(96,236).
att(21,540).
att(100,217).
att(28,526).
att(74,41).
att(30,588).
att(21,530).
att(84,232).
att(63,44).
att(30,573).
att(25,541).
att(2,674).
att(96,157).
att(100,234).
att(100,222).
att(78,44).
att(27,544).
att(26,507).
att(24,518).
att(27,503).
att(8,681).
att(99,153).
att(1,664).
att(29,542).
att(24,514).
att(21,509).
att(28,502).
att(30,542).
att(7,612).
att(94,129).
att(25,517).
att(23,492).
att(94,109).
att(5,664).
att(28,515).
att(90,133).
att(23,494).
att(90,137).
att(29,509).
att(6,664).
att(21,514).
att(63,135).
att(70,118).
att(10,491).
att(26,614).
att(63,131).
att(12,492).
att(18,508).
att(24,627).
att(24,640).
att(12,495).
att(17,510).
att(65,133).
att(80,188).
att(18,505).
att(15,516).
att(74,118).
att(22,620).
att(80,174).
att(13,493).
att(23,565).
att(70,141).
att(70,137).
att(77,112).
att(27,627).
att(14,496).
att(78,112).
att(77,107).
att(19,520).
att(21,627).
att(70,68).
att(86,214).
att(29,634).
att(96,266).
att(19,499).
att(98,274).
att(67,82).
att(28,570).
att(70,149).
att(25,631).
att(26,621).
att(30,623).
att(94,201).
att(70,87).
att(94,220).
att(86,230).
att(86,240).
att(25,573).
att(77,75).
att(27,584).
att(70,82).
att(94,207).
att(98,220).
att(67,41).
att(76,82).
att(84,204).
att(92,266).
att(84,217).
att(78,68).
att(5,541).
att(40,178).
att(45,163).
att(47,164).
att(3,509).
att(130,784).
att(32,186).
att(7,541).
att(122,696).
att(36,161).
att(20,506).
att(36,168).
att(99,31).
att(105,711).
att(2,517).
att(123,720).
att(36,109).
att(8,503).
att(7,506).
att(49,185).
att(43,164).
att(36,186).
att(125,721).
att(113,650).
att(113,648).
att(6,511).
att(45,104).
att(45,115).
att(9,508).
att(49,126).
att(32,131).
att(36,112).
att(43,185).
att(1,518).
att(9,503).
att(36,124).
att(123,650).
att(123,648).
att(113,666).
att(113,679).
att(5,496).
att(54,287).
att(113,673).
att(36,62).
att(6,492).
att(47,147).
att(127,641).
att(9,519).
att(122,673).
att(42,62).
att(127,650).
att(42,73).
att(47,141).
att(101,729).
att(49,135).
att(7,636).
att(26,495).
att(3,558).
att(40,262).
att(84,62).
att(100,136).
att(3,554).
att(94,131).
att(94,139).
att(28,497).
att(30,519).
att(90,69).
att(30,513).
att(5,620).
att(98,133).
att(20,554).
att(30,514).
att(20,552).
att(92,68).
att(86,97).
att(2,573).
att(5,552).
att(1,570).
att(32,217).
att(32,192).
att(88,81).
att(99,149).
att(84,73).
att(100,141).
att(90,82).
att(36,284).
att(32,201).
att(100,149).
att(100,82).
att(86,33).
att(47,211).
att(7,590).
att(32,236).
att(88,33).
att(99,71).
att(4,526).
att(9,566).
att(90,44).
att(96,97).
att(100,75).
att(90,34).
att(9,564).
att(116,773).
att(38,161).
att(40,151).
att(45,238).
att(45,236).
att(38,170).
att(116,768).
att(5,526).
att(122,765).
att(94,41).
att(94,48).
att(47,221).
att(122,773).
att(8,538).
att(96,37).
att(105,769).
att(43,191).
att(100,91).
att(8,530).
att(54,564).
att(58,634).
att(134,201).
att(598,438).
att(142,274).
att(59,640).
att(55,562).
att(595,436).
att(597,436).
att(116,73).
att(605,450).
att(119,68).
att(599,451).
att(130,135).
att(52,566).
att(593,432).
att(123,73).
att(134,230).
att(101,66).
att(134,226).
att(145,290).
att(57,562).
att(615,455).
att(56,588).
att(599,445).
att(123,68).
att(599,442).
att(50,496).
att(105,91).
att(53,570).
att(132,217).
att(138,261).
att(145,207).
att(146,194).
att(672,366).
att(675,355).
att(682,387).
att(101,89).
att(113,35).
att(598,462).
att(682,396).
att(682,391).
att(667,331).
att(146,220).
att(142,221).
att(119,33).
att(144,222).
att(57,570).
att(105,48).
att(593,462).
att(51,528).
att(685,365).
att(150,207).
att(685,366).
att(101,34).
att(615,473).
att(615,479).
att(685,352).
att(608,464).
att(675,337).
att(58,524).
att(54,545).
att(123,37).
att(669,345).
att(595,449).
att(56,549).
att(688,335).
att(595,458).
att(55,541).
att(599,470).
att(595,451).
att(138,238).
att(145,192).
att(53,539).
att(127,39).
att(5,23).
att(6,30).
att(123,230).
att(682,428).
att(38,547).
att(32,501).
att(45,530).
att(119,168).
att(38,541).
att(672,413).
att(42,543).
att(669,398).
att(678,394).
att(5,19).
att(1,26).
att(50,586).
att(101,217).
att(688,404).
att(9,13).
att(54,674).
att(36,506).
att(55,661).
att(113,184).
att(685,404).
att(685,406).
att(55,677).
att(40,508).
att(45,548).
att(45,547).
att(51,687).
att(130,164).
att(688,392).
att(47,542).
att(127,157).
att(665,364).
att(105,182).
att(9,21).
att(101,226).
att(1,5).
att(101,240).
att(593,472).
att(122,184).
att(130,170).
att(54,610).
att(685,449).
att(36,516).
att(32,492).
att(36,515).
att(50,501).
att(52,629).
att(678,431).
att(119,129).
att(40,519).
att(38,511).
att(675,432).
att(682,455).
att(38,515).
att(45,508).
att(59,662).
att(682,451).
att(667,419).
att(42,518).
att(127,188).
att(54,662).
att(101,157).
att(49,503).
att(668,413).
att(675,423).
att(57,607).
att(105,66).
att(667,408).
att(45,516).
att(56,634).
att(55,629).
att(38,497).
att(45,519).
att(45,518).
att(127,104).
att(45,512).
att(56,640).
att(127,126).
att(53,607).
att(688,417).
att(50,510).
att(74,191).
att(72,217).
att(15,573).
att(74,220).
att(17,564).
att(67,238).
att(140,93).
att(63,192).
att(63,191).
att(76,220).
att(13,564).
att(11,588).
att(10,584).
att(63,211).
att(65,163).
att(17,588).
att(13,528).
att(11,547).
att(74,228).
att(142,44).
att(15,524).
att(140,41).
att(12,544).
att(74,234).
att(77,217).
att(76,230).
att(148,85).
att(144,44).
att(76,234).
att(146,87).
att(63,232).
att(144,33).
att(150,91).
att(19,586).
att(72,166).
att(72,164).
att(14,550).
att(24,677).
att(602,333).
att(145,31).
att(599,331).
att(148,34).
att(10,549).
att(63,168).
att(80,228).
att(16,541).
att(65,121).
att(14,509).
att(13,501).
att(13,505).
att(22,607).
att(26,684).
att(17,544).
att(18,550).
att(15,509).
att(15,507).
att(11,513).
att(80,168).
att(74,174).
att(11,507).
att(140,186).
att(605,380).
att(140,185).
att(14,687).
att(57,547).
att(132,104).
att(599,396).
att(148,151).
att(58,542).
att(142,186).
att(595,366).
att(145,153).
att(595,364).
att(56,505).
att(593,358).
att(144,180).
att(16,677).
att(55,502).
att(55,501).
att(615,391).
att(53,548).
att(132,180).
att(60,544).
att(144,172).
att(54,520).
att(17,687).
att(17,684).
att(605,364).
att(57,509).
att(57,508).
att(145,185).
att(595,335).
att(15,607).
att(140,107).
att(52,493).
att(54,516).
att(144,118).
att(13,662).
att(618,365).
att(16,607).
att(148,178).
att(599,352).
att(599,355).
att(11,620).
att(150,184).
att(150,182).
att(618,361).
att(60,504).
att(11,591).
att(605,427).
att(142,139).
att(148,124).
att(18,601).
att(140,136).
att(146,118).
att(58,515).
att(150,126).
att(144,139).
att(16,623).
att(144,137).
att(16,631).
att(599,427).
att(599,428).
att(18,607).
att(53,520).
att(51,496).
att(59,513).
att(140,69).
att(145,139).
att(14,558).
att(138,73).
att(615,426).
att(12,573).
att(74,281).
att(58,499).
att(60,499).
att(63,266).
att(144,71).
att(599,398).
att(58,494).
att(148,149).
att(144,61).
att(63,287).
att(26,72).
att(94,681).
att(651,476).
att(29,140).
att(24,92).
att(23,88).
att(24,100).
att(65,512).
att(735,380).
att(28,67).
att(30,142).
att(499,482).
att(18,1).
att(739,365).
att(723,377).
att(733,377).
att(21,67).
att(730,345).
att(19,8).
att(80,546).
att(25,145).
att(65,495).
att(657,476).
att(728,339).
att(730,339).
att(21,32).
att(27,84).
att(88,633).
att(733,352).
att(23,40).
att(27,96).
att(657,471).
att(728,335).
att(88,640).
att(21,100).
att(644,453).
att(78,510).
att(28,96).
att(30,78).
att(77,504).
att(86,612).
att(80,510).
att(100,690).
att(737,417).
att(732,398).
att(27,49).
att(88,562).
att(96,638).
att(86,554).
att(739,415).
att(725,389).
att(90,564).
att(72,494).
att(494,488).
att(99,620).
att(737,412).
att(30,98).
att(492,481).
att(22,15).
att(735,404).
att(22,13).
att(492,485).
att(737,404).
att(94,554).
att(78,495).
att(100,634).
att(723,401).
att(723,408).
att(92,634).
att(78,492).
att(737,453).
att(10,12).
att(735,453).
att(14,52).
att(733,458).
att(728,440).
att(80,638).
att(18,38).
att(13,43).
att(80,629).
att(65,538).
att(23,130).
att(735,442).
att(730,429).
att(732,423).
att(737,435).
att(15,14).
att(733,440).
att(67,524).
att(78,560).
att(16,17).
att(17,52).
att(63,584).
att(70,566).
att(76,577).
att(739,421).
att(14,25).
att(27,125).
att(11,8).
att(72,540).
att(10,20).
att(739,474).
att(716,355).
att(24,142).
att(78,587).
att(733,479).
att(27,119).
att(77,582).
att(710,366).
att(17,18).
att(27,127).
att(18,14).
att(695,368).
att(700,337).
att(28,113).
att(732,457).
att(19,16).
att(739,462).
att(80,582).
att(693,365).
att(719,333).
att(713,335).
att(86,677).
att(713,337).
att(26,140).
att(737,469).
att(26,148).
att(13,5).
att(74,546).
att(733,468).
att(23,67).
att(72,549).
att(710,342).
att(18,22).
att(28,134).
att(15,4).
att(74,543).
att(17,23).
att(77,528).
att(24,76).
att(74,548).
att(19,23).
att(693,339).
att(25,127).
att(80,532).
att(2,36).
att(649,340).
att(100,511).
att(43,601).
att(4,50).
att(94,515).
att(672,464).
att(40,629).
att(653,366).
att(655,355).
att(47,612).
att(47,592).
att(653,364).
att(682,478).
att(94,518).
att(4,42).
att(49,612).
att(36,604).
att(100,503).
att(659,337).
att(688,470).
att(678,450).
att(40,565).
att(38,560).
att(45,636).
att(5,40).
att(38,566).
att(672,456).
att(47,638).
att(668,436).
att(682,469).
att(40,570).
att(8,38).
att(8,47).
att(4,53).
att(38,634).
att(688,456).
att(36,631).
att(20,55).
att(100,518).
att(105,287).
att(678,445).
att(1,43).
att(49,633).
att(38,586).
att(2,18).
att(40,580).
att(125,284).
att(647,383).
att(659,391).
att(651,366).
att(99,492).
att(1,58).
att(655,392).
att(668,470).
att(678,473).
att(647,349).
att(644,345).
att(119,222).
att(38,526).
att(645,349).
att(659,368).
att(50,566).
att(50,565).
att(47,577).
att(49,590).
att(42,536).
att(130,192).
att(645,358).
att(127,220).
att(36,582).
att(5,57).
att(32,538).
att(36,588).
att(4,24).
att(26,19).
att(649,429).
att(92,584).
att(4,116).
att(653,442).
att(23,27).
att(96,588).
att(647,430).
att(88,540).
att(20,119).
att(28,18).
att(4,105).
att(653,432).
att(659,428).
att(7,123).
att(86,548).
att(657,425).
att(653,427).
att(23,9).
att(653,430).
att(29,10).
att(24,8).
att(99,584).
att(92,588).
att(651,383).
att(649,396).
att(3,70).
att(7,145).
att(92,544).
att(3,77).
att(92,549).
att(657,468).
att(84,505).
att(649,459).
att(7,134).
att(96,546).
att(653,469).
att(86,504).
att(28,5).
att(29,28).
att(96,545).
att(90,509).
att(27,8).
att(647,450).
att(27,7).
att(99,539).
att(25,30).
att(28,1).
att(40,612).
att(86,520).
att(38,607).
att(6,70).
att(92,508).
att(653,459).
att(94,505).
att(4,100).
att(47,662).
att(645,432).
att(49,687).
att(4,84).
att(99,550).
att(6,145).
att(20,90).
att(659,442).
att(90,512).
att(1,70).
att(52,134).
att(50,12).
att(777,410).
att(116,524).
att(55,130).
att(780,430).
att(56,122).
att(119,526).
att(772,404).
att(125,575).
att(36,19).
att(101,558).
att(32,25).
att(786,415).
att(58,127).
att(58,125).
att(52,74).
att(55,134).
att(772,396).
att(40,9).
att(775,380).
att(780,404).
att(59,127).
att(116,542).
att(780,415).
att(783,401).
att(122,548).
att(51,146).
att(60,127).
att(47,29).
att(42,20).
att(789,385).
att(123,549).
att(140,671).
att(762,469).
att(54,76).
att(140,687).
att(113,510).
att(53,67).
att(54,77).
att(134,614).
att(144,661).
att(775,435).
att(775,440).
att(54,65).
att(767,460).
att(127,549).
att(772,440).
att(60,145).
att(134,681).
att(789,435).
att(50,26).
att(101,532).
att(50,30).
att(52,77).
att(53,138).
att(49,7).
att(789,442).
att(60,134).
att(130,547).
att(54,92).
att(764,451).
att(762,460).
att(59,72).
att(148,681).
att(783,431).
att(55,98).
att(116,519).
att(780,445).
att(56,88).
att(60,72).
att(789,430).
att(59,67).
att(60,78).
att(119,514).
att(59,76).
att(119,519).
att(52,92).
att(122,511).
att(767,432).
att(122,514).
att(764,442).
att(125,662).
att(741,391).
att(43,63).
att(756,368).
att(741,377).
att(45,65).
att(127,662).
att(783,471).
att(783,478).
att(780,473).
att(99,5).
att(748,335).
att(47,76).
att(36,76).
att(105,610).
att(43,148).
att(99,3).
att(758,337).
att(764,478).
att(789,462).
att(742,355).
att(742,349).
att(116,638).
att(756,337).
att(113,623).
att(762,475).
att(783,468).
att(105,552).
att(786,467).
att(125,601).
att(786,461).
att(775,459).
att(780,462).
att(780,467).
att(47,98).
att(767,463).
att(742,342).
att(36,92).
att(744,339).
att(750,394).
att(38,59).
att(742,417).
att(43,49).
att(123,640).
att(742,430).
att(45,32).
att(47,45).
att(741,419).
att(545,490).
att(544,486).
att(760,387).
att(36,49).
att(105,564).
att(758,392).
att(130,627).
att(543,487).
att(543,488).
att(542,484).
att(43,54).
att(36,16).
att(542,489).
att(36,14).
att(36,13).
att(741,401).
att(549,484).
att(777,472).
att(116,575).
att(45,58).
att(547,489).
att(47,56).
att(746,385).
att(748,358).
att(127,568).
att(775,471).
att(123,621).
att(105,590).
att(760,355).
att(42,16).
att(760,349).
att(134,503).
att(713,413).
att(53,3).
att(17,127).
att(17,125).
att(11,63).
att(65,690).
att(132,503).
att(700,392).
att(58,25).
att(140,542).
att(146,532).
att(517,490).
att(16,132).
att(142,545).
att(148,538).
att(708,370).
att(693,415).
att(695,415).
att(700,387).
att(18,105).
att(16,150).
att(146,526).
att(148,539).
att(60,23).
att(716,389).
att(19,122).
att(11,90).
att(11,88).
att(703,368).
att(706,349).
att(520,490).
att(515,481).
att(72,662).
att(70,671).
att(150,506).
att(716,380).
att(57,20).
att(12,86).
att(17,144).
att(713,377).
att(15,80).
att(134,516).
att(138,501).
att(63,664).
att(142,502).
att(10,78).
att(142,501).
att(725,470).
att(19,138).
att(59,7).
att(719,358).
att(142,503).
att(60,8).
att(10,74).
att(148,544).
att(132,494).
att(11,42).
att(12,43).
att(716,433).
att(713,436).
att(13,90).
att(138,519).
att(706,430).
att(693,449).
att(17,65).
att(12,36).
att(134,496).
att(18,67).
att(146,502).
att(700,427).
att(140,512).
att(10,86).
att(65,591).
att(63,601).
att(708,408).
att(17,92).
att(145,520).
att(72,638).
att(710,427).
att(140,497).
att(703,403).
att(12,53).
att(77,614).
att(138,491).
att(700,401).
att(78,610).
att(146,512).
att(11,43).
att(13,96).
att(512,488).
att(513,481).
att(695,423).
att(19,84).
att(58,92).
att(134,552).
att(716,463).
att(138,631).
att(130,498).
att(58,86).
att(125,518).
att(58,84).
att(783,333).
att(113,493).
att(706,453).
att(56,40).
att(695,470).
att(127,514).
att(150,614).
att(116,494).
att(56,50).
att(130,516).
att(144,623).
att(54,57).
att(51,12).
att(101,496).
att(145,638).
att(138,558).
att(713,453).
att(710,458).
att(703,445).
att(703,436).
att(150,634).
att(148,629).
att(710,456).
att(710,451).
att(138,640).
att(53,43).
att(12,116).
att(762,406).
att(138,575).
att(708,472).
att(53,13).
att(783,391).
att(510,483).
att(775,355).
att(780,389).
att(146,558).
att(780,394).
att(57,51).
att(150,566).
att(789,364).
att(56,18).
att(142,575).
att(55,10).
att(789,370).
att(101,499).
att(53,58).
att(507,487).
att(764,391).
att(700,472).
att(706,468).
att(57,15).
att(145,584).
att(762,377).
att(786,352).
att(777,340).
att(786,355).
att(708,465).
att(53,25).
att(146,586).
att(140,526).
att(146,582).
att(713,480).
att(775,340).
att(57,11).
att(145,575).
att(12,142).
att(703,468).
att(767,361).
att(789,340).
att(767,349).
att(55,21).
att(142,538).
att(148,590).
att(789,345).
att(708,458).
att(132,539).
att(10,116).
att(60,19).
att(792,341).
att(792,345).
att(67,58).
att(792,333).
att(799,335).
att(74,40).
att(815,455).
att(817,456).
att(813,455).
att(63,16).
att(813,449).
att(80,40).
att(63,59).
att(80,38).
att(76,56).
att(580,481).
att(794,377).
att(86,119).
att(804,370).
att(63,26).
att(70,17).
att(80,16).
att(84,105).
att(826,473).
att(800,392).
att(806,349).
att(78,58).
att(74,18).
att(806,344).
att(817,478).
att(808,341).
att(86,144).
att(811,479).
att(78,14).
att(818,476).
att(74,27).
att(800,361).
att(820,460).
att(90,150).
att(824,465).
att(815,469).
att(830,449).
att(78,16).
att(818,472).
att(138,26).
att(794,417).
att(132,8).
att(794,430).
att(144,4).
att(804,408).
att(74,113).
att(134,4).
att(806,398).
att(799,430).
att(142,26).
att(146,15).
att(798,408).
att(796,412).
att(810,377).
att(67,77).
att(792,415).
att(65,70).
att(794,413).
att(63,65).
att(806,396).
att(146,30).
att(804,385).
att(584,482).
att(810,368).
att(80,123).
att(810,358).
att(78,113).
att(798,391).
att(70,130).
att(132,9).
att(144,3).
att(796,383).
att(144,8).
att(796,380).
att(808,370).
att(799,403).
att(65,92).
att(794,457).
att(806,438).
att(76,74).
att(146,2).
att(78,138).
att(78,148).
att(63,76).
att(808,427).
att(810,419).
att(148,2).
att(792,445).
att(794,440).
att(70,94).
att(806,419).
att(72,86).
att(804,426).
att(65,32).
att(72,96).
att(799,440).
att(798,421).
att(63,98).
att(796,421).
att(799,436).
att(742,458).
att(92,55).
att(756,438).
att(99,47).
att(90,18).
att(84,60).
att(744,436).
att(84,59).
att(90,11).
att(99,42).
att(84,24).
att(92,19).
att(756,429).
att(42,127).
att(94,16).
att(754,428).
att(40,119).
att(750,398).
att(746,428).
att(760,415).
att(42,122).
att(760,408).
att(88,22).
att(42,116).
att(96,19).
att(32,116).
att(90,21).
att(32,113).
att(38,140).
att(84,1).
att(94,28).
att(756,466).
att(45,116).
att(742,471).
att(756,464).
att(99,14).
att(49,116).
att(96,27).
att(746,466).
att(748,453).
att(99,17).
att(818,361).
att(42,140).
att(96,25).
att(754,467).
att(36,116).
att(744,466).
att(100,19).
att(746,467).
att(36,127).
att(742,467).
att(811,339).
att(45,146).
att(113,674).
att(116,662).
att(742,468).
att(47,140).
att(119,671).
att(750,435).
att(742,461).
att(96,1).
att(96,7).
att(748,440).
att(818,337).
att(741,463).
att(750,431).
att(122,681).
att(43,123).
att(86,63).
att(526,481).
att(84,63).
att(70,2).
att(824,392).
att(90,67).
att(90,65).
att(100,125).
att(78,29).
att(90,76).
att(96,134).
att(72,4).
att(76,7).
att(78,22).
att(830,361).
att(84,148).
att(748,474).
att(758,475).
att(811,394).
att(532,481).
att(826,358).
att(813,387).
att(532,483).
att(813,383).
att(750,469).
att(94,67).
att(96,80).
att(756,474).
att(88,99).
att(750,468).
att(77,2).
att(754,477).
att(820,337).
att(817,358).
att(78,4).
att(813,364).
att(100,140).
att(815,361).
att(828,342).
att(94,92).
att(96,94).
att(811,442).
att(824,430).
att(818,432).
att(96,90).
att(813,429).
att(98,86).
att(84,55).
att(92,45).
att(824,408).
att(811,423).
att(94,40).
att(530,485).
att(96,42).
att(98,42).
att(84,50).
att(640,487).
att(113,63).
att(123,146).
att(638,486).
att(116,72).
att(844,480).
att(123,77).
att(116,86).
att(852,476).
att(127,80).
att(105,94).
att(113,49).
att(123,86).
att(130,88).
att(122,49).
att(130,52).
att(101,36).
att(127,49).
att(122,56).
att(612,481).
att(591,483).
att(125,123).
att(105,67).
att(130,125).
att(105,144).
att(808,465).
att(855,344).
att(138,84).
att(810,461).
att(794,472).
att(855,337).
att(806,463).
att(806,469).
att(808,461).
att(140,96).
att(842,352).
att(806,464).
att(852,366).
att(804,462).
att(792,474).
att(849,361).
att(134,60).
att(132,54).
att(146,98).
att(134,56).
att(806,456).
att(852,337).
att(142,36).
att(808,440).
att(810,431).
att(859,383).
att(564,481).
att(140,53).
att(855,394).
att(855,391).
att(148,38).
att(852,398).
att(846,383).
att(810,479).
att(144,60).
att(132,25).
att(144,24).
att(806,476).
att(806,473).
att(852,391).
att(855,355).
att(67,127).
att(144,17).
att(142,15).
att(568,483).
att(566,487).
att(859,339).
att(844,368).
att(148,56).
att(105,27).
att(130,11).
att(844,431).
att(116,18).
att(852,435).
att(848,425).
att(859,412).
att(101,45).
att(105,18).
att(101,50).
att(859,410).
att(846,427).
att(134,132).
att(123,18).
att(105,2).
att(138,105).
att(130,23).
att(122,20).
att(138,116).
att(122,4).
att(123,12).
att(116,27).
att(119,21).
att(101,59).
att(846,404).
att(132,113).
att(554,484).
att(119,23).
att(846,410).
att(130,4).
att(138,132).
att(113,9).
att(138,144).
att(119,8).
att(127,30).
att(125,28).
att(144,146).
att(116,3).
att(125,27).
att(105,9).
att(122,2).
att(846,456).
att(144,134).
att(132,146).
att(134,84).
att(857,432).
att(148,132).
att(850,459).
att(855,432).
att(132,70).
att(671,489).
att(601,486).
att(601,481).
att(620,485).
att(601,483).
att(690,489).
att(690,484).
att(664,490).
att(684,482).
att(661,485).
att(661,483).
att(331,337).
att(333,370).
att(337,349).
att(340,344).
att(340,345).
att(337,361).
att(337,385).
att(340,377).
att(335,377).
att(333,406).
att(345,370).
att(331,406).
att(339,389).
att(341,383).
att(337,417).
att(342,404).
att(331,425).
att(341,398).
att(331,429).
att(333,429).
att(344,391).
att(335,423).
att(335,426).
att(331,431).
att(340,429).
att(331,435).
att(333,451).
att(335,436).
att(345,423).
att(341,430).
att(341,427).
att(342,445).
att(344,430).
att(344,425).
att(344,431).
att(345,436).
att(339,449).
att(331,462).
att(349,344).
att(358,344).
att(365,337).
att(337,470).
att(358,337).
att(352,361).
att(331,479).
att(349,389).
att(365,349).
att(340,478).
att(349,377).
att(340,479).
att(361,365).
att(361,358).
att(368,342).
att(368,352).
att(352,387).
att(341,473).
att(365,366).
att(349,404).
att(366,361).
att(349,398).
att(345,475).
att(370,392).
att(366,383).
att(368,406).
att(352,425).
att(364,401).
att(358,430).
att(349,435).
att(368,429).
att(365,429).
att(358,440).
att(364,431).
att(358,431).
att(370,419).
att(368,438).
att(352,453).
att(380,331).
att(380,333).
att(366,438).
att(370,433).
att(358,461).
att(368,460).
att(355,469).
att(352,466).
att(355,472).
att(387,341).
att(389,339).
att(368,468).
att(368,467).
att(358,471).
att(366,462).
att(368,461).
att(364,466).
att(385,361).
att(385,368).
att(352,478).
att(392,349).
att(387,365).
att(377,392).
att(366,468).
att(368,475).
att(391,365).
att(389,387).
att(370,476).
att(389,398).
att(385,410).
att(391,380).
att(385,421).
att(383,421).
att(391,408).
att(389,430).
att(389,438).
att(383,433).
att(383,435).
att(377,457).
att(392,433).
att(377,456).
att(389,450).
att(387,450).
att(383,451).
att(385,463).
att(392,451).
att(391,449).
att(396,457).
att(389,462).
att(410,333).
att(392,465).
att(392,468).
att(403,352).
att(387,462).
att(377,478).
att(389,477).
att(383,473).
att(413,340).
att(406,368).
att(413,349).
att(392,479).
att(410,365).
att(387,473).
att(413,368).
att(413,380).
att(398,425).
att(404,406).
att(403,430).
att(412,406).
att(413,412).
att(398,456).
att(398,459).
att(413,435).
att(413,440).
att(412,440).
att(404,451).
att(423,341).
att(412,450).
att(408,449).
att(423,335).
att(415,455).
att(404,468).
att(425,339).
att(404,467).
att(401,477).
att(408,468).
att(413,463).
att(427,333).
att(408,466).
att(417,385).
att(429,339).
att(412,467).
att(419,387).
att(426,364).
att(427,364).
att(413,471).
att(427,355).
att(412,477).
att(419,404).
att(415,474).
att(427,391).
att(427,389).
att(427,385).
att(425,406).
att(423,429).
att(425,430).
att(425,427).
att(429,412).
att(419,432).
att(419,438).
att(423,438).
att(428,427).
att(417,451).
att(426,450).
att(430,438).
att(427,435).
att(427,450).
att(429,435).
att(421,470).
att(435,344).
att(427,453).
att(432,342).
att(421,465).
att(428,465).
att(433,364).
att(423,475).
att(423,473).
att(431,365).
att(425,466).
att(426,471).
att(429,465).
att(428,475).
att(427,474).
att(428,480).
att(445,342).
att(427,475).
att(434,380).
att(430,471).
att(436,377).
att(431,423).
att(440,394).
att(435,417).
att(433,417).
att(433,419).
att(438,415).
att(440,413).
att(432,429).
att(436,427).
att(436,425).
att(433,436).
att(440,417).
att(433,457).
att(434,457).
att(431,469).
att(438,453).
att(435,461).
att(453,342).
att(433,466).
att(456,344).
att(438,461).
att(433,474).
att(456,333).
att(442,459).
att(445,449).
att(445,450).
att(453,368).
att(453,370).
att(458,331).
att(434,479).
att(450,387).
att(438,477).
att(459,345).
att(460,337).
att(440,470).
att(440,468).
att(445,461).
att(451,385).
att(442,476).
att(451,377).
att(436,471).
att(450,410).
att(449,410).
att(440,480).
att(453,403).
att(459,394).
att(450,426).
att(460,394).
att(457,413).
att(451,427).
att(449,432).
att(458,419).
att(457,428).
att(458,427).
att(451,431).
att(458,430).
att(453,450).
att(456,440).
att(460,434).
att(449,470).
att(459,433).
att(461,331).
att(463,333).
att(459,434).
att(464,340).
att(462,335).
att(458,463).
att(463,365).
att(455,466).
att(467,333).
att(459,455).
att(451,477).
att(460,465).
att(460,463).
att(464,365).
att(469,337).
att(460,461).
att(451,473).
att(462,370).
att(463,392).
att(463,387).
att(463,377).
att(462,403).
att(466,389).
att(462,398).
att(463,398).
att(466,380).
att(459,479).
att(464,406).
att(469,383).
att(462,408).
att(465,404).
att(466,408).
att(470,396).
att(464,423).
att(462,435).
att(463,445).
att(466,427).
att(466,417).
att(470,415).
att(464,435).
att(465,445).
att(461,458).
att(467,432).
att(462,451).
att(466,434).
att(467,435).
att(462,450).
att(468,436).
att(468,431).
att(468,434).
att(464,450).
att(474,331).
att(467,461).
att(476,339).
att(469,463).
att(462,473).
att(462,480).
att(474,366).
att(466,461).
att(463,474).
att(475,339).
att(476,365).
att(470,469).
att(472,396).
att(480,335).
att(473,364).
att(469,468).
att(470,461).
att(476,358).
att(480,340).
att(466,477).
att(469,477).
att(473,383).
att(474,383).
att(475,387).
att(468,474).
att(480,366).
att(476,383).
att(473,403).
att(480,377).
att(478,383).
att(478,391).
att(478,387).
att(471,419).
att(479,392).
att(480,394).
att(478,415).
att(472,440).
att(472,442).
att(475,417).
att(479,412).
att(480,408).
att(476,423).
att(480,410).
att(473,430).
att(475,429).
att(475,433).
att(477,431).
att(475,458).
att(475,455).
att(471,461).
att(478,453).
att(471,464).
att(475,457).
att(480,442).
att(472,471).
att(476,464).
att(479,451).
att(478,466).
att(475,478).
att(478,473).
att(476,478).
att(480,469).
att(475,471).
att(478,479).
att(478,480).
att(111,421).
att(102,391).
att(103,415).
att(106,396).
att(103,389).
att(103,396).
att(117,450).
att(103,436).
att(114,453).
att(120,434).
att(120,432).
att(106,425).
att(128,445).
att(106,426).
att(110,462).
att(120,478).
att(176,331).
att(181,361).
att(117,475).
att(173,339).
att(171,331).
att(173,333).
att(103,462).
att(103,467).
att(120,467).
att(106,460).
att(177,335).
att(114,462).
att(102,433).
att(128,462).
att(179,413).
att(173,391).
att(171,394).
att(171,396).
att(102,477).
att(189,403).
att(183,385).
att(171,377).
att(175,364).
att(102,474).
att(110,477).
att(173,352).
att(173,364).
att(179,383).
att(171,361).
att(183,370).
att(183,366).
att(106,472).
att(103,475).
att(176,341).
att(128,344).
att(111,333).
att(108,364).
att(108,355).
att(106,344).
att(108,341).
att(111,366).
att(120,339).
att(155,435).
att(152,442).
att(169,451).
att(162,438).
att(167,459).
att(162,445).
att(155,427).
att(152,423).
att(6,482).
att(229,365).
att(224,340).
att(155,466).
att(9,486).
att(223,341).
att(225,361).
att(152,461).
att(237,361).
att(169,479).
att(152,464).
att(162,463).
att(235,365).
att(235,352).
att(233,361).
att(155,449).
att(167,472).
att(227,335).
att(227,337).
att(155,456).
att(156,466).
att(158,465).
att(154,451).
att(229,412).
att(227,401).
att(227,398).
att(239,413).
att(239,403).
att(2,487).
att(231,392).
att(2,481).
att(229,391).
att(225,391).
att(235,403).
att(7,486).
att(239,391).
att(231,361).
att(239,380).
att(152,474).
att(162,479).
att(152,472).
att(239,385).
att(231,358).
att(227,438).
att(235,453).
att(233,460).
att(233,450).
att(227,426).
att(224,415).
att(227,419).
att(223,413).
att(239,428).
att(187,455).
att(173,429).
att(175,423).
att(179,436).
att(177,442).
att(177,438).
att(181,430).
att(181,427).
att(173,410).
att(177,429).
att(189,430).
att(173,398).
att(189,417).
att(181,468).
att(158,341).
att(158,339).
att(187,479).
att(187,477).
att(176,450).
att(187,471).
att(181,465).
att(179,468).
att(156,337).
att(187,465).
att(181,455).
att(173,445).
att(183,434).
att(155,364).
att(160,380).
att(156,391).
att(173,476).
att(152,361).
att(175,472).
att(156,383).
att(162,364).
att(169,383).
att(165,387).
att(181,473).
att(179,479).
att(176,459).
att(165,433).
att(156,430).
att(158,430).
att(154,412).
att(154,406).
att(152,412).
att(167,430).
att(167,417).
att(152,380).
att(13,484).
att(273,370).
att(13,483).
att(270,366).
att(19,482).
att(19,485).
att(270,370).
att(265,389).
att(289,370).
att(273,345).
att(276,339).
att(280,352).
att(196,457).
att(213,472).
att(289,345).
att(209,455).
att(216,470).
att(289,331).
att(209,459).
att(263,431).
att(289,412).
att(289,413).
att(286,410).
att(283,415).
att(276,389).
att(16,487).
att(16,485).
att(280,415).
att(14,486).
att(278,349).
att(14,490).
att(278,358).
att(283,459).
att(241,335).
att(278,428).
att(289,442).
att(265,451).
att(276,425).
att(278,419).
att(280,438).
att(289,427).
att(280,433).
att(278,404).
att(278,406).
att(249,341).
att(254,370).
att(283,479).
att(256,370).
att(273,464).
att(249,335).
att(286,472).
att(249,331).
att(260,335).
att(247,331).
att(260,341).
att(286,470).
att(256,335).
att(263,473).
att(244,345).
att(254,341).
att(276,450).
att(265,469).
att(270,460).
att(244,335).
att(278,436).
att(242,337).
att(263,470).
att(231,463).
att(231,461).
att(235,479).
att(200,339).
att(235,474).
att(213,349).
att(219,342).
att(224,450).
att(225,469).
att(216,335).
att(239,470).
att(224,433).
att(193,333).
att(223,435).
att(22,481).
att(213,410).
att(27,487).
att(196,349).
att(231,474).
att(229,477).
att(213,383).
att(25,488).
att(227,480).
att(227,475).
att(227,472).
att(227,476).
att(200,352).
att(219,366).
att(231,470).
att(216,358).
att(239,476).
att(219,361).
att(225,473).
att(209,339).
att(196,410).
att(196,401).
att(213,423).
att(216,412).
att(22,490).
att(283,335).
att(216,463).
att(283,331).
att(283,333).
att(209,442).
att(196,434).
att(263,339).
att(193,465).
att(196,432).
att(219,458).
att(206,436).
att(213,459).
att(206,434).
att(209,431).
att(206,433).
att(209,427).
att(312,432).
att(324,425).
att(324,426).
att(326,426).
att(312,431).
att(320,408).
att(314,423).
att(330,410).
att(326,415).
att(320,385).
att(40,488).
att(314,401).
att(320,445).
att(326,451).
att(318,442).
att(316,459).
att(314,456).
att(320,428).
att(328,428).
att(293,377).
att(99,486).
att(328,472).
att(297,352).
att(324,478).
att(320,461).
att(308,339).
att(330,467).
att(308,341).
att(297,341).
att(326,469).
att(328,461).
att(311,480).
att(295,345).
att(297,333).
att(324,467).
att(330,456).
att(293,342).
att(330,460).
att(306,410).
att(304,408).
att(90,485).
att(291,419).
att(304,406).
att(306,406).
att(304,415).
att(306,403).
att(297,410).
att(310,380).
att(308,394).
att(308,396).
att(86,482).
att(293,410).
att(300,368).
att(298,413).
att(306,385).
att(300,370).
att(310,361).
att(308,368).
att(241,426).
att(251,385).
att(249,396).
att(241,427).
att(247,394).
att(254,408).
att(249,377).
att(249,389).
att(260,391).
att(247,387).
att(244,408).
att(249,370).
att(242,398).
att(251,364).
att(258,380).
att(247,365).
att(254,396).
att(249,361).
att(60,486).
att(59,484).
att(289,475).
att(244,380).
att(247,430).
att(256,438).
att(247,423).
att(244,440).
att(260,425).
att(258,419).
att(241,445).
att(244,417).
att(241,479).
att(312,352).
att(249,456).
att(244,468).
att(254,465).
att(260,451).
att(312,341).
att(260,453).
att(311,341).
att(241,461).
att(244,457).
att(36,486).
att(251,471).
att(251,472).
att(47,488).
att(251,475).
att(320,365).
att(251,474).
att(330,368).
att(330,358).
att(318,352).
att(47,485).
att(45,484).
att(247,472).
att(314,389).
att(326,358).
att(258,474).
att(258,477).
att(50,483).
att(320,335).
att(330,335).
att(324,349).
att(318,333).
att(314,349).
att(376,449).
att(376,450).
att(354,468).
att(354,462).
att(354,463).
att(357,455).
att(357,451).
att(367,461).
att(379,438).
att(354,453).
att(363,436).
att(363,438).
att(150,486).
att(374,480).
att(374,473).
att(146,486).
att(145,490).
att(374,468).
att(357,473).
att(376,464).
att(369,475).
att(382,453).
att(132,483).
att(140,487).
att(138,489).
att(295,451).
att(308,430).
att(306,419).
att(291,438).
att(298,433).
att(298,431).
att(308,464).
att(308,465).
att(376,337).
att(295,475).
att(306,463).
att(306,467).
att(306,464).
att(374,340).
att(367,364).
att(300,456).
att(367,361).
att(304,467).
att(360,331).
att(367,349).
att(295,470).
att(354,345).
att(369,335).
att(354,331).
att(298,467).
att(310,445).
att(357,403).
att(376,383).
att(354,398).
att(367,410).
att(369,404).
att(382,361).
att(357,385).
att(376,365).
att(70,485).
att(78,485).
att(376,355).
att(374,365).
att(363,352).
att(382,335).
att(77,487).
att(304,476).
att(379,335).
att(367,383).
att(297,475).
att(376,430).
att(354,435).
att(374,428).
att(374,425).
att(374,423).
att(363,423).
att(367,429).
att(67,487).
att(363,408).
att(360,410).
att(105,484).
att(116,488).
att(101,490).
att(702,759).
att(698,774).
att(702,757).
att(709,827).
att(705,757).
att(718,825).
att(718,814).
att(709,795).
att(709,797).
att(709,752).
att(699,770).
att(705,785).
att(697,766).
att(707,776).
att(707,778).
att(699,697).
att(705,702).
att(712,770).
att(709,770).
att(699,782).
att(718,774).
att(718,788).
att(709,707).
att(715,698).
att(718,697).
att(745,778).
att(755,776).
att(749,697).
att(788,862).
att(766,887).
att(770,877).
att(743,745).
att(757,788).
att(759,778).
att(774,867).
att(745,753).
att(782,873).
att(785,878).
att(766,863).
att(757,699).
att(788,877).
att(774,871).
att(770,839).
att(771,835).
att(770,847).
att(745,712).
att(745,709).
att(766,878).
att(779,853).
att(782,841).
att(785,843).
att(766,835).
att(766,837).
att(751,801).
att(749,829).
att(751,812).
att(749,816).
att(753,807).
att(747,819).
att(752,812).
att(743,851).
att(755,807).
att(759,805).
att(776,888).
att(759,827).
att(745,801).
att(776,867).
att(755,743).
att(776,866).
att(757,753).
att(745,814).
att(771,888).
att(745,822).
att(774,885).
att(698,858).
att(718,876).
att(698,832).
att(766,771).
att(698,809).
att(715,832).
att(698,829).
att(707,802).
att(709,801).
att(698,759).
att(709,809).
att(698,757).
att(705,823).
att(707,816).
att(699,807).
att(779,803).
att(770,816).
att(778,819).
att(778,827).
att(785,807).
att(766,847).
att(705,884).
att(778,749).
att(788,825).
att(697,881).
att(697,887).
att(778,757).
att(788,814).
att(707,884).
att(774,766).
att(702,863).
att(707,862).
att(785,755).
att(774,778).
att(782,757).
att(778,782).
att(699,889).
att(785,759).
att(770,785).
att(778,770).
att(712,864).
att(779,776).
att(702,879).
att(698,839).
att(715,864).
att(782,771).
att(778,702).
att(707,880).
att(778,715).
att(785,788).
att(699,863).
att(770,709).
att(791,809).
att(821,890).
att(709,282).
att(715,268).
att(795,802).
att(715,275).
att(802,782).
att(802,766).
att(825,888).
att(801,771).
att(795,812).
att(712,202).
att(805,749).
att(807,745).
att(795,827).
att(807,751).
att(829,884).
att(795,829).
att(809,753).
att(793,821).
att(821,887).
att(819,883).
att(822,877).
att(807,779).
att(793,757).
att(791,751).
att(793,753).
att(822,873).
att(809,779).
att(809,778).
att(825,875).
att(793,771).
att(807,712).
att(793,785).
att(791,776).
att(793,766).
att(805,718).
att(791,771).
att(807,699).
att(797,774).
att(823,867).
att(823,868).
att(809,718).
att(802,838).
att(705,301).
att(856,697).
att(856,705).
att(705,296).
att(707,301).
att(697,296).
att(809,880).
att(797,867).
att(809,877).
att(809,871).
att(858,718).
att(851,757).
att(854,766).
att(801,878).
att(699,375).
att(709,334).
att(803,862).
att(699,356).
att(709,302).
att(715,307).
att(715,309).
att(843,705).
att(801,837).
att(709,321).
att(712,323).
att(793,831).
att(805,854).
att(805,851).
att(791,834).
att(793,839).
att(797,836).
att(809,845).
att(707,252).
att(802,819).
att(698,215).
att(793,853).
att(793,858).
att(702,272).
att(802,821).
att(707,269).
att(699,253).
att(718,246).
att(823,749).
att(823,759).
att(822,782).
att(827,747).
att(827,749).
att(816,829).
att(755,861).
att(757,864).
att(747,868).
att(747,865).
att(759,864).
att(814,753).
att(747,862).
att(755,872).
att(755,873).
att(753,880).
att(759,875).
att(743,862).
att(757,879).
att(829,712).
att(759,871).
att(829,698).
att(745,870).
att(816,782).
att(747,874).
att(814,776).
att(747,872).
att(749,856).
att(751,851).
att(743,872).
att(752,851).
att(757,834).
att(751,845).
att(745,875).
att(759,836).
att(747,839).
att(791,712).
att(814,878).
att(816,875).
att(795,712).
att(816,876).
att(797,709).
att(819,832).
att(822,807).
att(816,833).
att(814,840).
att(829,860).
att(814,856).
att(819,809).
att(821,743).
att(812,805).
att(814,797).
att(822,752).
att(829,821).
att(776,447).
att(831,837).
att(527,361).
att(753,323).
att(778,448).
att(751,259).
att(832,839).
att(776,452).
att(832,834).
att(840,858).
att(876,712).
att(875,718).
att(525,349).
att(770,444).
att(840,851).
att(523,365).
att(743,296).
att(770,446).
att(747,325).
att(876,718).
att(533,370).
att(755,243).
att(782,452).
att(785,446).
att(774,402).
att(527,341).
att(779,454).
att(831,843).
att(832,860).
att(525,335).
att(533,349).
att(751,272).
att(525,337).
att(839,797).
att(527,331).
att(755,246).
att(776,400).
att(832,854).
att(833,854).
att(839,801).
att(743,325).
att(836,839).
att(836,833).
att(778,407).
att(755,272).
att(533,417).
att(527,401).
att(753,268).
att(788,400).
att(523,404).
att(833,803).
att(523,415).
att(774,393).
att(745,246).
att(521,387).
att(527,392).
att(753,208).
att(533,412).
att(854,890).
att(525,392).
att(833,812).
att(525,396).
att(832,814).
att(839,752).
att(837,812).
att(770,350).
att(766,402).
att(840,759).
att(743,277).
att(755,411).
att(879,745).
att(839,886).
att(755,409).
att(839,890).
att(875,797).
att(823,198).
att(872,812).
att(522,430).
att(533,453).
att(752,348).
att(759,407).
att(533,449).
att(875,801).
att(878,812).
att(745,390).
att(832,886).
att(749,373).
att(840,867).
att(752,375).
att(872,752).
att(743,420).
att(876,812).
att(749,343).
att(749,332).
att(576,339).
att(755,362).
att(878,705).
att(871,788).
att(831,870).
att(529,470).
att(753,381).
att(753,373).
att(878,709).
att(743,334).
att(757,375).
att(840,876).
att(839,871).
att(581,361).
att(749,302).
att(579,349).
att(745,334).
att(745,336).
att(876,743).
att(840,878).
att(752,305).
att(840,872).
att(872,778).
att(533,473).
att(880,715).
att(876,749).
att(535,468).
att(581,345).
att(529,460).
att(583,339).
att(837,840).
att(838,835).
att(527,451).
att(757,294).
att(839,831).
att(871,699).
att(755,307).
att(759,305).
att(834,872).
att(836,867).
att(743,378).
att(522,432).
att(757,301).
att(522,442).
att(833,873).
att(834,879).
att(836,868).
att(876,788).
att(712,443).
att(771,275).
att(853,822).
att(779,259).
att(718,444).
att(776,288).
att(843,845).
att(718,439).
att(718,448).
att(698,399).
att(770,277).
att(699,454).
att(766,325).
att(847,858).
att(841,807).
att(774,199).
att(843,791).
att(702,420).
att(698,350).
att(712,395).
att(853,749).
att(715,400).
att(845,801).
att(697,407).
att(718,399).
att(766,248).
att(699,399).
att(771,279).
att(851,854).
att(778,198).
att(805,884).
att(856,745).
att(851,822).
att(853,774).
att(715,418).
att(843,827).
att(712,422).
att(847,814).
att(860,757).
att(801,886).
att(845,829).
att(697,346).
att(805,862).
att(854,771).
att(707,359).
att(807,864).
att(705,373).
att(795,886).
att(854,770).
att(718,350).
att(803,889).
att(845,759).
att(803,883).
att(702,332).
att(698,356).
att(699,332).
att(699,334).
att(838,766).
att(841,883).
att(839,779).
att(785,332).
att(776,375).
att(840,782).
att(778,373).
att(837,743).
att(770,372).
att(771,348).
att(854,888).
att(853,862).
att(838,709).
att(841,864).
att(843,865).
att(854,878).
att(771,301).
att(856,876).
att(832,788).
att(858,874).
att(776,303).
att(838,699).
att(831,774).
att(788,373).
att(832,770).
att(858,880).
att(853,878).
att(770,301).
att(770,303).
att(854,866).
att(774,327).
att(836,705).
att(845,872).
att(856,840).
att(774,319).
att(785,299).
att(851,870).
att(847,874).
att(841,839).
att(843,836).
att(854,853).
att(779,323).
att(776,259).
att(858,847).
att(858,841).
att(782,317).
att(785,321).
att(847,835).
att(860,845).
att(776,250).
att(853,860).
att(698,439).
att(770,248).
att(835,707).
att(698,448).
att(697,454).
att(793,343).
att(793,332).
att(865,881).
att(870,875).
att(890,709).
att(556,401).
att(699,647).
att(867,885).
att(807,362).
att(555,404).
att(882,766).
att(555,406).
att(866,886).
att(551,408).
att(797,334).
att(809,375).
att(551,404).
att(553,406).
att(809,359).
att(551,412).
att(888,755).
att(791,416).
att(556,392).
att(861,889).
att(556,394).
att(555,391).
att(698,602).
att(699,665).
att(861,878).
att(699,675).
att(801,321).
att(889,785).
att(803,303).
att(881,698).
att(881,705).
att(705,682).
att(698,597).
att(702,675).
att(715,643).
att(867,869).
att(868,866).
att(809,303).
att(882,707).
att(882,697).
att(883,712).
att(882,705).
att(697,675).
att(718,644).
att(718,643).
att(803,356).
att(868,869).
att(869,872).
att(697,682).
att(699,595).
att(803,329).
att(561,460).
att(712,665).
att(886,709).
att(567,461).
att(805,317).
att(791,299).
att(793,292).
att(865,879).
att(797,309).
att(718,665).
att(801,325).
att(718,672).
att(561,438).
att(861,854).
att(821,390).
att(822,393).
att(868,860).
att(563,431).
att(567,456).
att(555,419).
att(793,317).
att(802,277).
att(862,847).
att(555,426).
att(827,448).
att(829,454).
att(569,445).
att(807,257).
att(715,618).
att(563,428).
att(803,313).
att(797,317).
att(797,327).
att(821,444).
att(797,315).
att(551,419).
att(628,370).
att(854,250).
att(881,854).
att(885,836).
att(881,841).
att(635,391).
att(802,388).
att(707,742).
att(858,253).
att(807,454).
att(553,470).
att(883,851).
att(779,597).
att(807,447).
att(561,474).
att(858,250).
att(622,333).
att(887,834).
att(809,441).
att(626,352).
att(563,470).
att(847,321).
att(884,860).
att(853,255).
att(801,441).
att(860,248).
att(884,856).
att(563,461).
att(630,333).
att(851,245).
att(637,352).
att(556,458).
att(854,279).
att(847,267).
att(886,847).
att(883,793).
att(555,457).
att(567,471).
att(628,340).
att(885,858).
att(561,465).
att(882,803).
att(841,246).
att(551,460).
att(639,339).
att(707,777).
att(801,397).
att(809,390).
att(551,449).
att(801,402).
att(709,813).
att(557,463).
att(718,760).
att(888,851).
att(697,783).
att(854,205).
att(791,400).
att(805,416).
att(803,420).
att(854,212).
att(624,387).
att(626,412).
att(715,767).
att(843,285).
att(705,710).
att(805,424).
att(882,812).
att(807,416).
att(856,215).
att(884,812).
att(809,422).
att(887,797).
att(883,825).
att(858,215).
att(715,789).
att(698,695).
att(884,821).
att(851,253).
att(699,764).
att(699,767).
att(632,387).
att(845,277).
att(628,394).
att(630,385).
att(802,362).
att(698,645).
att(630,387).
att(637,401).
att(851,218).
att(884,778).
att(698,657).
att(709,713).
att(888,747).
att(628,377).
att(886,814).
att(625,355).
att(628,387).
att(555,477).
att(885,823).
att(809,348).
att(622,355).
att(718,710).
att(843,198).
att(845,218).
att(705,725).
att(809,336).
att(807,350).
att(802,343).
att(632,352).
att(699,695).
att(697,733).
att(801,334).
att(825,296).
att(861,715).
att(576,392).
att(861,718).
att(819,321).
att(819,322).
att(823,309).
att(823,305).
att(862,712).
att(827,296).
att(880,834).
att(581,408).
att(571,366).
att(874,875).
att(572,396).
att(579,404).
att(877,870).
att(864,712).
att(871,840).
att(576,361).
att(823,325).
att(579,394).
att(812,305).
att(822,257).
att(880,845).
att(812,307).
att(873,836).
att(576,352).
att(576,355).
att(752,447).
att(879,856).
att(880,851).
att(579,377).
att(522,467).
att(874,836).
att(866,699).
att(571,344).
att(814,294).
att(522,468).
att(868,715).
att(521,465).
att(871,860).
att(821,285).
att(749,386).
att(872,860).
att(757,454).
att(759,444).
att(576,421).
att(874,845).
att(589,445).
att(814,329).
att(814,323).
att(752,390).
att(812,321).
att(816,321).
att(585,426).
att(589,442).
att(589,434).
att(751,405).
att(755,390).
att(751,414).
att(879,812).
att(755,397).
att(819,205).
att(583,430).
att(819,208).
att(819,202).
att(827,279).
att(873,791).
att(875,847).
att(825,267).
att(752,405).
att(872,797).
att(583,419).
att(880,812).
att(745,448).
att(873,805).
att(880,829).
att(816,259).
att(878,793).
att(874,807).
att(825,390).
att(869,822).
att(812,437).
att(583,466).
att(561,339).
att(797,268).
att(869,827).
att(571,450).
att(557,341).
att(866,847).
att(865,858).
att(791,246).
att(559,331).
att(791,248).
att(803,268).
att(861,802).
att(863,802).
att(816,446).
att(866,856).
att(863,797).
att(866,858).
att(589,467).
att(801,285).
att(819,402).
att(869,795).
att(868,858).
att(797,259).
att(864,809).
att(797,243).
att(823,446).
att(825,411).
att(861,814).
att(823,424).
att(821,336).
att(805,205).
att(827,411).
att(583,449).
att(819,414).
att(867,803).
att(795,272).
att(816,388).
att(866,802).
att(571,430).
att(797,272).
att(823,388).
att(864,822).
att(869,816).
att(795,268).
att(864,816).
att(864,823).
att(872,881).
att(561,380).
att(865,812).
att(869,774).
att(872,887).
att(879,863).
att(567,404).
att(865,822).
att(862,757).
att(873,888).
att(873,885).
att(578,472).
att(827,346).
att(863,753).
att(814,409).
att(793,205).
att(563,361).
att(823,409).
att(556,335).
att(572,477).
att(574,472).
att(585,471).
att(821,299).
att(825,373).
att(556,337).
att(567,377).
att(578,466).
att(576,464).
att(870,697).
att(557,365).
att(576,469).
att(583,474).
att(551,335).
att(814,346).
att(574,469).
att(876,881).
att(574,467).
att(557,355).
att(871,887).
att(816,351).
att(571,460).
att(589,479).
att(572,464).
att(680,345).
att(875,243).
att(663,344).
att(879,218).
att(755,772).
att(680,339).
att(743,748).
att(752,703).
att(880,195).
att(743,760).
att(833,400).
att(835,439).
att(600,457).
att(603,450).
att(619,456).
att(836,439).
att(832,416).
att(755,693).
att(832,414).
att(877,195).
att(753,716).
att(606,432).
att(613,458).
att(751,733).
att(832,411).
att(755,713).
att(836,393).
att(619,445).
att(743,780).
att(833,418).
att(833,409).
att(874,205).
att(759,706).
att(837,416).
att(876,272).
att(743,777).
att(752,725).
att(832,332).
att(747,651).
att(683,396).
att(837,373).
att(753,735).
att(673,349).
att(666,344).
att(757,723).
att(832,334).
att(838,375).
att(838,378).
att(743,700).
att(752,647).
att(600,478).
att(663,385).
att(833,350).
att(663,377).
att(679,341).
att(663,391).
att(686,358).
att(745,695).
att(753,645).
att(616,480).
att(751,669).
att(778,796).
att(663,366).
att(683,355).
att(613,477).
att(782,857).
att(834,359).
att(596,450).
att(757,649).
att(600,465).
att(771,849).
att(689,344).
att(751,675).
att(788,852).
att(619,467).
att(594,450).
att(686,340).
att(747,655).
att(834,375).
att(879,296).
att(871,381).
att(879,303).
att(676,401).
att(755,846).
att(679,403).
att(749,804).
att(686,423).
att(825,651).
att(670,412).
att(751,810).
att(825,649).
att(670,401).
att(814,726).
att(876,347).
att(759,846).
att(814,735).
att(822,678).
att(819,659).
att(829,643).
att(663,417).
att(676,380).
att(751,828).
att(875,359).
att(757,792).
att(825,669).
att(663,410).
att(689,396).
att(670,387).
att(880,317).
att(812,643).
att(875,375).
att(880,327).
att(757,810).
att(819,685).
att(747,810).
att(829,668).
att(753,842).
att(829,678).
att(663,398).
att(876,378).
att(745,855).
att(755,817).
att(676,438).
att(676,434).
att(837,452).
att(878,255).
att(680,460).
att(880,255).
att(872,327).
att(663,457).
att(680,450).
att(666,425).
att(752,760).
att(759,817).
att(827,605).
att(876,294).
att(759,824).
att(825,598).
att(743,806).
att(827,602).
att(819,615).
att(686,445).
att(747,830).
att(753,798).
att(749,789).
att(749,780).
att(686,435).
att(683,431).
att(751,786).
att(751,789).
att(755,758).
att(834,439).
att(752,777).
att(745,811).
att(880,277).
att(834,446).
att(875,325).
att(752,780).
att(834,444).
att(874,248).
att(878,243).
att(747,754).
att(816,618).
att(874,259).
att(663,431).
att(745,824).
att(782,710).
att(625,428).
att(881,883).
att(785,710).
att(785,693).
att(624,425).
att(635,455).
att(624,429).
att(883,889).
att(835,282).
att(847,409).
att(845,411).
att(890,883).
att(779,762).
att(770,737).
att(639,436).
att(778,725).
att(835,288).
att(860,346).
att(890,886).
att(705,844).
att(625,410).
att(771,644).
att(885,888).
att(841,332).
att(707,844).
att(882,864).
att(635,434).
att(707,850).
att(705,846).
att(788,735).
att(639,429).
att(628,419).
att(698,848).
att(766,703).
att(639,417).
att(771,733).
att(770,657).
att(847,338).
att(630,469).
att(774,669).
att(771,665).
att(774,682).
att(881,878).
att(616,355).
att(851,381).
att(881,871).
att(785,655).
att(776,688).
att(843,356).
att(624,453).
att(847,356).
att(619,339).
att(622,458).
att(699,849).
att(858,301).
att(619,341).
att(776,678).
att(845,362).
att(858,309).
att(637,470).
att(860,302).
att(788,659).
att(630,457).
att(856,323).
att(635,468).
att(637,463).
att(882,835).
att(853,250).
att(698,756).
att(766,665).
att(782,675).
att(779,668).
att(782,688).
att(884,833).
att(888,876).
att(626,460).
att(883,838).
att(858,329).
att(622,431).
att(698,818).
att(770,615).
att(851,356).
att(847,307).
att(632,445).
att(860,329).
att(697,826).
att(831,294).
att(837,329).
att(831,292).
att(596,358).
att(785,806).
att(611,404).
att(596,352).
att(785,798).
att(838,321).
att(776,826).
att(831,299).
att(625,478).
att(753,667).
att(755,667).
att(785,810).
att(771,810).
att(616,387).
att(632,480).
att(594,349).
att(609,358).
att(603,370).
att(831,313).
att(616,380).
att(594,344).
att(776,756).
att(625,467).
att(743,672).
att(757,608).
att(757,602).
att(757,615).
att(778,746).
att(832,321).
att(779,796).
att(771,824).
att(770,750).
att(626,474).
att(836,294).
att(757,598).
att(613,445).
att(616,432).
att(776,762).
att(841,452).
att(836,245).
att(774,780).
att(841,443).
att(616,434).
att(600,429).
att(845,447).
att(603,417).
att(832,257).
att(845,446).
att(603,425).
att(770,767).
att(833,248).
att(743,615).
att(778,786).
att(832,248).
att(839,288).
att(619,423).
att(743,597).
att(788,748).
att(840,269).
att(613,430).
att(831,288).
att(606,401).
att(831,279).
att(611,427).
att(776,703).
att(845,395).
att(856,420).
att(603,404).
att(778,719).
att(833,288).
att(600,410).
att(776,706).
att(840,205).
att(721,401).
att(793,792).
att(721,403).
att(847,597).
att(698,235).
att(889,296).
att(699,203).
att(890,255).
att(793,810).
att(712,289).
att(890,245).
att(883,317).
att(797,796).
att(887,294).
att(740,358).
att(809,824).
att(715,270).
att(646,479).
att(699,286).
att(699,289).
att(731,345).
att(884,321).
att(721,396).
att(801,826).
att(722,391).
att(797,808).
att(884,327).
att(888,294).
att(656,479).
att(698,160).
att(658,479).
att(698,165).
att(802,762).
att(702,224).
att(805,750).
att(793,828).
att(705,235).
att(890,267).
att(795,820).
att(654,471).
att(722,366).
att(843,593).
att(791,799).
att(802,741).
att(660,465).
att(699,210).
att(697,227).
att(699,213).
att(718,203).
att(660,468).
att(797,824).
att(738,417).
att(721,434).
att(802,700).
att(866,444).
att(731,401).
att(802,695).
att(869,422).
att(890,218).
att(889,243).
att(736,429).
att(882,288).
att(867,446).
att(886,253).
att(702,154).
att(885,246).
att(793,746).
att(881,275).
att(791,748).
att(809,783).
att(697,156).
att(809,775).
att(698,120).
att(865,384).
att(801,732).
att(869,348).
att(862,424).
att(866,390).
att(795,762).
att(867,393).
att(863,414).
att(793,786).
att(698,110).
att(793,767).
att(698,106).
att(709,152).
att(802,728).
att(698,108).
att(865,400).
att(809,713).
att(740,391).
att(715,162).
att(807,708).
att(727,387).
att(734,403).
att(807,703).
att(707,176).
att(731,366).
att(887,272).
att(715,155).
att(797,780).
att(771,175).
att(774,177).
att(889,402).
att(738,456).
att(782,162).
att(734,458).
att(886,388).
att(882,411).
att(843,780).
att(774,179).
att(724,458).
att(707,300).
att(776,176).
att(727,442).
att(887,386).
att(771,169).
att(699,376).
att(722,460).
att(766,233).
att(712,297).
att(738,432).
att(882,332).
att(841,693).
att(702,324).
att(847,732).
att(788,102).
att(705,320).
att(715,293).
att(734,445).
att(724,438).
att(734,433).
att(845,695).
att(699,310).
att(738,428).
att(709,369).
att(841,737).
att(841,739).
att(885,338).
att(851,725).
att(714,370).
att(847,644).
att(889,348).
att(704,344).
att(766,103).
att(691,380).
att(705,249).
att(707,242).
att(883,356).
att(856,645).
att(854,643).
att(707,249).
att(801,850).
att(845,737).
att(724,477).
att(734,477).
att(720,345).
att(858,659).
att(853,657).
att(698,254).
att(717,340).
att(697,258).
att(697,254).
att(717,341).
att(847,733).
att(714,335).
att(805,804).
att(885,356).
att(714,345).
att(791,846).
att(847,667).
att(802,813).
att(803,804).
att(721,472).
att(795,842).
att(882,309).
att(886,362).
att(841,643).
att(705,289).
att(729,460).
att(722,468).
att(724,461).
att(694,340).
att(884,296).
att(884,303).
att(822,762).
att(879,399).
att(868,248).
att(869,285).
att(823,754).
att(869,279).
att(791,598).
att(825,750).
att(880,388).
att(812,828).
att(827,742).
att(648,337).
att(676,463).
att(880,397).
att(863,246).
att(642,352).
att(829,758).
att(660,335).
att(670,465).
att(866,317).
att(873,454).
att(862,250).
att(666,449).
att(878,441).
att(797,605).
att(864,250).
att(878,443).
att(670,462).
att(823,818).
att(867,319).
att(795,605).
att(658,342).
att(795,608).
att(656,340).
att(864,198).
att(865,246).
att(880,414).
att(865,255).
att(814,748).
att(866,252).
att(867,253).
att(642,331).
att(814,758).
att(874,395).
att(679,438).
att(868,253).
att(874,400).
att(663,462).
att(879,347).
att(823,703).
att(641,419).
att(865,272).
att(656,406).
att(880,332).
att(829,716).
att(827,703).
att(863,212).
att(822,730).
att(865,268).
att(816,775).
att(666,474).
att(864,205).
att(877,388).
att(816,780).
att(656,389).
att(679,478).
att(821,644).
att(673,472).
att(876,420).
att(646,361).
att(752,859).
att(827,728).
att(880,372).
att(670,479).
att(812,706).
att(641,380).
att(829,728).
att(821,857).
att(801,645).
att(699,114).
att(866,409).
att(802,651).
att(702,103).
att(866,405).
att(807,725).
att(715,173).
att(646,417).
att(707,128).
att(642,434).
att(807,732).
att(793,708).
att(867,416).
att(888,212).
att(869,332).
att(652,401).
att(697,114).
att(642,435).
att(660,425).
att(825,848).
att(822,794).
att(825,846).
att(791,723).
att(803,653).
att(861,356).
att(805,651).
att(805,643).
att(793,735).
att(802,668).
att(827,848).
att(866,336).
att(866,332).
att(709,103).
att(642,428).
att(809,653).
att(829,844).
att(646,410).
att(827,859).
att(829,852).
att(652,389).
att(801,657).
att(652,377).
att(641,429).
att(641,472).
att(650,458).
att(791,659).
att(803,669).
att(738,331).
att(652,451).
att(812,846).
att(867,373).
att(816,842).
att(863,303).
att(648,449).
att(807,672).
att(641,468).
att(660,451).
att(823,852).
att(823,849).
att(650,436).
att(656,460).
att(868,322).
att(650,442).
att(652,431).
att(654,460).
att(656,449).
att(862,317).
att(814,799).
att(870,248).
att(862,327).
att(827,813).
att(870,246).
att(656,451).
att(803,595).
att(827,818).
att(861,319).
att(863,323).
att(863,325).
att(866,299).
att(863,313).
att(642,459).
att(814,798).
att(652,421).
att(658,442).
att(864,317).
att(641,460).
att(642,449).
att(755,324).
att(838,855).
att(763,435).
att(763,432).
att(816,102).
att(878,647).
att(838,842).
att(816,120).
att(816,103).
att(761,435).
att(880,655).
att(755,320).
att(757,314).
att(761,436).
att(769,433).
att(875,703).
att(773,408).
att(840,846).
att(759,311).
att(773,406).
att(753,297).
att(874,730).
att(787,408).
att(829,103).
att(873,730).
att(877,644).
att(781,406).
att(755,247).
att(757,251).
att(765,415).
att(839,810).
att(879,668).
att(747,260).
att(745,330).
att(747,256).
att(816,111).
att(768,398).
att(745,324).
att(787,449).
att(749,216).
att(837,830).
att(751,216).
att(755,289).
att(878,593).
att(879,615).
att(743,249).
att(833,810).
att(769,470).
att(833,796).
att(836,848).
att(769,463).
att(875,644).
att(838,742).
att(831,826).
att(831,815).
att(837,758).
att(765,449).
att(787,434).
att(781,440).
att(871,595).
att(761,460).
att(763,449).
att(755,213).
att(761,457).
att(831,820).
att(835,806).
att(773,425).
att(781,433).
att(752,231).
att(875,668).
att(871,828).
att(878,760).
att(784,474).
att(879,750).
att(773,467).
att(773,468).
att(787,470).
att(874,820).
att(878,813).
att(768,478).
att(773,463).
att(876,808).
att(822,158).
att(825,223).
att(825,229).
att(773,455).
att(866,608).
att(876,824).
att(769,475).
att(827,229).
att(769,473).
att(773,453).
att(865,597).
att(875,828).
att(874,750).
att(874,748).
att(814,196).
att(816,213).
att(874,756).
att(773,450).
att(755,369).
att(752,295).
att(825,152).
att(880,695).
att(876,742).
att(816,229).
att(814,224).
att(876,750).
att(755,295).
att(874,732).
att(751,326).
att(879,726).
att(812,154).
att(814,169).
att(825,173).
att(747,297).
att(745,374).
att(790,477).
att(874,710).
att(836,644).
att(782,254).
att(836,647).
att(701,396).
att(860,799).
att(711,406).
att(776,289).
att(714,406).
att(776,280).
att(743,111).
att(743,114).
att(833,647).
att(839,669).
att(696,413).
att(717,391).
att(694,406).
att(835,730).
att(717,396).
att(704,370).
att(782,280).
att(841,810).
att(691,412).
att(704,364).
att(776,216).
att(838,602).
att(837,597).
att(856,828).
att(788,283).
att(727,478).
att(860,824).
att(779,242).
att(854,798).
att(840,608).
att(779,241).
att(851,855).
att(771,263).
att(717,370).
att(740,479).
att(841,828).
att(843,818).
att(882,437).
att(717,431).
att(771,223).
att(779,216).
att(854,758).
att(692,457).
att(779,213).
att(853,775).
att(691,456).
att(782,196).
att(858,756).
att(843,826).
att(785,193).
att(882,439).
att(785,200).
att(776,229).
att(858,758).
att(853,746).
att(835,685).
att(884,443).
att(890,444).
att(766,280).
att(714,427).
att(779,231).
att(691,445).
att(854,780).
att(705,376).
att(782,225).
att(856,783).
att(788,235).
att(845,758).
att(785,231).
att(707,376).
att(696,429).
att(707,374).
att(766,203).
att(851,828).
att(890,386).
att(884,400).
att(694,430).
att(766,216).
att(770,169).
att(697,374).
att(838,780).
att(831,754).
att(776,369).
att(745,223).
att(839,780).
att(839,783).
att(749,154).
att(692,471).
att(714,464).
att(831,750).
att(711,462).
att(770,363).
att(757,229).
att(835,815).
att(875,599).
att(755,224).
att(876,595).
att(747,235).
att(836,813).
att(743,209).
att(692,469).
att(774,310).
att(761,339).
att(753,167).
att(782,369).
att(763,337).
att(692,468).
att(752,179).
att(833,772).
att(743,239).
att(743,233).
att(701,442).
att(696,459).
att(785,382).
att(836,758).
att(694,459).
att(720,438).
att(694,460).
att(745,183).
att(785,306).
att(753,176).
att(832,710).
att(704,472).
att(743,156).
att(766,357).
att(771,298).
att(788,295).
att(839,737).
att(751,120).
att(720,475).
att(836,786).
att(745,169).
att(765,380).
att(782,314).
att(831,735).
att(837,647).
att(763,392).
att(856,852).
att(779,326).
att(839,653).
att(832,737).
att(782,330).
att(782,328).
att(757,106).
att(766,295).
att(766,298).
att(768,355).
att(839,647).
att(833,723).
att(836,713).
att(771,324).
att(840,651).
att(787,344).
att(701,463).
att(759,117).
att(854,162).
att(698,676).
att(890,703).
att(802,304).
att(709,736).
att(854,165).
att(841,224).
att(712,727).
att(805,376).
att(707,650).
att(887,741).
att(858,158).
att(782,527).
att(853,167).
att(853,169).
att(697,646).
att(845,223).
att(845,224).
att(887,750).
att(809,382).
att(791,382).
att(851,152).
att(802,312).
att(705,670).
att(882,700).
att(856,179).
att(705,689).
att(715,642).
att(841,156).
att(854,173).
att(797,357).
att(887,780).
att(845,158).
att(887,783).
att(858,189).
att(803,360).
att(801,293).
att(845,162).
att(841,187).
att(709,673).
att(881,725).
att(807,312).
att(882,733).
att(841,177).
att(889,708).
att(890,643).
att(707,603).
att(883,737).
att(707,600).
att(858,111).
att(705,606).
att(856,106).
att(888,713).
att(809,320).
att(884,723).
att(841,128).
att(698,561).
att(884,667).
att(890,688).
att(890,682).
att(807,254).
att(885,739).
att(707,628).
att(715,594).
att(864,844).
att(843,108).
att(863,855).
att(712,596).
att(809,251).
att(869,852).
att(707,632).
att(836,117).
att(881,842).
att(882,857).
att(831,106).
att(856,260).
att(882,848).
att(856,256).
att(882,844).
att(845,314).
att(845,316).
att(847,318).
att(851,304).
att(860,251).
att(882,792).
att(771,561).
att(890,828).
att(881,792).
att(705,773).
att(887,849).
att(843,256).
att(883,799).
att(776,569).
att(841,251).
att(705,784).
att(885,855).
att(886,849).
att(860,283).
att(888,857).
att(771,639).
att(890,798).
att(697,773).
att(890,792).
att(847,247).
att(851,314).
att(890,800).
att(697,784).
att(712,768).
att(699,704).
att(882,830).
att(883,813).
att(785,551).
att(858,206).
att(718,781).
att(860,210).
att(845,283).
att(707,696).
att(699,790).
att(788,555).
att(698,694).
att(884,826).
att(888,794).
att(697,720).
att(778,585).
att(847,265).
att(888,792).
att(802,382).
att(841,216).
att(774,531).
att(854,225).
att(881,754).
att(698,656).
att(707,722).
att(882,758).
att(882,746).
att(841,203).
att(856,237).
att(785,572).
att(884,741).
att(887,817).
att(776,523).
att(858,225).
att(705,731).
att(715,717).
att(886,826).
att(851,265).
att(853,233).
att(770,533).
att(821,330).
att(822,311).
att(823,300).
att(802,102).
att(866,780).
att(805,179).
att(822,328).
att(801,102).
att(870,735).
att(814,374).
att(864,719).
att(795,154).
att(816,374).
att(803,117).
att(868,725).
att(879,846).
att(797,103).
att(821,242).
att(823,326).
att(793,189).
att(812,310).
att(803,102).
att(805,111).
att(870,645).
att(803,103).
att(863,739).
att(807,111).
att(829,312).
att(814,306).
att(862,730).
att(864,728).
att(809,120).
att(819,314).
att(867,700).
att(864,733).
att(865,723).
att(880,804).
att(812,326).
att(880,796).
att(825,260).
att(879,810).
att(795,114).
att(867,735).
att(866,739).
att(829,260).
att(869,608).
att(871,810).
att(823,270).
att(871,806).
att(822,200).
att(827,263).
att(872,794).
att(879,826).
att(862,678).
att(874,799).
att(871,852).
att(816,260).
att(874,810).
att(829,270).
att(791,254).
att(869,820).
att(697,574).
att(805,278).
att(715,635).
att(795,241).
att(881,665).
att(866,846).
att(865,859).
att(702,561).
att(867,846).
att(883,685).
att(715,632).
att(867,842).
att(883,682).
att(863,798).
att(888,655).
att(883,668).
att(883,667).
att(861,830).
att(862,811).
att(870,754).
att(889,675).
att(885,669).
att(885,685).
att(870,748).
att(861,820).
att(881,599).
att(866,799).
att(715,553).
att(705,576).
att(803,263).
att(803,265).
att(801,213).
att(709,583).
att(821,376).
att(801,154).
att(702,529).
att(793,213).
att(702,537).
att(791,203).
att(712,578).
att(863,746).
att(797,203).
att(887,608).
att(707,525).
att(869,719).
att(803,155).
att(862,764).
att(867,741).
att(863,767).
att(809,154).
att(795,224).
att(863,777).
att(878,210).
att(876,242).
att(759,769).
att(747,781).
att(829,563).
att(878,227).
att(753,714).
att(821,521).
att(822,533).
att(875,263).
att(825,579).
att(822,523).
att(880,225).
att(752,738).
att(743,768).
att(816,567).
att(814,561).
att(827,576).
att(873,206).
att(749,660).
att(838,363).
att(872,239).
att(879,162).
att(825,533).
att(751,656).
att(872,233).
att(879,156).
att(876,213).
att(825,529).
att(825,521).
att(875,200).
att(757,740).
att(839,382).
att(745,720).
att(814,576).
att(827,522).
att(874,173).
att(753,660).
att(838,291).
att(877,156).
att(743,721).
att(871,154).
att(872,167).
att(751,680).
att(755,646).
att(832,357).
att(749,676).
att(871,158).
att(752,676).
att(834,360).
att(833,376).
att(743,722).
att(834,382).
att(747,656).
att(745,736).
att(814,535).
att(876,239).
att(868,155).
att(864,183).
att(812,740).
att(880,304).
att(791,523).
att(865,233).
att(816,722).
att(873,382).
att(791,521).
att(795,521).
att(868,235).
att(795,522).
att(868,237).
att(868,175).
att(823,686).
att(869,128).
att(823,680).
att(867,175).
att(865,162).
att(872,306).
att(872,308).
att(873,310).
att(814,641).
att(812,650).
att(819,680).
att(867,160).
att(877,374).
att(874,304).
att(877,354).
att(879,244).
att(878,247).
att(868,103).
att(823,616).
att(861,108).
att(872,316).
att(863,114).
att(862,106).
att(876,291).
att(812,676).
att(819,619).
att(819,611).
att(878,311).
att(867,189).
att(876,310).
att(819,555).
att(816,625).
att(874,278).
att(812,611).
att(825,637).
att(876,324).
att(875,330).
att(752,787).
att(866,111).
att(873,242).
att(880,286).
att(880,289).
att(816,606).
att(829,625).
att(874,251).
att(816,600).
att(866,102).
att(836,196).
att(749,535).
att(752,533).
att(833,203).
att(778,738).
att(779,765).
att(759,581).
att(759,589).
att(766,781).
att(856,363).
att(832,237).
att(757,525).
att(776,652).
att(778,654).
att(839,169).
att(860,354).
att(835,196).
att(771,740).
att(853,374).
att(833,223).
att(743,583).
att(743,585).
att(759,531).
att(774,670).
att(836,158).
att(779,660).
att(856,291).
att(839,179).
att(839,187).
att(779,724).
att(834,160).
att(771,656).
att(788,646).
att(847,374).
att(841,295).
att(843,310).
att(776,603).
att(843,300).
att(782,689).
att(831,183).
att(858,312).
att(835,165).
att(833,189).
att(860,324).
att(766,650).
att(770,611).
att(851,369).
att(753,686).
att(749,611).
att(831,297).
att(836,300).
att(874,103).
att(839,316).
att(871,179).
att(835,363).
att(875,160).
att(831,369).
att(759,670).
att(831,330).
att(753,600).
att(876,110).
att(833,311).
att(751,637).
att(833,320).
att(835,291).
att(835,298).
att(873,102).
att(753,663).
att(745,689).
att(752,632).
att(753,637).
att(747,563).
att(759,556).
att(752,559).
att(832,251).
att(834,247).
att(779,773).
att(747,585).
att(751,581).
att(782,773).
att(752,583).
att(743,639).
att(832,273).
att(759,559).
att(757,555).
att(752,572).
att(774,91).
att(779,75).
att(890,247).
att(851,673).
att(853,632).
att(782,73).
att(882,328).
att(886,291).
att(883,318).
att(884,312).
att(860,616).
att(887,295).
att(707,214).
att(888,297).
att(697,204).
att(888,304).
att(889,367).
att(889,320).
att(890,278).
att(881,242).
att(881,244).
att(889,328).
att(709,211).
att(774,39).
att(882,258).
att(712,217).
att(697,221).
att(845,619).
att(883,260).
att(845,613).
att(853,639).
att(778,37).
att(698,186).
att(699,157).
att(802,692).
att(853,581).
att(715,221).
att(779,31).
att(712,230).
att(854,555).
att(854,551).
att(883,273).
att(707,151).
att(766,93).
att(698,164).
att(845,622).
att(887,247).
att(858,556).
att(881,216).
att(803,720).
att(889,280).
att(712,163).
att(712,153).
att(795,763).
att(807,694).
att(705,185).
att(805,720).
att(881,209).
att(802,729).
att(853,521).
att(698,109).
att(715,161).
att(843,563).
att(882,203).
att(718,153).
att(801,691).
att(841,761).
att(854,711).
att(776,180).
att(858,714).
att(838,581).
att(843,787).
att(837,572).
att(847,769).
att(833,569).
att(832,551).
att(785,168).
att(834,559).
att(841,717).
att(779,180).
att(771,118).
att(835,576).
att(838,533).
att(839,537).
att(766,159).
att(836,567).
att(766,170).
att(771,185).
att(771,141).
att(766,121).
att(854,656).
att(890,306).
att(843,738).
att(843,724).
att(841,727).
att(778,141).
att(832,537).
att(845,722).
att(858,660).
att(847,731).
att(835,583).
att(835,585).
att(835,579).
att(881,308).
att(854,670).
att(854,673).
att(766,133).
att(770,83).
att(766,131).
att(779,131).
att(882,293).
att(845,642).
att(771,147).
att(890,297).
att(835,531).
att(851,721).
att(778,75).
att(788,149).
att(884,304).
att(869,276).
att(709,97).
att(797,622).
att(868,247).
att(805,628).
att(702,33).
att(793,606).
att(868,326).
att(867,318).
att(867,320).
att(705,34).
att(801,576).
att(861,280).
att(791,635).
att(869,219).
att(809,578).
att(801,581).
att(864,196).
att(791,624).
att(709,41).
att(862,280).
att(866,249).
att(712,31).
att(793,622).
att(866,256).
att(819,787).
att(819,790).
att(797,626).
att(795,630).
att(803,585).
att(861,219).
att(821,736).
att(868,196).
att(869,233).
att(812,790).
att(802,525).
att(805,581).
att(791,553).
att(807,583).
att(814,790).
att(866,270).
att(864,206).
att(819,694).
att(863,196).
att(797,527).
att(821,654).
att(864,162).
att(822,646).
att(869,155).
att(812,711).
att(793,574).
att(807,535).
att(827,738).
att(822,652).
att(809,537).
att(819,722).
att(807,522).
att(863,229).
att(807,529).
att(851,574).
att(805,734).
att(698,149).
att(791,696).
att(869,382).
att(869,376).
att(795,691).
att(698,135).
att(793,694).
att(841,581).
att(885,213).
att(715,172).
att(795,720).
att(715,178).
att(886,219).
att(707,126).
att(801,740).
att(803,696).
att(889,263).
att(860,523).
att(887,219).
att(888,154).
att(870,304).
att(870,298).
att(889,235).
att(887,155).
att(805,652).
att(862,382).
att(841,537).
att(809,642).
att(705,141).
att(793,729).
att(795,722).
att(801,658).
att(869,360).
att(888,235).
att(847,535).
att(883,155).
att(864,376).
att(797,738).
att(795,731).
att(886,224).
att(805,680).
att(861,310).
att(791,654).
att(865,369).
att(869,330).
att(697,85).
att(803,683).
att(702,68).
att(805,679).
att(863,291).
att(866,363).
att(795,646).
att(883,189).
att(705,64).
att(793,650).
att(699,149).
att(868,363).
att(797,646).
att(797,654).
att(803,609).
att(699,93).
att(702,85).
att(881,103).
att(712,73).
att(862,328).
att(862,316).
att(702,83).
att(709,62).
att(870,256).
att(715,64).
att(882,102).
att(867,295).
att(718,64).
att(697,91).
att(801,611).
att(871,738).
att(829,136).
att(865,579).
att(861,525).
att(821,141).
att(827,118).
att(812,184).
att(812,172).
att(827,115).
att(878,673).
att(816,133).
att(877,660).
att(877,646).
att(825,143).
att(821,75).
att(823,136).
att(823,131).
att(876,736).
att(827,141).
att(822,73).
att(878,606).
att(749,217).
att(829,82).
att(819,97).
att(874,609).
att(879,619).
att(823,68).
att(759,284).
att(814,131).
att(876,646).
att(816,147).
att(873,676).
att(759,271).
att(877,596).
att(816,87).
att(812,79).
att(743,262).
att(879,622).
att(825,93).
att(757,194).
att(751,236).
att(825,91).
att(879,626).
att(871,600).
att(752,228).
att(822,31).
att(872,594).
att(822,46).
att(829,85).
att(816,79).
att(814,68).
att(861,616).
att(791,79).
att(823,220).
att(803,81).
att(812,284).
att(870,628).
att(865,686).
att(814,274).
att(863,603).
att(807,93).
att(822,232).
att(864,619).
att(803,46).
att(825,222).
att(868,639).
att(803,31).
att(861,624).
att(869,556).
att(805,33).
att(862,624).
att(807,48).
att(863,639).
att(814,211).
att(866,619).
att(865,594).
att(870,555).
att(819,238).
att(868,616).
att(819,236).
att(795,85).
att(793,82).
att(866,596).
att(821,184).
att(865,637).
att(863,559).
att(874,765).
att(866,639).
att(873,765).
att(878,768).
att(829,153).
att(795,35).
att(863,551).
att(795,37).
att(816,238).
att(793,33).
att(861,589).
att(823,188).
att(868,579).
att(880,734).
att(872,701).
att(880,724).
att(869,529).
att(862,578).
att(862,571).
att(880,731).
att(862,585).
att(866,569).
att(862,581).
att(880,738).
att(868,567).
att(829,184).
att(816,151).
att(877,769).
att(753,143).
att(747,69).
att(755,139).
att(753,135).
att(776,284).
att(838,670).
att(774,274).
att(751,61).
att(751,68).
att(752,69).
att(751,73).
att(778,266).
att(836,736).
att(745,124).
att(835,727).
att(875,525).
att(835,740).
att(774,220).
att(774,194).
att(774,191).
att(747,81).
att(840,613).
att(839,606).
att(771,266).
att(836,606).
att(836,619).
att(759,31).
att(774,221).
att(838,622).
att(747,34).
att(782,201).
att(770,222).
att(788,217).
att(776,230).
att(778,234).
att(743,61).
att(840,625).
att(743,66).
att(834,619).
att(840,622).
att(835,689).
att(745,41).
att(856,763).
att(856,761).
att(853,701).
att(770,174).
att(755,48).
att(858,784).
att(753,31).
att(782,228).
att(785,221).
att(831,622).
att(753,37).
att(840,567).
att(757,46).
att(839,561).
att(860,765).
att(853,784).
att(757,31).
att(840,559).
att(753,230).
att(823,46).
att(871,635).
att(747,163).
att(878,569).
att(825,48).
att(839,784).
att(823,33).
att(749,153).
att(823,41).
att(823,37).
att(759,236).
att(840,784).
att(872,624).
att(751,161).
att(825,37).
att(752,164).
att(880,569).
att(876,609).
att(878,583).
att(747,182).
att(877,559).
att(878,589).
att(836,790).
att(874,585).
att(871,556).
att(749,174).
att(879,589).
att(755,166).
att(838,717).
att(840,696).
att(757,157).
att(812,48).
att(745,228).
att(745,240).
att(752,172).
att(831,717).
att(837,731).
att(878,537).
att(753,180).
att(877,583).
att(481,333).
att(879,537).
att(838,729).
att(871,572).
att(755,178).
att(879,531).
att(755,188).
att(877,571).
att(743,157).
att(759,186).
att(834,692).
att(872,571).
att(752,124).
att(840,722).
att(483,337).
att(759,174).
att(834,704).
att(880,521).
att(484,339).
att(877,537).
att(749,147).
att(759,136).
att(876,529).
att(751,139).
att(485,342).
att(751,147).
att(832,724).
att(485,341).
att(835,694).
att(839,660).
att(836,714).
att(837,722).
att(747,124).
att(836,711).
att(876,585).
att(771,542).
att(489,331).
att(841,236).
att(771,548).
att(854,170).
att(847,153).
att(485,365).
att(776,541).
att(884,765).
att(860,151).
att(482,389).
att(776,543).
att(483,385).
att(883,765).
att(847,228).
att(835,97).
att(860,159).
att(484,383).
att(779,548).
att(881,714).
att(766,543).
att(771,509).
att(885,769).
att(481,403).
att(698,614).
att(888,720).
att(699,674).
att(841,161).
att(486,387).
att(882,692).
att(885,781).
att(776,506).
att(883,711).
att(845,166).
att(886,773).
att(847,166).
att(488,392).
att(888,761).
att(488,396).
att(841,190).
att(881,740).
att(712,662).
att(841,186).
att(847,109).
att(702,591).
att(485,415).
att(490,387).
att(705,617).
att(481,430).
att(884,722).
att(782,502).
att(886,704).
att(785,507).
att(845,186).
att(860,109).
att(890,724).
att(860,121).
att(483,427).
att(698,591).
att(699,664).
att(788,509).
att(707,610).
att(788,494).
att(771,496).
att(890,673).
att(853,73).
att(709,620).
att(698,568).
att(886,724).
att(715,614).
att(712,607).
att(705,634).
att(481,440).
att(881,648).
att(715,610).
att(845,129).
att(858,137).
att(482,445).
att(774,492).
att(715,620).
att(889,692).
att(709,664).
att(847,118).
att(888,724).
att(484,433).
att(860,131).
att(759,494).
att(771,631).
att(837,147).
att(745,514).
att(755,520).
att(837,135).
att(487,442).
att(832,118).
att(757,511).
att(484,456).
att(779,631).
att(489,434).
att(745,493).
att(489,436).
att(490,433).
att(481,467).
att(482,461).
att(486,451).
att(856,274).
att(858,264).
att(774,552).
att(486,460).
att(757,496).
att(832,139).
att(483,470).
att(484,462).
att(489,449).
att(757,497).
att(779,562).
att(485,462).
att(481,476).
att(834,87).
att(835,66).
att(840,41).
att(836,69).
att(832,79).
att(776,590).
att(488,461).
att(776,573).
att(858,201).
att(484,473).
att(488,466).
att(766,629).
att(745,499).
att(771,565).
att(788,552).
att(847,284).
att(743,496).
att(766,634).
att(771,530).
att(774,532).
att(856,234).
att(771,536).
att(858,236).
att(856,226).
att(843,191).
att(836,81).
att(841,204).
att(860,238).
att(776,526).
att(858,238).
att(770,536).
att(840,37).
att(834,95).
att(869,731).
att(801,118).
att(869,738).
att(861,696).
att(861,691).
att(490,478).
att(862,701).
att(862,696).
att(865,787).
att(791,157).
att(702,509).
att(715,542).
att(864,692).
att(863,717).
att(712,544).
att(867,769).
att(803,151).
att(868,765).
att(718,550).
att(697,494).
att(889,583).
att(889,589).
att(887,527).
att(887,529).
att(881,529).
att(712,508).
att(805,115).
att(702,514).
att(699,511).
att(795,180).
att(863,738).
att(715,510).
att(864,740).
att(697,518).
att(883,523).
att(718,493).
att(801,75).
att(805,143).
att(802,64).
att(805,149).
att(821,274).
att(861,646).
att(822,266).
att(863,646).
att(807,133).
att(705,495).
att(862,652).
att(715,518).
att(863,656).
att(867,721).
att(807,147).
att(697,499).
att(707,495).
att(801,87).
att(803,75).
att(709,497).
att(805,79).
att(805,69).
att(827,287).
att(862,673).
att(797,139).
att(809,75).
att(863,666).
att(718,499).
att(829,271).
att(709,631).
att(805,281).
att(841,149).
att(881,689).
att(881,680).
att(853,85).
att(890,619).
att(801,201).
att(853,93).
att(712,633).
att(841,133).
att(702,564).
att(887,654).
att(883,689).
att(715,627).
att(882,679).
att(882,666).
att(886,656).
att(847,139).
att(699,634).
att(699,636).
att(884,670).
att(801,261).
att(860,79).
att(883,679).
att(803,207).
att(854,91).
att(888,609).
att(697,528).
att(801,230).
att(791,266).
att(884,632).
att(795,262).
att(702,577).
att(712,562).
att(881,596).
att(885,673).
att(702,582).
att(709,552).
att(702,584).
att(712,568).
att(841,71).
att(858,83).
att(858,85).
att(795,287).
att(795,266).
att(699,570).
att(884,606).
att(889,603).
att(791,214).
att(888,622).
att(698,550).
att(793,220).
att(805,232).
att(841,97).
att(712,587).
att(805,238).
att(705,530).
att(715,580).
att(858,33).
att(883,624).
att(707,524).
att(881,567).
att(702,546).
att(861,790).
att(699,542).
att(698,509).
att(697,505).
att(802,185).
att(797,163).
att(890,571).
att(712,536).
att(881,553).
att(709,528).
att(841,48).
att(841,44).
att(851,31).
att(883,559).
att(843,37).
att(863,787).
att(705,545).
att(715,538).
att(715,532).
att(705,548).
att(793,230).
att(863,768).
att(797,228).
att(803,222).
att(845,33).
att(869,768).
att(869,763).
att(797,236).
att(801,151).
att(883,553).
att(879,211).
att(864,89).
att(823,560).
att(878,204).
att(867,61).
att(878,214).
att(865,149).
att(866,131).
att(822,573).
att(865,133).
att(829,554).
att(868,147).
att(878,261).
att(829,560).
att(871,214).
att(877,204).
att(878,238).
att(816,577).
att(861,87).
att(870,35).
att(812,566).
att(825,588).
att(876,281).
att(822,528).
att(865,66).
att(827,588).
att(875,284).
att(871,234).
att(829,541).
att(872,240).
att(821,549).
att(879,166).
att(814,580).
att(862,37).
att(812,577).
att(863,31).
att(867,93).
att(873,230).
att(827,530).
att(821,507).
att(823,546).
att(749,664).
att(825,549).
att(752,684).
att(825,541).
att(880,190).
att(829,544).
att(874,161).
att(878,151).
att(202,718).
att(791,539).
att(699,8).
att(199,698).
att(865,232).
att(205,715).
att(865,226).
att(865,228).
att(709,25).
att(791,532).
att(869,172).
att(889,48).
att(208,705).
att(885,33).
att(885,39).
att(885,41).
att(707,2).
att(864,159).
att(868,236).
att(715,24).
att(886,41).
att(864,168).
att(809,550).
att(868,174).
att(864,107).
att(865,163).
att(870,115).
att(827,664).
att(212,699).
att(865,170).
att(821,607).
att(793,541).
att(215,705).
att(862,184).
att(863,185).
att(827,674).
att(822,610).
att(199,709).
att(827,612).
att(870,141).
att(821,633).
att(825,620).
att(865,190).
att(814,674).
att(827,607).
att(863,126).
att(805,517).
att(870,136).
att(822,631).
att(829,604).
att(863,104).
att(863,107).
att(878,271).
att(819,562).
att(878,290).
att(823,636).
att(864,62).
att(825,623).
att(880,264).
att(822,570).
att(827,621).
att(870,79).
att(868,136).
att(807,499).
att(867,107).
att(863,135).
att(795,517).
att(814,607).
att(836,204).
att(876,89).
att(832,201).
att(749,538).
att(834,191).
att(835,281).
att(757,582).
att(755,575).
att(834,204).
att(876,64).
att(759,586).
att(745,558).
att(876,71).
att(838,164).
att(836,232).
att(877,44).
att(837,166).
att(838,163).
att(755,524).
att(752,547).
att(833,228).
att(751,544).
att(872,37).
att(752,546).
att(872,48).
att(757,540).
att(836,194).
att(759,540).
att(759,532).
att(831,164).
att(745,543).
att(836,159).
att(836,170).
att(776,674).
att(839,172).
att(833,159).
att(840,185).
att(759,548).
att(753,508).
att(836,180).
att(782,684).
att(788,684).
att(839,121).
att(836,166).
att(840,121).
att(840,104).
att(743,548).
att(757,505).
att(840,129).
att(752,514).
att(878,115).
att(749,592).
att(819,511).
att(822,517).
att(822,515).
att(872,172).
att(875,157).
att(814,544).
att(874,178).
att(747,664).
att(814,543).
att(759,671).
att(829,507).
att(871,126).
att(877,107).
att(829,494).
att(877,121).
att(749,638).
att(821,491).
att(821,496).
att(875,184).
att(812,510).
att(812,503).
att(822,496).
att(873,107).
att(814,509).
att(873,118).
att(755,634).
att(871,149).
att(816,498).
att(874,68).
att(747,564).
att(753,640).
att(874,75).
att(823,494).
att(751,568).
att(879,73).
att(839,262).
att(823,496).
att(873,137).
att(879,68).
att(743,614).
att(751,554).
att(757,638).
att(814,511).
att(753,592).
att(873,131).
att(814,519).
att(871,79).
att(753,570).
att(837,220).
att(874,97).
att(878,82).
att(831,274).
att(838,217).
att(752,582).
att(834,262).
att(880,83).
att(812,491).
att(840,211).
att(751,584).
att(747,568).
att(874,71).
att(745,631).
att(876,139).
att(752,586).
att(771,88).
att(856,591).
att(831,505).
att(837,513).
att(843,671).
att(856,604).
att(836,501).
att(837,515).
att(288,831).
att(743,2).
att(788,76).
att(854,661).
att(839,517).
att(275,793).
att(841,620).
att(854,627).
att(890,271).
att(282,845).
att(834,491).
att(841,614).
att(853,554).
att(268,819).
att(277,793).
att(841,607).
att(847,591).
att(782,88).
att(831,512).
att(854,592).
att(267,801).
att(770,43).
att(272,829).
att(770,10).
att(272,827).
att(282,795).
att(853,575).
att(851,640).
att(890,211).
att(836,498).
att(854,554).
att(267,814).
att(277,827).
att(268,816).
att(847,629).
att(268,823).
att(833,492).
att(268,812).
att(279,841).
att(832,494).
att(766,52).
att(198,863).
att(854,582).
att(881,214).
att(202,884).
att(788,11).
att(851,560).
att(268,782).
att(847,586).
att(889,266).
att(771,17).
att(275,757).
att(282,829).
att(854,573).
att(883,201).
att(195,884).
att(858,575).
att(883,204).
att(195,881).
att(845,570).
att(288,812).
att(195,888).
att(782,51).
att(858,582).
att(884,204).
att(847,566).
att(788,59).
att(836,554).
att(248,743).
att(747,17).
att(277,888).
att(257,816).
att(275,890).
att(749,19).
att(831,558).
att(275,884).
att(245,745).
att(752,18).
att(259,816).
att(832,564).
att(252,745).
att(751,18).
att(838,575).
att(752,11).
att(245,757).
att(752,14).
att(836,582).
att(272,862).
att(250,774).
att(285,881).
att(774,122).
att(831,584).
att(277,867).
att(288,888).
att(268,862).
att(759,19).
att(833,577).
att(243,819).
att(268,863).
att(259,749).
att(835,558).
att(835,560).
att(259,759).
att(282,863).
att(779,116).
att(243,778).
att(834,549).
att(835,528).
att(282,867).
att(255,776).
att(255,788).
att(749,9).
att(747,4).
att(253,770).
att(782,125).
att(788,125).
att(751,2).
att(257,776).
att(755,22).
att(778,150).
att(250,697).
att(785,113).
att(839,547).
att(838,544).
att(253,745).
att(788,116).
att(835,580).
att(743,14).
att(245,712).
att(253,699).
att(275,836).
att(743,20).
att(771,74).
att(840,512).
att(854,687).
att(282,875).
att(743,3).
att(834,503).
att(838,510).
att(782,140).
att(255,718).
att(782,138).
att(831,549).
att(774,72).
att(779,132).
att(856,684).
att(778,72).
att(267,834).
att(778,74).
att(839,510).
att(776,65).
att(268,832).
att(757,3).
att(243,782).
att(839,501).
att(840,508).
att(259,705).
att(702,50).
att(888,131).
att(202,797).
att(699,47).
att(697,54).
att(215,854).
att(205,802).
att(841,514).
att(890,61).
att(854,492).
att(212,860).
att(198,821).
att(870,287).
att(881,139).
att(218,858).
att(718,94).
att(887,115).
att(195,803).
att(797,612).
att(858,498).
att(802,580).
att(202,825).
att(869,204).
att(791,621).
att(215,803).
att(712,43).
att(791,633).
att(793,634).
att(195,816).
att(886,131).
att(864,261).
att(863,281).
att(215,807).
att(702,52).
att(197,816).
att(707,52).
att(718,38).
att(809,560).
att(718,47).
att(797,638).
att(868,207).
att(884,48).
att(199,749).
att(887,89).
att(805,586).
att(870,232).
att(208,743).
att(698,22).
att(215,816).
att(889,61).
att(709,55).
att(889,75).
att(205,745).
att(208,759).
att(715,60).
att(215,819).
att(702,12).
att(862,207).
att(707,12).
att(884,95).
att(869,191).
att(718,58).
att(867,274).
att(795,564).
att(212,745).
att(698,5).
att(199,770).
att(865,191).
att(199,776).
att(718,28).
att(797,538).
att(889,82).
att(862,226).
att(699,21).
att(803,526).
att(807,524).
att(882,41).
att(208,788).
att(866,204).
att(218,753).
att(882,39).
att(793,586).
att(705,29).
att(215,759).
att(199,757).
att(697,29).
att(707,23).
att(195,771).
att(795,577).
att(199,755).
att(707,27).
att(766,12).
att(841,590).
att(770,2).
att(205,865).
att(268,699).
att(853,549).
att(841,577).
att(208,868).
att(285,743).
att(282,751).
att(885,204).
att(208,866).
att(275,782).
att(853,541).
att(702,119).
att(199,888).
att(776,22).
att(288,753).
att(199,889).
att(782,14).
att(886,214).
att(269,757).
att(698,101).
att(851,566).
att(888,194).
att(851,565).
att(778,27).
att(860,532).
att(198,837).
att(702,150).
att(853,505).
att(198,838).
att(205,872).
att(888,163).
att(847,543).
att(197,838).
att(698,78).
att(715,123).
att(712,119).
att(715,101).
att(854,545).
att(277,702).
att(858,548).
att(199,866).
att(883,166).
att(218,868).
att(782,26).
att(277,709).
att(705,144).
att(699,127).
att(890,151).
att(887,232).
att(845,524).
att(887,228).
att(883,161).
att(288,771).
att(883,163).
att(198,854).
att(854,510).
att(890,121).
att(212,877).
att(697,88).
att(202,837).
att(853,520).
att(709,145).
att(202,833).
att(285,709).
att(282,702).
att(841,542).
att(702,67).
att(881,182).
att(705,77).
att(882,185).
att(854,503).
att(198,860).
att(698,88).
att(883,180).
att(887,166).
att(883,190).
att(195,835).
att(715,140).
att(712,134).
att(782,6).
att(218,871).
att(697,74).
att(788,6).
att(801,687).
att(212,865).
att(202,875).
att(785,1).
att(883,172).
att(199,871).
att(699,88).
att(889,180).
att(853,498).
att(709,70).
att(202,858).
att(851,508).
att(202,854).
att(709,80).
att(803,620).
att(887,109).
att(715,77).
att(841,506).
att(705,100).
att(885,190).
att(890,131).
att(715,65).
att(843,501).
att(705,88).
att(843,504).
att(882,107).
att(886,182).
att(885,172).
att(803,664).
att(809,610).
att(699,77).
att(845,506).
att(801,591).
att(707,84).
att(883,121).
att(869,548).
att(803,30).
att(868,536).
att(303,782).
att(803,23).
att(861,526).
att(862,539).
att(302,709).
att(321,878).
att(869,544).
att(791,19).
att(825,125).
att(865,587).
att(294,749).
att(315,883).
att(827,119).
att(317,866).
att(307,774).
att(793,13).
att(805,21).
att(294,745).
att(867,575).
att(795,15).
att(829,116).
att(319,865).
att(809,29).
att(309,788).
att(294,752).
att(303,707).
att(869,507).
att(868,547).
att(303,718).
att(296,697).
att(865,538).
att(791,26).
att(305,718).
att(315,863).
att(315,866).
att(805,6).
att(870,504).
att(880,687).
att(313,864).
att(867,524).
att(303,766).
att(863,545).
att(814,105).
att(793,22).
att(819,88).
att(869,519).
att(868,510).
att(292,718).
att(865,546).
att(880,591).
att(879,620).
att(825,70).
att(325,838).
att(321,847).
att(869,515).
att(329,833).
att(873,664).
att(878,662).
att(816,142).
att(829,74).
att(866,544).
att(879,621).
att(864,498).
att(874,633).
att(861,516).
att(880,634).
att(869,494).
att(812,77).
att(825,94).
att(872,591).
att(822,40).
att(322,801).
att(322,807).
att(812,72).
att(323,833).
att(878,592).
att(876,677).
att(315,838).
att(317,843).
att(814,76).
att(802,50).
att(803,96).
att(198,282).
att(797,90).
att(803,94).
att(303,860).
att(198,277).
att(212,321).
att(791,74).
att(212,317).
att(791,76).
att(861,610).
att(212,325).
att(866,677).
att(307,853).
att(887,503).
att(868,664).
att(195,257).
att(887,508).
att(299,841).
att(869,564).
att(801,53).
att(199,275).
att(868,627).
att(885,520).
att(802,54).
att(202,277).
att(888,498).
att(889,514).
att(215,257).
att(866,617).
att(864,629).
att(797,100).
att(303,843).
att(883,496).
att(864,621).
att(861,566).
att(301,745).
att(809,11).
att(299,747).
att(301,743).
att(797,53).
att(292,809).
att(292,805).
att(865,629).
att(202,208).
att(865,634).
att(861,560).
att(208,202).
att(205,198).
att(885,491).
att(208,199).
att(309,823).
att(862,552).
att(866,627).
att(205,208).
att(864,560).
att(296,809).
att(195,202).
att(296,801).
att(296,805).
att(807,51).
att(218,269).
att(309,819).
att(801,29).
att(797,15).
att(299,771).
att(805,13).
att(802,26).
att(862,587).
att(870,536).
att(321,869).
att(292,823).
att(801,24).
att(869,524).
att(327,888).
att(867,565).
att(793,54).
att(329,890).
att(791,52).
att(319,888).
att(809,15).
att(199,212).
att(248,840).
att(823,9).
att(250,835).
att(753,138).
att(753,148).
att(876,545).
att(757,146).
att(250,839).
att(257,873).
att(871,543).
att(257,876).
att(250,834).
att(753,134).
att(327,705).
att(872,543).
att(880,509).
att(759,145).
att(875,540).
att(879,501).
att(755,134).
att(745,116).
att(874,547).
att(248,871).
att(827,4).
att(814,25).
att(812,22).
att(243,869).
att(246,872).
att(874,516).
att(755,76).
att(250,858).
att(751,99).
att(871,504).
att(832,681).
att(839,607).
att(880,520).
att(243,876).
att(259,833).
att(833,684).
att(755,65).
att(757,78).
att(833,662).
att(879,515).
att(751,98).
att(873,501).
att(759,72).
att(840,604).
att(743,142).
att(873,510).
att(836,604).
att(253,854).
att(751,43).
att(839,634).
att(250,802).
att(879,495).
att(255,858).
att(877,511).
att(752,45).
att(875,503).
att(757,98).
att(747,99).
att(759,86).
att(834,604).
att(873,517).
att(836,661).
att(752,40).
att(248,827).
att(876,491).
att(246,821).
att(747,58).
att(837,566).
att(753,40).
att(255,801).
att(243,851).
att(833,640).
att(871,493).
att(832,631).
att(248,791).
att(253,847).
att(253,841).
att(840,564).
att(873,496).
att(834,621).
att(245,825).
att(878,570).
att(867,497).
att(812,100).
att(865,519).
att(880,565).
att(825,50).
att(878,552).
att(866,520).
att(880,552).
att(329,807).
att(814,94).
att(812,88).
att(322,825).
att(313,845).
att(829,49).
att(867,519).
att(816,92).
att(874,636).
att(816,52).
att(323,829).
att(317,747).
att(317,749).
att(872,568).
att(821,13).
att(250,884).
att(325,827).
att(822,11).
att(329,816).
att(812,40).
att(865,498).
att(875,627).
att(812,45).
att(313,797).
att(865,496).
att(879,577).
att(877,636).
att(874,568).
att(319,788).
att(248,869).
att(747,116).
att(259,886).
att(327,745).
att(871,584).
att(812,51).
att(313,829).
att(875,562).
att(875,570).
att(246,889).
att(821,23).
att(879,528).
att(876,554).
att(877,568).
att(816,57).
att(322,778).
att(253,870).
att(255,867).
att(325,770).
att(749,134).
att(755,125).
att(877,530).
att(313,747).
att(822,1).
att(759,123).
att(252,874).
att(252,878).
att(757,130).
att(822,9).
att(816,18).
att(873,530).
att(329,788).
att(246,198).
att(282,390).
att(332,803).
att(268,348).
att(346,747).
att(44,333).
att(285,384).
att(277,414).
att(252,202).
att(839,53).
att(838,56).
att(838,54).
att(338,802).
att(279,443).
att(272,395).
att(259,275).
att(279,444).
att(835,99).
att(348,753).
att(375,888).
att(835,51).
att(346,771).
att(279,420).
att(348,752).
att(381,886).
att(350,755).
att(334,827).
att(348,751).
att(350,745).
att(348,755).
att(267,332).
att(350,751).
att(350,749).
att(838,10).
att(838,14).
att(272,416).
att(279,395).
att(259,205).
att(279,397).
att(378,866).
att(282,334).
att(332,745).
att(840,3).
att(268,305).
att(44,385).
att(275,371).
att(37,358).
att(837,24).
att(831,14).
att(347,770).
att(831,17).
att(858,122).
att(350,774).
att(838,26).
att(858,130).
att(373,883).
att(835,53).
att(833,11).
att(346,779).
att(46,368).
att(268,359).
att(373,888).
att(373,886).
att(44,366).
att(375,872).
att(41,337).
att(332,766).
att(890,681).
att(338,697).
att(858,145).
att(831,25).
att(332,778).
att(356,869).
att(282,378).
att(347,698).
att(267,296).
att(288,378).
att(381,880).
att(336,782).
att(279,336).
att(346,715).
att(371,880).
att(839,3).
att(351,718).
att(362,864).
att(847,101).
att(46,426).
att(418,709).
att(46,428).
att(420,707).
att(878,3).
att(34,385).
att(334,870).
att(255,371).
att(871,30).
att(348,879).
att(409,771).
att(414,755).
att(872,26).
att(336,864).
att(422,718).
att(243,351).
att(424,697).
att(253,343).
att(876,17).
att(875,14).
att(873,30).
att(246,321).
att(250,313).
att(334,873).
att(243,356).
att(414,779).
att(839,63).
att(840,77).
att(252,321).
att(243,353).
att(252,317).
att(250,321).
att(350,839).
att(351,836).
att(835,105).
att(332,868).
att(332,865).
att(414,776).
att(346,838).
att(338,880).
att(245,325).
att(275,437).
att(46,455).
att(41,431).
att(248,257).
att(253,323).
att(346,801).
att(347,854).
att(48,449).
att(245,268).
att(838,98).
att(838,84).
att(257,313).
att(334,832).
att(248,250).
att(277,444).
att(338,836).
att(48,442).
att(834,70).
att(31,428).
att(414,702).
att(840,96).
att(338,837).
att(839,90).
att(253,248).
att(834,40).
att(343,853).
att(347,805).
att(334,860).
att(336,841).
att(257,255).
att(34,401).
att(255,248).
att(257,243).
att(282,454).
att(31,415).
att(35,426).
att(259,253).
att(257,246).
att(41,413).
att(245,269).
att(246,253).
att(835,74).
att(48,421).
att(833,90).
att(243,327).
att(245,282).
att(259,246).
att(343,831).
att(840,43).
att(279,205).
att(375,745).
att(802,113).
att(889,562).
att(353,823).
att(853,25).
att(371,776).
att(847,15).
att(882,587).
att(881,584).
att(307,882).
att(885,570).
att(885,566).
att(378,749).
att(887,552).
att(362,822).
att(371,755).
att(884,580).
att(887,560).
att(858,15).
att(883,584).
att(362,823).
att(803,122).
att(854,30).
att(305,863).
att(884,543).
att(854,23).
att(307,870).
att(294,887).
att(802,144).
att(375,782).
att(353,749).
att(805,127).
att(296,883).
att(359,759).
att(856,23).
att(882,524).
att(378,785).
att(305,889).
att(362,749).
att(887,573).
att(199,347).
att(303,882).
att(883,524).
att(809,119).
att(202,309).
att(292,866).
att(803,138).
att(373,715).
att(801,74).
att(847,7).
att(888,548).
att(801,70).
att(845,3).
att(208,292).
att(378,709).
att(793,130).
att(307,873).
att(302,834).
att(847,20).
att(381,712).
att(882,541).
att(218,356).
att(356,778).
att(294,863).
att(378,715).
att(215,381).
att(359,766).
att(199,381).
att(371,718).
att(845,22).
att(303,862).
att(218,372).
att(381,702).
att(299,872).
att(292,877).
att(791,150).
att(861,681).
att(888,508).
att(884,514).
att(309,835).
att(205,327).
att(793,148).
att(803,67).
att(882,504).
att(307,839).
att(863,662).
att(299,839).
att(809,63).
att(887,546).
att(372,860).
att(332,718).
att(356,871).
att(332,712).
att(343,697).
att(356,876).
att(343,702).
att(375,836).
att(372,854).
att(860,90).
att(275,317).
att(843,150).
att(356,879).
att(332,702).
att(371,835).
att(362,873).
att(381,839).
att(338,705).
att(890,664).
att(373,872).
att(338,712).
att(371,834).
att(198,399).
att(268,277).
att(889,671).
att(269,250).
att(202,452).
att(198,397).
att(841,67).
att(208,437).
att(854,90).
att(375,858).
att(841,72).
att(288,327).
att(371,851).
att(195,439).
att(887,664).
att(381,843).
att(288,313).
att(843,72).
att(847,80).
att(373,832).
att(288,317).
att(282,243).
att(881,636).
att(888,623).
att(198,405).
att(890,568).
att(212,446).
att(890,566).
att(885,610).
att(275,285).
att(275,288).
att(215,437).
att(858,36).
att(199,444).
att(843,86).
att(887,592).
att(381,793).
att(285,248).
att(197,390).
att(197,399).
att(371,805).
att(373,851).
att(887,617).
att(202,424).
att(269,198).
att(854,59).
att(890,584).
att(851,40).
att(375,814).
att(301,884).
att(212,384).
att(860,12).
att(269,199).
att(208,405).
att(881,554).
att(854,55).
att(841,43).
att(359,801).
att(381,827).
att(886,631).
att(847,47).
att(199,384).
att(199,597).
att(861,78).
att(399,853).
att(868,74).
att(89,477).
att(868,70).
att(69,394).
att(71,377).
att(393,878).
att(402,843).
att(305,325).
att(869,84).
att(64,364).
att(212,685).
att(861,72).
att(61,342).
att(397,876).
att(205,598).
att(294,303).
att(302,245).
att(388,838).
att(85,475).
att(199,685).
att(218,667).
att(97,479).
att(384,877).
att(886,20).
att(81,464).
att(83,478).
att(390,834).
att(869,47).
att(89,464).
att(301,282).
att(384,856).
att(864,32).
att(299,275).
att(73,365).
att(73,358).
att(299,269).
att(322,393).
att(64,342).
att(64,339).
att(83,470).
att(218,615).
att(329,452).
att(294,315).
att(97,470).
att(397,838).
att(75,333).
att(75,342).
att(79,355).
att(91,471).
att(215,597).
att(299,208).
att(296,277).
att(319,409).
att(864,53).
att(393,847).
att(302,218).
att(313,448).
att(869,55).
att(305,269).
att(71,428).
att(317,395).
att(390,791).
att(395,843).
att(388,795).
att(307,288).
att(322,418).
att(863,36).
att(317,390).
att(75,408).
att(420,882).
att(868,58).
att(325,414).
att(864,13).
att(327,418).
att(402,753).
att(329,414).
att(388,812).
att(66,383).
att(292,279).
att(422,888).
att(868,51).
att(309,212).
att(862,58).
att(79,403).
att(82,472).
att(61,352).
att(75,450).
att(198,733).
att(73,456).
att(198,723).
att(400,888).
att(887,51).
att(71,458).
att(446,797).
att(890,12).
att(882,57).
att(885,49).
att(446,793).
att(375,205).
att(302,351).
att(307,411).
att(353,268).
att(439,827).
att(454,751).
att(881,54).
att(885,45).
att(402,881).
att(890,15).
att(205,713).
att(302,348).
att(73,449).
att(353,272).
att(882,56).
att(208,706).
att(447,805).
att(208,719).
att(218,767).
att(296,397).
att(881,52).
att(448,805).
att(887,36).
att(79,451).
att(68,430).
att(362,288).
att(301,414).
att(362,269).
att(362,282).
att(883,54).
att(202,726).
att(353,218).
att(305,343).
att(202,733).
att(869,130).
att(888,18).
att(452,779).
att(448,747).
att(212,708).
att(870,122).
att(444,819).
att(294,416).
att(202,732).
att(444,827).
att(73,433).
att(302,362).
att(388,889).
att(444,825).
att(208,730).
att(446,822).
att(447,816).
att(882,15).
att(447,812).
att(69,436).
att(356,202).
att(388,883).
att(69,438).
att(887,53).
att(359,198).
att(61,408).
att(296,411).
att(444,743).
att(861,123).
att(301,292).
att(384,862).
att(862,130).
att(444,757).
att(402,872).
att(400,879).
att(137,370).
att(441,771).
att(137,358).
att(205,644).
att(215,728).
att(61,455).
att(399,864).
att(399,861).
att(62,466).
att(195,657).
att(399,867).
att(441,770).
att(863,105).
att(147,370).
att(448,743).
att(864,127).
att(195,653).
att(79,477).
att(399,866).
att(386,877).
att(393,865).
att(202,682).
att(303,299).
att(868,144).
att(199,667).
att(448,718).
att(215,653).
att(865,119).
att(205,685).
att(212,645).
att(888,3).
att(137,344).
att(865,123).
att(64,449).
att(62,457).
att(863,148).
att(882,6).
att(885,22).
att(137,331).
att(889,24).
att(79,467).
att(199,657).
att(868,125).
att(62,450).
att(68,440).
att(883,8).
att(79,470).
att(390,874).
att(48,471).
att(250,386).
att(877,84).
att(31,463).
att(315,252).
att(416,860).
att(248,388).
att(871,86).
att(255,454).
att(405,853).
att(871,94).
att(245,388).
att(409,853).
att(873,100).
att(409,847).
att(323,315).
att(405,836).
att(418,847).
att(874,100).
att(245,399).
att(246,439).
att(248,424).
att(317,205).
att(876,32).
att(405,791).
att(93,333).
att(407,801).
att(34,434).
att(420,821).
att(422,814).
att(879,58).
att(407,797).
att(422,812).
att(44,470).
att(93,331).
att(414,854).
att(243,441).
att(409,809).
att(243,446).
att(259,386).
att(321,205).
att(325,268).
att(243,444).
att(422,829).
att(315,250).
att(33,433).
att(411,805).
att(416,843).
att(876,92).
att(329,269).
att(418,747).
att(420,743).
att(82,366).
att(871,57).
att(877,51).
att(414,803).
att(880,13).
att(82,361).
att(89,368).
att(874,59).
att(97,385).
att(317,212).
att(411,816).
att(872,52).
att(315,279).
att(414,809).
att(873,60).
att(334,881).
att(41,473).
att(87,361).
att(405,743).
att(89,352).
att(253,347).
att(31,472).
att(350,870).
att(37,479).
att(39,474).
att(93,392).
att(405,751).
att(871,18).
att(837,105).
att(877,10).
att(252,372).
att(411,743).
att(34,464).
att(409,743).
att(91,385).
att(248,343).
att(253,409).
att(411,749).
att(97,355).
att(246,347).
att(346,869).
att(409,752).
att(321,353).
att(325,338).
att(864,22).
att(325,334).
att(397,749).
att(418,870).
att(93,438).
att(386,759).
att(402,779).
att(322,359).
att(386,747).
att(422,870).
att(292,215).
att(313,416).
att(400,776).
att(422,864).
att(422,862).
att(87,421).
att(399,770).
att(879,127).
att(862,15).
att(93,433).
att(880,113).
att(395,812).
att(411,887).
att(82,404).
att(85,417).
att(866,52).
att(323,414).
att(97,430).
att(866,54).
att(411,890).
att(399,707).
att(422,875).
att(877,105).
att(878,148).
att(87,415).
att(420,876).
att(409,861).
att(861,25).
att(407,869).
att(319,301).
att(871,116).
att(416,887).
att(313,350).
att(865,15).
att(313,348).
att(414,882).
att(870,1).
att(386,776).
att(393,757).
att(424,871).
att(863,22).
att(395,752).
att(395,747).
att(874,101).
att(416,881).
att(73,333).
att(868,7).
att(868,9).
att(420,831).
att(397,699).
att(386,718).
att(85,459).
att(880,77).
att(87,449).
att(879,72).
att(69,340).
att(861,6).
att(87,457).
att(422,835).
att(878,63).
att(879,77).
att(69,345).
att(422,836).
att(414,869).
att(414,870).
att(91,465).
att(416,865).
att(873,150).
att(876,101).
att(69,335).
att(85,458).
att(327,299).
att(329,292).
att(393,788).
att(414,862).
att(861,4).
att(82,442).
att(861,1).
att(323,362).
att(395,778).
att(877,123).
att(390,715).
att(420,854).
att(418,858).
att(323,329).
att(327,323).
att(871,67).
att(250,454).
att(91,456).
att(322,250).
att(875,140).
att(322,246).
att(875,142).
att(91,459).
att(245,447).
att(327,317).
att(866,4).
att(405,877).
att(416,880).
att(323,292).
att(416,872).
att(874,77).
att(81,428).
att(245,452).
att(865,20).
att(875,134).
att(411,837).
att(424,853).
att(248,659).
att(332,351).
att(272,857).
att(118,430).
att(275,849).
att(346,301).
att(350,373).
att(277,846).
att(107,410).
att(334,350).
att(350,353).
att(118,419).
att(112,421).
att(252,647).
att(338,336).
att(252,645).
att(351,353).
att(347,338).
att(259,732).
att(338,350).
att(346,356).
att(351,371).
att(275,792).
att(275,799).
att(348,292).
att(124,425).
att(272,808).
att(347,303).
att(257,653).
att(112,413).
att(275,810).
att(112,401).
att(129,412).
att(338,353).
att(250,667).
att(257,647).
att(288,852).
att(268,798).
att(121,383).
att(343,350).
att(259,651).
att(346,296).
att(252,678).
att(268,799).
att(332,294).
att(129,461).
att(259,598).
att(372,441).
att(107,445).
att(257,682).
att(185,333).
att(126,461).
att(255,682).
att(185,340).
att(112,456).
att(277,826).
att(336,305).
att(255,667).
att(336,294).
att(288,792).
att(269,798).
att(338,296).
att(343,353).
att(118,436).
att(346,267).
att(282,815).
att(375,447).
att(112,445).
att(285,817).
att(118,431).
att(124,456).
att(282,826).
att(109,423).
att(332,319).
att(378,448).
att(371,444).
att(104,426).
att(381,452).
att(381,439).
att(107,417).
att(372,448).
att(129,432).
att(259,597).
att(268,754).
att(372,446).
att(259,593).
att(259,618).
att(338,323).
att(118,479).
att(405,329).
att(248,744).
att(174,340).
att(109,465).
att(185,383).
att(178,349).
att(245,744).
att(329,615).
att(424,253).
att(172,341).
att(313,682).
att(351,448).
att(351,437).
att(104,463).
att(315,675).
att(418,315).
att(253,799).
att(246,813).
att(259,820).
att(416,252).
att(186,368).
att(347,399).
att(416,259).
att(336,437).
att(185,365).
att(245,762).
att(407,245).
att(407,248).
att(115,461).
att(338,444).
att(411,248).
att(416,325).
att(246,760).
att(347,443).
att(348,444).
att(424,277).
att(409,245).
att(245,789).
att(129,469).
att(347,446).
att(253,775).
att(255,764).
att(246,708).
att(182,408).
att(188,421).
att(245,725).
att(178,415).
att(180,398).
att(405,268).
att(405,277).
att(405,269).
att(350,416).
att(424,215).
att(422,208).
att(407,272).
att(178,406).
att(182,396).
att(259,775).
att(409,267).
att(172,380).
att(409,277).
att(253,700).
att(332,420).
att(268,859).
att(109,474).
att(174,366).
att(185,413).
att(405,202).
att(245,723).
att(338,409).
att(174,355).
att(414,275).
att(245,728).
att(246,713).
att(107,472).
att(246,693).
att(135,391).
att(372,329).
att(375,296).
att(198,826).
att(279,645).
att(881,146).
att(889,113).
att(141,408).
att(375,301).
att(378,294).
att(882,146).
att(375,299).
att(881,144).
att(212,857).
att(446,867).
att(285,643).
att(277,675).
att(218,848).
att(441,880).
att(447,864).
att(441,878).
att(195,800).
att(447,867).
att(137,406).
att(452,872).
att(448,868).
att(197,799).
att(272,599).
att(301,454).
att(888,63).
att(373,327).
att(371,252).
att(136,355).
att(141,387).
att(887,67).
att(147,403).
att(452,856).
att(137,394).
att(275,599).
att(378,313).
att(882,78).
att(302,441).
att(454,858).
att(199,800).
att(883,72).
att(143,370).
att(378,321).
att(285,678).
att(359,309).
att(441,837).
att(359,294).
att(882,72).
att(149,394).
att(215,810).
att(147,391).
att(883,76).
att(212,824).
att(437,854).
att(202,758).
att(372,285).
att(889,70).
att(147,458).
att(215,824).
att(446,834).
att(375,245).
att(133,419).
att(381,243).
att(285,608).
att(208,756).
att(378,246).
att(441,856).
att(208,746).
att(282,597).
att(269,615).
att(288,602).
att(131,419).
att(359,322).
att(448,831).
att(147,431).
att(135,410).
att(305,388).
att(437,797).
att(133,413).
att(882,50).
att(378,282).
att(302,424).
att(881,38).
att(205,780).
att(302,418).
att(885,99).
att(212,748).
att(205,764).
att(198,719).
att(378,275).
att(441,807).
att(378,277).
att(294,452).
att(441,795).
att(881,32).
att(294,443).
att(446,858).
att(143,404).
att(443,809).
att(143,401).
att(371,282).
att(195,786).
att(296,454).
att(359,245).
att(124,365).
att(141,468).
att(147,479).
att(334,259).
att(141,465).
att(112,345).
att(348,285).
att(359,452).
att(129,344).
att(378,402).
att(372,397).
att(272,741).
att(371,399).
att(149,470).
att(131,456).
att(288,760).
att(147,464).
att(353,399).
att(353,384).
att(371,346).
att(147,467).
att(378,409).
att(282,789).
att(288,783).
att(381,407).
att(343,255).
att(372,405).
att(373,395).
att(371,411).
att(373,397).
att(350,198).
att(362,399).
att(109,365).
att(109,358).
att(115,396).
att(343,208).
att(198,848).
att(356,414).
att(126,404).
att(118,387).
att(135,473).
att(441,888).
att(136,474).
att(107,366).
att(332,199).
att(112,380).
att(443,886).
att(277,737).
att(269,719).
att(452,881).
att(121,364).
att(371,332).
att(141,479).
att(375,362).
att(115,368).
att(279,728).
att(888,105).
att(279,739).
att(888,119).
att(353,334).
att(208,846).
att(882,127).
att(205,857).
att(881,116).
att(129,368).
att(137,475).
att(285,732).
att(208,857).
att(381,359).
att(139,471).
att(441,864).
att(353,414).
att(197,846).
att(884,113).
att(371,359).
att(381,372).
att(288,730).
att(452,865).
att(381,371).
att(163,450).
att(305,767).
att(168,465).
att(202,165).
att(195,175).
att(384,390).
att(234,333).
att(292,746).
att(305,783).
att(452,195).
att(208,160).
att(221,345).
att(222,331).
att(447,243).
att(395,439).
att(195,162).
att(195,156).
att(170,457).
att(208,162).
att(170,450).
att(439,218).
att(166,449).
att(292,767).
att(444,285).
att(386,418).
att(393,384).
att(305,713).
att(294,772).
att(309,713).
att(447,279).
att(447,282).
att(446,272).
att(390,405).
att(395,384).
att(390,414).
att(157,436).
att(402,350).
att(157,438).
att(205,183).
att(397,400).
att(168,445).
att(195,177).
att(399,407).
att(390,422).
att(163,474).
att(321,842).
att(384,350).
att(236,383).
att(163,475).
att(303,739).
att(199,111).
att(230,361).
att(226,366).
att(205,114).
att(322,852).
att(305,739).
att(386,347).
att(202,114).
att(294,700).
att(157,478).
att(153,468).
att(226,361).
att(294,693).
att(212,175).
att(303,693).
att(163,466).
att(390,346).
att(390,348).
att(240,352).
att(221,389).
att(384,378).
att(399,302).
att(230,333).
att(323,859).
att(238,349).
att(299,672).
att(226,341).
att(307,653).
att(212,114).
att(222,370).
att(161,464).
att(164,473).
att(317,850).
att(302,668).
att(226,337).
att(393,350).
att(317,846).
att(157,461).
att(202,260).
att(279,117).
att(305,844).
att(230,403).
att(353,735).
att(202,241).
att(371,672).
att(208,242).
att(353,725).
att(444,351).
att(208,260).
att(195,241).
att(285,120).
att(226,410).
att(226,404).
att(221,426).
att(448,350).
att(232,387).
att(362,733).
att(301,830).
att(454,315).
att(212,254).
att(353,659).
att(373,685).
att(197,200).
att(443,322).
att(202,263).
att(238,403).
att(234,410).
att(294,844).
att(353,644).
att(454,321).
att(226,377).
att(299,800).
att(208,283).
att(222,412).
att(294,857).
att(205,276).
att(215,258).
att(240,380).
att(299,808).
att(301,800).
att(443,299).
att(153,477).
att(221,408).
att(309,810).
att(447,378).
att(198,233).
att(199,196).
att(353,682).
att(238,457).
att(305,811).
att(301,742).
att(212,278).
att(234,460).
att(454,245).
att(292,806).
att(215,265).
att(226,445).
att(307,817).
att(373,593).
att(226,432).
att(215,270).
att(381,608).
att(218,273).
att(236,445).
att(353,618).
att(448,252).
att(384,443).
att(299,772).
att(301,764).
att(452,282).
att(205,225).
att(439,246).
att(202,224).
att(353,608).
att(228,425).
att(292,815).
att(302,767).
att(454,285).
att(215,196).
att(296,815).
att(309,742).
att(446,329).
att(454,268).
att(294,817).
att(195,225).
att(399,444).
att(182,438).
att(405,418).
att(397,202).
att(418,350).
att(323,719).
att(178,445).
att(422,343).
att(322,739).
att(174,423).
att(393,282).
att(315,775).
att(393,268).
att(424,351).
att(323,739).
att(180,417).
att(250,857).
att(321,655).
att(180,428).
att(319,647).
att(252,857).
att(422,371).
att(184,415).
att(184,412).
att(329,730).
att(182,468).
att(319,688).
att(255,855).
att(325,653).
att(159,342).
att(255,844).
att(164,370).
att(250,800).
att(253,855).
att(325,651).
att(252,800).
att(159,340).
att(164,365).
att(186,475).
att(250,798).
att(151,361).
att(313,726).
att(327,649).
att(174,458).
att(252,798).
att(321,675).
att(325,644).
att(327,657).
att(422,307).
att(168,339).
att(168,335).
att(184,458).
att(248,849).
att(172,455).
att(322,678).
att(329,659).
att(164,344).
att(164,345).
att(255,792).
att(166,342).
att(315,678).
att(164,337).
att(257,806).
att(407,305).
att(250,824).
att(420,325).
att(185,462).
att(313,645).
att(185,463).
att(246,800).
att(321,593).
att(322,615).
att(414,356).
att(252,817).
att(325,668).
att(329,672).
att(246,798).
att(411,307).
att(259,810).
att(414,378).
att(166,413).
att(161,385).
att(303,669).
att(321,818).
att(323,804).
att(303,682).
att(327,806).
att(329,799).
att(292,655).
att(292,657).
att(325,810).
att(174,476).
att(395,359).
att(164,403).
att(319,792).
att(163,349).
att(309,672).
att(317,794).
att(166,392).
att(184,474).
att(319,758).
att(323,830).
att(168,380).
att(184,473).
att(321,760).
att(164,394).
att(422,439).
att(159,352).
att(402,245).
att(322,748).
att(388,323).
att(424,448).
att(323,792).
att(317,815).
att(317,817).
att(307,598).
att(166,440).
att(400,279).
att(319,783).
att(323,750).
att(319,764).
att(390,267).
att(409,437).
att(393,323).
att(164,436).
att(393,313).
att(422,395).
att(321,767).
att(294,599).
att(411,439).
att(151,436).
att(424,388).
att(292,602).
att(329,741).
att(317,742).
att(390,253).
att(418,446).
att(407,393).
att(420,407).
att(386,288).
att(407,399).
att(422,414).
att(402,195).
att(313,760).
att(153,394).
att(164,423).
att(402,215).
att(327,789).
att(393,257).
att(161,396).
att(390,269).
att(163,396).
att(317,764).
att(388,268).
att(418,397).
att(248,200).
att(253,273).
att(274,364).
att(418,602).
att(416,688).
att(274,349).
att(281,396).
att(334,804).
att(248,203).
att(271,349).
att(290,364).
att(422,605).
att(257,278).
att(407,678).
att(422,602).
att(336,796).
att(201,480).
att(350,830).
att(243,249).
att(414,651).
att(243,256).
att(220,480).
att(351,820).
att(253,209).
att(261,392).
att(262,392).
att(243,209).
att(343,830).
att(347,756).
att(414,598).
att(405,595).
att(250,235).
att(350,742).
att(261,383).
att(201,466).
att(264,370).
att(201,470).
att(250,224).
att(407,593).
att(271,331).
att(220,464).
att(409,597).
att(201,463).
att(194,476).
att(264,361).
att(248,167).
att(272,357).
att(346,700).
att(343,748).
att(255,229).
att(275,360).
att(253,224).
att(257,223).
att(336,748).
att(338,742).
att(336,758).
att(257,225).
att(252,167).
att(336,744).
att(268,363).
att(416,615).
att(287,408).
att(268,360).
att(338,748).
att(259,227).
att(264,430).
att(348,695).
att(347,703).
att(268,318).
att(261,423).
att(275,310).
att(275,304).
att(274,389).
att(284,403).
att(332,772).
att(290,391).
att(288,357).
att(336,767).
att(245,181).
att(287,392).
att(269,374).
att(346,710).
att(338,772).
att(259,169).
att(288,382).
att(259,156).
att(418,708).
att(317,171).
att(325,158).
att(271,435).
att(266,458).
att(322,189).
att(322,187).
att(424,693).
att(248,369).
att(264,457).
att(411,789).
att(266,456).
att(327,155).
att(329,169).
att(411,780).
att(248,330).
att(255,304).
att(284,440).
att(329,110).
att(329,102).
att(321,111).
att(407,719).
att(420,728).
att(321,128).
att(257,293).
att(262,450).
att(319,114).
att(261,458).
att(266,442).
att(414,780).
att(271,423).
att(252,324).
att(287,427).
att(313,155).
att(313,154).
att(329,181).
att(322,120).
att(411,710).
att(253,330).
att(418,653).
att(284,480).
att(245,241).
att(281,472).
att(409,739).
att(259,314).
att(246,328).
att(266,471).
att(287,470).
att(414,708).
att(313,171).
att(411,735).
att(246,311).
att(259,330).
att(313,183).
att(287,464).
att(264,472).
att(287,465).
att(416,643).
att(347,808).
att(253,256).
att(250,273).
att(257,244).
att(420,682).
att(351,808).
att(281,461).
att(409,655).
att(250,278).
att(336,848).
att(315,114).
att(313,108).
att(347,844).
att(424,665).
att(424,675).
att(245,280).
att(437,452).
att(452,399).
att(332,597).
att(441,437).
att(211,352).
att(230,464).
att(275,233).
att(439,443).
att(228,470).
att(372,775).
att(454,402).
att(336,599).
att(192,366).
att(288,193).
att(381,746).
att(279,263).
att(268,233).
att(336,593).
att(222,475).
att(373,818).
att(240,469).
att(232,450).
att(437,402).
att(282,233).
att(444,439).
att(372,695).
att(198,293).
att(214,342).
att(232,453).
att(238,466).
att(197,308).
att(452,420).
att(282,231).
att(236,462).
att(228,456).
att(282,227).
att(272,162).
att(282,235).
att(194,337).
att(362,742).
att(208,382).
att(226,451).
att(234,461).
att(285,231).
att(194,335).
att(191,339).
att(240,460).
att(191,344).
att(191,421).
att(204,394).
att(214,408).
att(217,404).
att(353,764).
att(353,762).
att(205,300).
att(378,693).
att(441,414).
att(215,354).
att(446,397).
att(285,152).
att(381,716).
att(194,401).
att(359,789).
att(441,420).
att(220,394).
att(371,716).
att(232,480).
att(373,762).
att(448,386).
att(375,723).
att(302,852).
att(212,291).
att(288,110).
att(373,733).
att(202,314).
att(208,312).
att(275,111).
att(215,291).
att(375,739).
att(198,249).
att(372,643).
att(444,424).
att(202,320).
att(205,316).
att(211,392).
att(201,349).
att(228,472).
att(378,725).
att(218,308).
att(362,693).
att(194,385).
att(275,108).
att(194,396).
att(378,726).
att(228,473).
att(359,713).
att(446,420).
att(240,476).
att(452,332).
att(362,695).
att(240,477).
att(191,458).
att(253,181).
att(348,723).
att(253,179).
att(269,320).
att(343,700).
att(214,431).
att(285,295).
att(248,103).
att(194,442).
att(267,312).
att(255,176).
att(245,117).
att(343,783).
att(217,430).
att(269,310).
att(252,102).
att(343,762).
att(343,764).
att(253,120).
att(272,247).
att(279,318).
att(282,312).
att(243,106).
att(338,644).
att(243,120).
att(207,398).
att(272,251).
att(288,328).
att(220,408).
att(381,855).
att(211,423).
att(255,106).
att(350,657).
att(257,128).
att(217,412).
att(338,730).
att(346,659).
att(338,739).
att(269,326).
att(351,647).
att(338,737).
att(220,406).
att(259,128).
att(351,659).
att(217,465).
att(375,804).
att(217,462).
att(347,669).
att(191,475).
att(261,365).
att(284,345).
att(220,461).
att(287,333).
att(372,824).
att(281,337).
att(348,682).
att(277,276).
att(334,643).
att(381,796).
att(201,457).
att(220,456).
att(264,340).
att(191,469).
att(343,678).
att(353,804).
att(347,602).
att(372,758).
att(268,239).
att(343,675).
att(343,688).
att(191,468).
att(359,794).
att(378,817).
att(348,618).
att(272,203).
att(282,283).
att(347,595).
att(378,818).
att(211,450).
att(381,811).
att(279,242).
att(373,796).
att(343,653).
att(371,817).
att(381,830).
att(362,106).
att(195,624).
att(375,103).
att(198,632).
att(205,619).
att(439,733).
att(446,706).
att(309,312).
att(439,732).
att(356,179).
att(205,609).
att(215,689).
att(443,728).
att(218,666).
att(441,730).
att(443,733).
att(400,798).
att(386,842).
att(452,678).
att(448,651).
att(443,667).
att(452,688).
att(443,665).
att(212,606).
att(198,559).
att(444,733).
att(296,312).
att(356,110).
att(446,732).
att(218,616).
att(356,102).
att(294,330).
att(388,855).
att(199,619).
att(399,848).
att(218,594).
att(195,637).
att(309,249).
att(447,737).
att(202,567).
att(303,286).
att(452,618).
att(199,559).
att(388,799).
att(439,682).
att(212,639).
att(393,852).
att(444,657).
att(437,678).
att(301,206).
att(309,283).
att(390,800).
att(439,665).
att(292,249).
att(303,244).
att(294,251).
att(447,659).
att(197,535).
att(400,741).
att(218,578).
att(302,225).
att(292,270).
att(198,535).
att(305,203).
att(212,569).
att(305,200).
att(402,742).
att(199,571).
att(212,567).
att(294,270).
att(439,598).
att(218,567).
att(302,224).
att(395,794).
att(447,667).
att(447,669).
att(443,615).
att(208,585).
att(296,280).
att(205,692).
att(375,210).
att(279,559).
att(279,569).
att(448,830).
att(269,581).
att(205,701).
att(275,579).
att(441,811).
att(375,203).
att(446,794).
att(282,569).
att(381,216).
att(441,830).
att(275,574).
att(199,787).
att(454,767).
att(198,656).
att(205,721).
att(272,531).
att(373,227).
att(371,158).
att(282,585).
att(279,576).
att(375,239).
att(356,210).
att(205,731).
att(269,589).
att(285,571).
att(359,206).
att(288,579).
att(212,724).
att(353,237).
att(202,658).
att(448,789).
att(205,646).
att(302,300).
att(356,239).
att(205,648).
att(212,729).
att(282,533).
att(198,673).
att(198,686).
att(202,650).
att(205,642).
att(279,525).
att(307,369).
att(282,529).
att(441,764).
att(199,738).
att(448,756).
att(195,652).
att(371,169).
att(443,777).
att(448,758).
att(195,648).
att(288,533).
att(441,777).
att(288,531).
att(452,730).
att(362,173).
att(199,670).
att(381,102).
att(212,652).
att(353,155).
att(356,169).
att(375,183).
att(372,102).
att(212,648).
att(356,165).
att(454,739).
att(447,764).
att(441,710).
att(441,695).
att(446,786).
att(195,679).
att(218,652).
att(195,673).
att(359,152).
att(325,254).
att(319,265).
att(325,249).
att(321,289).
att(329,256).
att(329,244).
att(402,678).
att(322,283).
att(424,796).
att(313,314).
att(315,320).
att(418,850).
att(388,649).
att(319,219).
att(407,808).
att(422,811).
att(322,206).
att(388,685).
att(329,280).
att(322,213).
att(322,216).
att(409,806).
att(321,209).
att(322,210).
att(424,811).
att(405,850).
att(418,792).
att(388,675).
att(402,597).
att(395,659).
att(323,209).
att(420,744).
att(397,618).
att(386,615).
att(384,599).
att(407,813).
att(329,216).
att(322,239).
att(416,806).
att(322,224).
att(388,595).
att(395,672).
att(414,810).
att(420,762).
att(405,746).
att(248,360).
att(405,742).
att(407,748).
att(321,165).
att(393,605).
att(395,608).
att(416,824).
att(315,193).
att(199,529).
att(305,233).
att(303,225).
att(400,762).
att(199,525).
att(299,154).
att(388,742).
att(402,783).
att(321,382).
att(386,746).
att(202,523).
att(212,579).
att(384,750).
att(205,529).
att(218,574).
att(390,750).
att(399,746).
att(447,602).
att(208,537).
att(446,595).
att(215,578).
att(294,209).
att(301,189).
att(390,708).
att(399,713).
att(301,175).
att(393,744).
att(212,522).
att(402,708).
att(292,231).
att(388,764).
att(296,227).
att(299,169).
att(388,777).
att(301,111).
att(321,312).
att(325,298).
att(325,291).
att(301,103).
att(384,700).
att(302,102).
att(388,716).
att(313,374).
att(305,175).
att(390,706).
att(323,354).
att(397,767).
att(315,363).
att(309,177).
att(399,649).
att(420,848).
att(327,324).
att(305,103).
att(400,649).
att(400,659).
att(384,728).
att(329,328).
att(393,703).
att(402,651).
att(424,842).
att(397,713).
att(296,181).
att(294,176).
att(255,724).
att(255,734).
att(323,531).
att(416,227).
att(248,654).
att(405,227).
att(327,525).
att(346,369).
att(409,227).
att(422,167).
att(253,696).
att(416,210).
att(255,641).
att(246,676).
att(332,357).
att(257,642).
att(418,171).
att(422,171).
att(259,658).
att(422,183).
att(252,683).
att(259,641).
att(336,376).
att(351,295).
att(424,183).
att(346,295).
att(245,680).
att(409,162).
att(405,187).
att(334,291).
att(253,683).
att(411,103).
att(252,603).
att(257,670).
att(422,111).
att(407,171).
att(416,165).
att(245,600).
att(338,310).
att(253,613).
att(332,312).
att(343,318).
att(346,273).
att(334,314).
att(416,102).
att(336,318).
att(336,330).
att(252,637).
att(414,171).
att(338,316).
att(409,120).
att(323,619).
att(327,611).
att(386,111).
att(325,600).
att(323,594).
att(414,306).
att(424,244).
att(329,596).
att(418,312).
att(313,666).
att(395,177).
att(388,106).
att(313,679).
att(411,324).
att(250,769).
att(420,273).
att(407,254).
att(313,600).
att(411,241).
att(322,557).
att(327,632).
att(414,316).
att(329,624).
att(411,251).
att(250,692).
att(257,784).
att(422,193).
att(319,572).
att(248,704).
att(405,270).
att(255,787).
att(322,583).
att(422,209).
att(313,635).
att(257,787).
att(327,556).
att(248,738).
att(411,231).
att(246,729).
att(418,235).
att(420,231).
att(255,714).
att(243,763).
att(424,237).
att(321,525).
att(422,227).
att(252,724).
att(420,224).
att(315,559).
att(416,283).
att(424,223).
att(346,106).
att(375,298).
att(268,616).
att(275,689).
att(348,181).
att(275,663).
att(336,169).
att(285,646).
att(275,679).
att(243,533).
att(372,298).
att(267,679).
att(371,310).
att(351,181).
att(371,297).
att(350,176).
att(356,298).
att(375,324).
att(279,686).
att(452,855).
att(378,326).
att(275,616).
att(272,609).
att(275,611).
att(275,613).
att(282,670).
att(332,179).
att(336,179).
att(381,316).
att(372,311).
att(437,859).
att(269,624).
att(372,280).
att(277,630).
att(288,611).
att(277,637).
att(373,311).
att(336,106).
att(205,763).
att(372,200).
att(279,628).
att(373,289).
att(452,830).
att(362,278).
att(373,280).
att(267,574).
att(375,276).
att(282,626).
att(439,804).
att(282,635).
att(381,283).
att(195,768).
att(277,569).
att(285,626).
att(447,850).
att(208,781).
att(373,241).
att(277,553).
att(348,270).
att(267,765).
att(334,249).
att(336,244).
att(246,637).
att(268,769).
att(243,616).
att(252,563).
att(252,551).
att(343,311).
att(272,714).
att(268,727).
att(346,231).
att(269,701).
att(243,551).
att(246,581).
att(248,576).
att(277,691).
att(285,768).
att(347,196).
att(334,263).
att(336,283).
att(259,555).
att(338,276).
att(245,579).
att(245,581).
att(343,254).
att(338,286).
att(372,382).
att(343,209).
att(269,731).
att(272,734).
att(338,231).
att(268,658).
att(255,572).
att(332,206).
att(285,692).
att(272,729).
att(253,574).
att(257,574).
att(288,711).
att(285,717).
att(243,561).
att(269,694).
att(343,263).
att(252,523).
att(269,692).
att(375,363).
att(375,357).
att(378,376).
att(253,521).
att(378,363).
att(253,527).
att(371,369).
att(336,239).
att(285,740).
att(343,213).
att(243,589).
att(288,740).
att(259,531).
att(267,656).
att(351,156).
att(373,569).
att(446,244).
att(198,174).
att(375,551).
att(205,151).
att(454,216).
att(381,567).
att(282,33).
att(447,242).
att(208,168).
att(356,622).
att(448,258).
att(299,768).
att(301,740).
att(202,178).
att(452,225).
att(373,581).
att(195,109).
att(373,571).
att(292,787).
att(444,273).
att(202,184).
att(305,720).
att(437,206).
att(205,186).
att(212,168).
att(441,200).
att(447,280).
att(439,209).
att(205,182).
att(439,206).
att(199,170).
att(301,691).
att(448,265).
att(218,159).
att(299,694).
att(443,216).
att(441,206).
att(197,143).
att(373,535).
att(292,691).
att(301,646).
att(375,537).
att(454,162).
att(402,376).
att(198,143).
att(302,654).
att(305,738).
att(218,188).
att(302,650).
att(375,525).
att(215,190).
att(303,696).
att(195,115).
att(199,186).
att(218,172).
att(378,529).
att(303,650).
att(386,369).
att(199,136).
att(400,304).
att(199,133).
att(303,648).
att(443,183).
att(402,295).
att(198,75).
att(454,189).
att(437,156).
att(437,158).
att(390,357).
att(439,155).
att(205,133).
att(353,521).
att(444,223).
att(444,224).
att(195,139).
att(356,522).
att(390,363).
att(437,382).
att(375,641).
att(371,676).
att(267,68).
att(269,143).
att(372,680).
att(437,354).
att(373,656).
att(332,523).
att(372,676).
att(375,658).
att(362,722).
att(359,734).
att(334,523).
att(378,648).
att(441,363).
att(269,126).
att(452,354).
att(197,207).
att(437,295).
att(267,89).
att(362,679).
att(446,357).
att(205,290).
att(205,281).
att(198,204).
att(454,318).
att(373,666).
att(198,220).
att(378,679).
att(447,363).
att(452,295).
att(288,149).
att(198,222).
att(454,242).
att(452,256).
att(378,611).
att(353,666).
att(372,625).
att(381,616).
att(447,306).
att(447,297).
att(378,603).
att(215,290).
att(446,308).
att(288,64).
att(448,306).
att(267,93).
att(373,630).
att(198,166).
att(353,619).
att(212,192).
att(353,613).
att(288,41).
att(373,635).
att(441,241).
att(212,207).
att(205,236).
att(272,44).
att(198,170).
att(212,217).
att(272,46).
att(381,635).
att(447,324).
att(208,240).
att(285,97).
att(441,260).
att(208,222).
att(452,244).
att(218,204).
att(319,724).
att(397,203).
att(397,200).
att(302,531).
att(301,521).
att(386,200).
att(321,734).
att(313,784).
att(305,576).
att(390,206).
att(294,555).
att(397,265).
att(317,696).
att(325,734).
att(325,721).
att(327,734).
att(305,523).
att(303,521).
att(292,578).
att(313,717).
att(388,239).
att(305,525).
att(327,740).
att(397,193).
att(329,731).
att(315,696).
att(402,155).
att(418,306).
att(409,354).
att(388,158).
att(400,176).
att(402,177).
att(402,189).
att(422,310).
att(323,722).
att(395,229).
att(323,721).
att(418,328).
att(325,689).
att(384,181).
att(321,613).
att(414,376).
att(322,616).
att(422,320).
att(400,108).
att(329,673).
att(395,156).
att(416,357).
att(411,304).
att(424,318).
att(202,79).
att(386,298).
att(400,324).
att(443,120).
att(305,676).
att(301,603).
att(446,158).
att(215,143).
att(393,382).
att(439,183).
att(446,156).
att(441,175).
att(447,160).
att(195,71).
att(309,666).
att(309,673).
att(390,308).
att(309,689).
att(197,46).
att(301,637).
att(296,609).
att(305,594).
att(444,183).
att(202,85).
att(386,326).
att(197,34).
att(198,48).
att(437,106).
att(198,34).
att(390,311).
att(439,120).
att(202,82).
att(397,306).
att(390,318).
att(447,183).
att(208,85).
att(215,66).
att(384,260).
att(319,787).
att(199,46).
att(319,781).
att(296,632).
att(202,37).
att(386,256).
att(400,273).
att(321,781).
att(393,311).
att(386,242).
att(388,247).
att(402,278).
att(393,330).
att(215,87).
att(309,626).
att(399,200).
att(319,711).
att(322,691).
att(393,242).
att(400,206).
att(301,585).
att(327,763).
att(301,581).
att(321,694).
att(402,209).
att(305,555).
att(309,553).
att(296,630).
att(390,276).
att(395,247).
att(255,281).
att(416,666).
att(253,287).
att(418,616).
att(246,201).
att(248,192).
att(321,91).
att(319,81).
att(407,686).
att(255,290).
att(250,214).
att(327,64).
att(259,266).
att(245,191).
att(422,609).
att(424,611).
att(246,287).
att(315,139).
att(424,594).
att(322,85).
att(245,211).
att(424,600).
att(255,192).
att(418,637).
att(248,234).
att(250,240).
att(405,600).
att(319,46).
att(414,680).
att(321,39).
att(327,95).
att(322,34).
att(411,606).
att(243,271).
att(246,214).
att(327,81).
att(414,670).
att(327,82).
att(245,234).
att(313,73).
att(405,635).
att(424,571).
att(350,765).
att(257,222).
att(418,556).
att(405,628).
att(325,33).
att(325,34).
att(252,168).
att(253,192).
att(346,787).
att(315,95).
att(424,555).
att(409,625).
att(346,763).
att(348,711).
att(332,768).
att(416,561).
att(245,104).
att(407,557).
att(348,701).
att(418,578).
att(420,578).
att(250,182).
att(414,632).
att(252,174).
att(338,787).
att(397,553).
att(395,556).
att(313,234).
att(424,694).
att(386,559).
att(292,46).
att(296,46).
att(418,768).
att(294,37).
att(322,172).
att(388,563).
att(319,124).
att(397,579).
att(321,126).
att(384,574).
att(327,182).
att(313,170).
att(322,112).
att(327,184).
att(409,720).
att(322,126).
att(325,174).
att(422,738).
att(416,768).
att(393,555).
att(416,731).
att(386,531).
att(420,658).
att(411,721).
att(386,521).
att(422,650).
att(325,109).
att(390,533).
att(395,574).
att(416,717).
att(322,136).
att(416,711).
att(393,571).
att(405,660).
att(315,135).
att(420,666).
att(420,673).
att(322,73).
att(245,261).
att(409,660).
att(411,648).
att(315,118).
att(395,535).
att(411,642).
att(279,207).
att(246,41).
att(372,784).
att(243,85).
att(268,170).
att(346,557).
att(272,232).
att(250,31).
att(288,192).
att(267,226).
att(338,619).
att(252,37).
att(336,609).
att(351,626).
att(372,714).
att(375,763).
att(343,628).
att(268,178).
att(378,784).
att(378,761).
att(350,553).
att(275,153).
att(348,556).
att(243,95).
att(267,163).
att(336,625).
att(332,567).
att(282,164).
att(268,129).
att(373,717).
att(272,185).
att(269,178).
att(371,727).
att(267,107).
att(343,557).
att(275,178).
att(334,557).
att(275,188).
att(347,571).
att(348,583).
att(346,522).
att(347,574).
att(378,704).
att(279,221).
att(373,768).
att(373,769).
att(343,585).
att(373,729).
att(268,137).
att(371,652).
att(343,579).
att(356,720).
att(282,180).
att(272,109).
att(332,579).
att(272,118).
att(332,581).
att(277,118).
att(334,574).
att(350,535).
att(348,529).
att(288,174).
att(336,585).
att(350,724).
att(350,727).
att(252,126).
att(245,118).
att(246,188).
att(259,172).
att(338,701).
att(252,121).
att(347,646).
att(416,533).
att(347,660).
att(246,137).
att(243,104).
att(350,656).
att(350,641).
att(405,523).
att(416,522).
att(248,141).
att(416,521).
att(336,736).
att(250,143).
att(257,129).
att(346,658).
att(411,531).
att(407,522).
att(259,112).
att(351,646).
att(246,66).
att(245,82).
att(332,642).
att(343,660).
att(248,68).
att(248,61).
att(248,64).
att(334,641).
att(267,264).
att(351,686).
att(350,676).
att(268,266).
att(259,135).
att(267,271).
att(252,66).
att(343,722).
att(338,654).
att(272,220).
att(347,600).
att(272,217).
att(268,240).
att(346,630).
att(243,62).
att(285,281).
att(255,69).
att(288,266).
att(336,686).
att(285,287).
att(259,64).
att(267,207).
att(351,596).
att(269,290).
att(245,91).
att(267,220).
att(338,680).
att(197,623).
att(452,648).
att(452,658).
att(202,612).
att(454,652).
att(441,721).
att(198,633).
att(268,493).
att(272,520).
att(215,661).
att(444,720).
att(205,592).
att(441,729).
att(446,701).
att(439,729).
att(446,714).
att(282,505).
att(356,182).
att(441,724).
att(267,519).
att(362,180).
att(197,612).
att(353,126).
att(437,658).
att(452,676).
att(353,129).
att(197,558).
att(301,281).
att(371,75).
att(301,264).
att(302,271).
att(353,118).
att(202,623).
att(353,121).
att(212,614).
att(218,614).
att(275,491).
att(285,514).
att(282,513).
att(378,137).
att(356,104).
att(447,721).
att(215,620).
att(446,738).
att(267,499).
att(288,515).
att(362,118).
att(285,511).
att(195,634).
att(218,601).
att(444,642).
att(362,64).
att(371,95).
att(301,211).
att(454,609).
att(353,136).
att(307,264).
att(373,61).
att(375,71).
att(307,266).
att(353,133).
att(307,262).
att(444,656).
att(215,623).
att(208,566).
att(356,131).
att(381,66).
att(359,136).
att(218,629).
att(299,264).
att(215,565).
att(215,566).
att(439,600).
att(353,62).
att(437,596).
att(305,201).
att(198,540).
att(372,46).
att(359,71).
att(446,666).
att(309,191).
att(208,588).
att(441,613).
att(439,603).
att(307,220).
att(296,274).
att(359,66).
att(381,95).
att(378,89).
att(372,236).
att(268,532).
att(353,266).
att(268,539).
att(269,582).
att(332,66).
att(378,214).
att(347,81).
att(268,526).
att(350,95).
att(350,81).
att(288,562).
att(362,266).
att(269,530).
att(338,34).
att(373,238).
att(269,532).
att(452,781).
att(343,91).
att(272,528).
att(334,97).
att(378,240).
att(351,37).
att(334,82).
att(381,226).
att(437,763).
att(454,704).
att(343,33).
att(372,184).
att(439,768).
att(275,541).
att(336,31).
att(269,540).
att(288,524).
att(336,37).
att(443,787).
att(336,48).
att(198,612).
att(444,761).
att(454,722).
att(205,671).
att(282,550).
att(279,545).
att(444,781).
att(378,182).
att(356,163).
att(359,166).
att(275,509).
att(195,677).
att(288,542).
att(362,166).
att(195,690).
att(285,544).
att(288,546).
att(443,711).
att(447,790).
att(301,79).
att(384,660).
att(296,136).
att(319,287).
att(301,68).
att(402,683).
att(305,149).
att(321,284).
att(400,683).
att(205,491).
att(215,514).
att(309,147).
att(393,736).
att(296,115).
att(208,497).
att(447,533).
att(321,191).
att(323,274).
att(323,281).
att(325,271).
att(325,284).
att(303,64).
att(384,673).
att(399,596).
att(322,204).
att(402,594).
att(395,656).
att(386,679).
att(393,660).
att(386,666).
att(393,656).
att(317,266).
att(325,192).
att(399,637).
att(296,87).
att(319,234).
att(390,632).
att(299,44).
att(399,635).
att(302,44).
att(305,83).
att(327,192).
att(319,228).
att(315,264).
att(322,240).
att(322,238).
att(388,613).
att(393,670).
att(292,71).
att(301,34).
att(395,670).
att(294,75).
att(399,563).
att(327,221).
att(303,39).
att(319,163).
att(388,639).
att(386,632).
att(327,228).
att(321,161).
att(402,567).
att(317,238).
att(395,600).
att(395,616).
att(294,97).
att(395,619).
att(199,530).
att(400,781).
att(199,526).
att(448,622).
att(197,550).
att(199,538).
att(195,542).
att(447,625).
att(448,626).
att(375,48).
att(454,551).
att(307,221).
att(452,556).
att(212,587).
att(205,524).
att(302,161).
att(199,588).
att(381,37).
att(215,577).
att(441,632).
att(301,178).
att(199,542).
att(399,701).
att(400,692).
att(452,589).
att(305,153).
att(202,543).
att(302,188).
att(402,696).
att(307,161).
att(294,240).
att(198,505).
att(446,637).
att(441,556).
att(390,768).
att(384,717).
att(199,503).
att(448,583).
att(218,501).
att(202,506).
att(202,501).
att(400,736).
att(197,516).
att(446,563).
att(205,506).
att(309,185).
att(390,691).
att(393,790).
att(212,541).
att(218,549).
att(390,720).
att(446,556).
att(208,503).
att(399,652).
att(199,519).
att(448,535).
att(399,656).
att(447,529).
att(388,721).
att(305,115).
att(400,648).
att(402,641).
att(386,738).
att(437,531).
att(307,112).
att(439,523).
att(208,513).
att(447,574).
att(218,510).
att(395,704).
att(397,694).
att(323,538).
att(397,39).
att(418,166).
att(418,153).
att(422,153).
att(313,582).
att(321,545).
att(393,95).
att(313,587).
att(393,91).
att(422,159).
att(411,228).
att(388,41).
att(395,97).
att(393,89).
att(424,159).
att(329,540).
att(411,184).
att(248,662).
att(323,541).
att(405,153).
att(250,681).
att(319,509).
att(424,186).
att(424,188).
att(407,153).
att(327,550).
att(245,671).
att(315,540).
att(245,687).
att(411,168).
att(245,684).
att(255,664).
att(322,494).
att(411,121).
att(420,121).
att(420,104).
att(323,505).
att(255,671).
att(321,511).
att(245,592).
att(257,677).
att(250,607).
att(319,512).
att(420,107).
att(315,547).
att(313,544).
att(313,548).
att(424,129).
att(416,129).
att(329,491).
att(327,519).
att(407,107).
att(321,498).
att(257,601).
att(422,139).
att(243,674).
att(416,186).
att(322,491).
att(424,139).
att(243,681).
att(322,495).
att(325,592).
att(309,494).
att(390,143).
att(386,126).
att(321,636).
att(292,504).
att(393,182).
att(393,178).
att(302,499).
att(313,662).
att(390,118).
att(307,511).
att(313,677).
att(322,623).
att(323,631).
att(296,498).
att(399,69).
att(390,64).
att(420,261).
att(317,560).
att(321,558).
att(319,562).
att(313,601).
att(388,137).
att(388,139).
att(327,633).
att(313,614).
att(393,124).
att(390,149).
att(395,118).
att(307,494).
att(309,499).
att(315,564).
att(390,97).
att(409,262).
att(407,284).
att(319,573).
att(322,582).
att(329,566).
att(388,69).
att(400,82).
att(409,287).
att(322,587).
att(400,89).
att(313,636).
att(393,137).
att(409,284).
att(418,226).
att(388,34).
att(399,34).
att(422,222).
att(405,204).
att(322,532).
att(407,207).
att(315,562).
att(395,64).
att(411,220).
att(411,201).
att(416,264).
att(322,538).
att(386,82).
att(313,564).
att(272,671).
att(272,684).
att(272,681).
att(243,542).
att(332,153).
att(348,182).
att(350,174).
att(351,188).
att(250,509).
att(268,664).
att(243,532).
att(267,674).
att(252,505).
att(346,136).
att(343,184).
att(279,690).
att(248,516).
att(348,129).
att(272,604).
att(285,677).
att(277,601).
att(257,508).
att(248,512).
att(267,610).
att(336,174).
att(269,661).
att(253,520).
att(268,558).
att(279,620).
att(338,131).
att(282,610).
att(248,496).
att(275,640).
att(272,633).
att(277,627).
att(250,495).
att(277,634).
att(268,634).
att(257,513).
att(338,112).
att(257,511).
att(269,591).
att(372,211).
att(371,204).
att(253,497).
att(348,79).
att(378,261).
att(253,498).
att(378,262).
att(372,204).
att(375,284).
att(282,638).
att(350,62).
att(275,554).
att(378,287).
att(288,629).
att(371,261).
att(267,566).
att(255,634).
att(253,634).
att(250,560).
att(348,284).
att(418,62).
att(243,591).
att(422,64).
att(407,133).
att(325,491).
att(411,139).
att(243,620).
att(243,617).
att(245,565).
att(351,290).
att(348,194).
att(253,564).
att(424,34).
att(405,66).
att(250,582).
att(255,558).
att(253,552).
att(416,68).
att(351,217).
att(407,64).
att(257,568).
att(411,71).
att(416,147).
att(313,497).
att(409,66).
att(243,627).
att(245,582).
att(347,262).
att(253,584).
att(346,163).
att(350,222).
att(348,240).
att(405,95).
att(334,211).
att(334,192).
att(407,81).
att(255,575).
att(255,577).
att(243,570).
att(351,232).
att(351,228).
att(245,540).
att(252,528).
att(346,222).
att(243,530).
att(346,174).
att(246,548).
att(347,170).
att(338,153).
att(405,48).
att(351,166).
att(250,543).
att(243,582).
att(246,539).
att(338,228).
att(414,97).
att(259,532).
att(672,827).
att(452,220).
att(448,271).
att(375,564).
att(272,51).
att(279,32).
att(439,284).
att(598,882).
att(675,814).
att(381,566).
att(378,558).
att(356,623).
att(336,492).
att(452,266).
att(669,795).
att(381,562).
att(665,825).
att(454,234).
att(672,755).
att(288,12).
att(595,870).
att(605,889).
att(668,776).
att(198,122).
att(373,577).
att(437,207).
att(454,240).
att(682,829).
att(668,785).
att(359,560).
att(593,884).
att(359,568).
att(282,51).
att(685,821).
att(441,192).
att(593,885).
att(452,192).
att(665,752).
att(277,16).
att(381,586).
att(288,57).
att(197,144).
att(373,536).
att(452,161).
att(605,861).
att(268,5).
att(668,712).
att(667,702).
att(672,782).
att(202,127).
att(602,863).
att(356,580).
att(372,541).
att(608,863).
att(356,587).
att(615,883).
att(685,743).
att(353,584).
att(668,699).
att(272,25).
att(372,547).
att(373,526).
att(439,221).
att(381,539).
att(678,776).
att(618,884).
att(446,207).
att(447,194).
att(593,862).
att(593,867).
att(678,785).
att(443,228).
att(595,862).
att(688,752).
att(195,130).
att(359,575).
att(593,870).
att(269,7).
att(197,63).
att(452,180).
att(301,664).
att(371,510).
att(669,702).
att(302,671).
att(454,172).
att(215,101).
att(373,545).
att(215,119).
att(678,718).
att(282,21).
att(282,26).
att(272,3).
att(195,142).
att(381,544).
att(443,161).
att(218,105).
att(378,541).
att(362,539).
att(682,864).
att(668,838).
att(347,547).
att(672,878).
att(645,699).
att(668,835).
att(655,778).
att(348,547).
att(707,484).
att(253,28).
att(702,488).
att(665,871).
att(688,864).
att(705,482).
att(644,709).
att(645,782).
att(667,873).
att(252,6).
att(288,119).
att(336,536).
att(351,550).
att(665,878).
att(665,879).
att(343,544).
att(699,481).
att(672,834).
att(373,681).
att(343,546).
att(275,70).
att(678,832).
att(347,501).
att(653,697).
att(255,4).
att(659,712).
att(348,502).
att(688,878).
att(715,481).
att(285,140).
att(350,508).
att(334,548).
att(257,20).
att(667,837).
att(336,543).
att(338,513).
att(347,520).
att(682,833).
att(338,516).
att(669,853).
att(267,38).
att(347,514).
att(688,838).
att(350,519).
att(350,517).
att(347,499).
att(454,262).
att(371,554).
att(452,287).
att(371,564).
att(267,53).
att(288,32).
att(338,495).
att(678,793).
att(332,517).
att(678,791).
att(268,56).
att(356,592).
att(372,560).
att(675,795).
att(675,797).
att(285,86).
att(685,858).
att(285,100).
att(678,803).
att(267,43).
att(381,629).
att(336,515).
att(301,540).
att(452,46).
att(452,48).
att(302,532).
att(402,221).
att(199,12).
att(400,226).
att(197,27).
att(452,37).
att(309,587).
att(439,85).
att(215,60).
att(205,13).
att(212,51).
att(605,751).
att(309,575).
att(390,207).
att(395,271).
att(218,57).
att(299,544).
att(301,550).
att(197,5).
att(303,538).
att(384,221).
att(599,776).
att(195,5).
att(309,545).
att(447,41).
att(212,17).
att(393,191).
att(202,25).
att(384,232).
att(197,7).
att(205,22).
att(215,14).
att(395,192).
att(446,93).
att(615,751).
att(598,702).
att(608,785).
att(402,168).
att(299,539).
att(443,46).
att(599,743).
att(208,25).
att(446,87).
att(384,168).
att(397,163).
att(199,6).
att(218,8).
att(390,184).
att(599,699).
att(299,508).
att(322,661).
att(400,172).
att(292,539).
att(602,707).
att(321,684).
att(301,508).
att(307,542).
att(608,702).
att(307,543).
att(618,785).
att(608,718).
att(386,153).
att(386,159).
att(390,159).
att(599,785).
att(218,27).
att(599,779).
att(294,524).
att(447,44).
att(390,151).
att(325,664).
att(319,614).
att(390,107).
att(317,604).
att(323,684).
att(321,604).
att(301,515).
att(303,501).
att(388,178).
att(329,681).
att(388,185).
att(321,607).
att(301,513).
att(397,166).
att(599,715).
att(296,548).
att(390,190).
att(294,548).
att(402,109).
att(444,151).
att(197,94).
att(437,185).
att(602,834).
att(381,513).
att(452,129).
att(362,503).
att(212,144).
att(598,856).
att(439,178).
att(202,65).
att(375,509).
att(598,854).
att(212,150).
att(372,520).
att(212,138).
att(198,100).
att(215,132).
att(205,67).
att(282,2).
att(441,190).
att(446,161).
att(593,832).
att(282,8).
att(356,542).
att(598,860).
att(356,548).
att(669,715).
att(199,145).
att(285,3).
att(195,78).
att(195,80).
att(373,519).
att(362,513).
att(303,620).
att(381,498).
att(299,629).
att(605,853).
att(444,184).
att(618,835).
att(198,47).
att(302,638).
att(292,687).
att(444,186).
att(447,185).
att(599,836).
att(439,107).
att(205,84).
att(439,104).
att(608,858).
att(443,115).
att(447,172).
att(296,677).
att(359,502).
att(309,604).
att(195,100).
att(309,601).
att(305,621).
att(448,133).
att(195,51).
att(359,493).
att(362,495).
att(439,149).
att(205,45).
att(400,274).
att(353,515).
att(598,812).
att(199,32).
att(305,636).
att(294,604).
att(294,617).
att(375,491).
att(444,104).
att(454,66).
att(381,496).
att(195,49).
att(309,623).
att(599,845).
att(599,843).
att(303,562).
att(384,287).
att(602,829).
att(202,57).
att(301,588).
att(296,554).
att(199,60).
att(397,271).
att(202,51).
att(386,271).
att(439,69).
att(598,757).
att(400,204).
att(444,137).
att(198,19).
att(444,147).
att(452,87).
att(598,743).
att(303,554).
att(305,568).
att(439,68).
att(292,623).
att(598,747).
att(218,38).
att(299,570).
att(399,266).
att(447,133).
att(299,566).
att(447,143).
att(390,281).
att(447,149).
att(397,504).
att(728,854).
att(388,513).
att(416,671).
att(325,76).
att(730,858).
att(737,833).
att(400,519).
att(388,507).
att(409,674).
att(422,601).
att(315,142).
att(294,7).
att(322,90).
att(726,837).
att(733,876).
att(388,504).
att(723,874).
att(726,831).
att(388,510).
att(424,601).
att(407,592).
att(397,513).
att(321,40).
att(407,607).
att(726,854).
att(424,623).
att(416,661).
att(723,838).
att(313,74).
att(393,504).
att(409,610).
att(317,55).
att(317,53).
att(416,633).
att(733,801).
att(418,568).
att(384,497).
att(752,481).
att(420,570).
att(397,498).
att(728,822).
att(424,568).
att(739,807).
att(424,565).
att(407,623).
att(739,795).
att(751,487).
att(386,499).
att(725,822).
att(315,92).
att(329,36).
att(424,552).
att(322,60).
att(414,617).
att(424,558).
att(735,814).
att(759,489).
att(416,558).
att(651,882).
att(407,558).
att(325,58).
att(420,580).
att(405,558).
att(730,743).
att(735,825).
att(322,17).
att(732,749).
att(327,54).
att(422,575).
att(321,15).
att(409,568).
att(739,816).
att(313,50).
att(730,752).
att(755,489).
att(315,47).
att(329,53).
att(753,486).
att(384,570).
att(397,564).
att(390,577).
att(703,753).
att(397,570).
att(393,621).
att(292,43).
att(605,202).
att(303,51).
att(299,12).
att(730,890).
att(446,495).
att(708,751).
att(302,13).
att(388,565).
att(605,195).
att(393,638).
att(615,288).
att(397,636).
att(700,825).
att(395,627).
att(395,640).
att(693,812).
att(739,889).
att(713,751).
att(303,15).
att(400,540).
att(292,54).
att(393,560).
att(393,562).
att(739,882).
att(726,889).
att(739,888).
att(301,23).
att(402,540).
att(388,577).
att(309,13).
att(726,884).
att(322,122).
att(399,549).
att(730,872).
att(390,541).
att(399,547).
att(730,875).
att(400,542).
att(730,880).
att(732,877).
att(384,536).
att(384,538).
att(703,697).
att(706,712).
att(730,879).
att(296,24).
att(399,542).
att(693,747).
att(386,526).
att(716,776).
att(723,888).
att(402,546).
att(700,785).
att(388,524).
att(695,745).
att(725,878).
att(292,12).
att(708,697).
att(710,699).
att(418,674).
att(710,702).
att(418,687).
att(728,834).
att(710,709).
att(390,503).
att(730,839).
att(737,873).
att(399,502).
att(303,5).
att(325,146).
att(424,684).
att(313,116).
att(313,127).
att(400,502).
att(327,138).
att(716,718).
att(294,21).
att(726,880).
att(728,871).
att(733,864).
att(294,28).
att(402,506).
att(649,791).
att(655,841).
att(414,517).
att(334,614).
att(655,856).
att(643,795).
att(338,591).
att(336,617).
att(257,92).
att(420,498).
att(336,592).
att(407,519).
att(246,99).
att(245,49).
att(643,801).
att(414,508).
att(645,819).
att(250,57).
att(348,552).
att(649,821).
att(655,809).
att(649,816).
att(407,491).
att(657,802).
att(250,60).
att(407,499).
att(346,568).
att(653,845).
att(343,617).
att(338,640).
att(338,627).
att(643,821).
att(414,518).
att(407,492).
att(268,122).
att(245,21).
att(332,565).
att(644,774).
att(332,566).
att(343,552).
att(347,582).
att(668,864).
att(771,483).
att(655,822).
att(332,564).
att(334,565).
att(678,889).
att(788,483).
att(250,11).
att(659,823).
att(649,752).
att(782,489).
att(252,12).
att(414,496).
att(259,58).
att(351,590).
att(682,890).
att(766,481).
att(246,25).
att(644,705).
att(243,14).
att(243,15).
att(644,699).
att(643,697).
att(766,488).
att(253,12).
att(655,749).
att(253,11).
att(649,788).
att(346,541).
att(277,113).
att(348,530).
att(649,770).
att(657,757).
att(665,866).
att(267,119).
att(267,116).
att(252,26).
att(659,759).
att(350,530).
att(315,11).
att(323,18).
att(405,590).
att(246,119).
att(317,29).
att(733,757).
att(317,30).
att(414,577).
att(653,890).
att(733,755).
att(651,863).
att(737,755).
att(649,870).
att(422,524).
att(422,538).
att(659,882).
att(313,52).
att(329,15).
att(726,753).
att(647,889).
att(313,54).
att(327,11).
att(424,540).
att(645,881).
att(657,865).
att(243,122).
att(411,542).
att(730,702).
att(250,150).
att(418,544).
att(418,545).
att(259,125).
att(259,127).
att(259,123).
att(319,20).
att(319,2).
att(407,536).
att(659,861).
att(647,868).
att(653,883).
att(726,785).
att(647,861).
att(726,788).
att(723,759).
att(329,25).
att(644,873).
att(645,863).
att(723,755).
att(245,150).
att(321,3).
att(645,861).
att(422,545).
att(253,148).
att(243,144).
att(651,832).
att(407,546).
att(649,839).
att(253,132).
att(255,146).
att(733,698).
att(252,72).
att(259,146).
att(659,874).
att(350,690).
att(723,774).
att(733,766).
att(424,510).
att(327,4).
att(332,690).
att(424,492).
att(338,610).
att(250,92).
att(350,612).
att(255,63).
att(407,507).
att(348,604).
att(348,620).
att(418,516).
att(416,506).
att(338,661).
att(338,662).
att(643,843).
att(336,684).
att(350,604).
att(259,65).
att(338,677).
att(424,514).
att(723,699).
att(313,6).
att(643,860).
att(373,122).
att(750,699).
att(777,872).
att(346,6).
att(372,148).
att(667,299).
att(789,866).
att(346,20).
att(668,302).
att(756,782).
att(372,142).
att(744,749).
att(678,371).
att(685,351).
att(742,751).
att(801,487).
att(336,11).
att(746,751).
att(665,371).
att(336,16).
att(772,864).
att(338,8).
att(373,148).
att(373,150).
att(338,9).
att(672,292).
att(777,840).
att(668,317).
att(353,122).
att(682,371).
att(762,869).
att(741,774).
att(786,877).
att(688,375).
att(767,862).
att(772,877).
att(767,861).
att(688,359).
att(805,487).
att(789,871).
att(780,862).
att(767,870).
att(746,766).
att(772,872).
att(682,296).
att(667,250).
att(452,617).
att(672,315).
att(783,835).
att(332,7).
att(356,150).
att(668,245).
att(372,94).
att(373,65).
att(381,78).
att(688,292).
att(775,831).
att(381,63).
att(443,671).
att(334,4).
att(744,705).
att(669,292).
att(668,282).
att(783,854).
att(373,92).
att(452,627).
att(353,77).
att(780,858).
att(597,397).
att(685,323).
att(762,840).
att(608,441).
att(777,809).
att(439,592).
att(605,452).
att(447,681).
att(764,840).
att(593,447).
att(685,317).
att(764,837).
att(371,99).
att(381,96).
att(378,88).
att(447,690).
att(595,447).
att(332,78).
att(499,385).
att(346,36).
att(346,38).
att(347,99).
att(498,355).
att(750,793).
att(496,361).
att(657,315).
att(756,860).
att(758,843).
att(665,441).
att(500,370).
att(500,366).
att(348,90).
att(495,366).
att(495,368).
att(649,250).
att(643,250).
att(818,715).
att(338,80).
att(351,84).
att(498,335).
att(497,340).
att(499,355).
att(653,252).
att(685,446).
att(682,439).
att(682,448).
att(497,345).
att(750,823).
att(754,803).
att(675,402).
att(348,43).
att(655,246).
att(668,422).
att(688,454).
att(659,243).
att(758,807).
att(351,40).
att(338,99).
att(500,339).
att(643,288).
att(760,801).
att(645,208).
att(494,392).
att(348,59).
att(858,486).
att(346,12).
att(347,55).
att(647,208).
att(685,386).
att(343,32).
att(657,267).
att(336,45).
att(348,52).
att(760,823).
att(334,49).
att(495,413).
att(746,802).
att(847,490).
att(672,393).
att(669,400).
att(495,401).
att(665,424).
att(497,391).
att(672,351).
att(786,885).
att(338,12).
att(494,352).
att(372,127).
att(498,389).
att(653,215).
att(750,766).
att(685,418).
att(688,414).
att(756,749).
att(347,15).
att(741,819).
att(668,381).
att(841,487).
att(348,11).
att(678,351).
att(843,482).
att(495,385).
att(688,418).
att(496,385).
att(348,10).
att(742,822).
att(351,14).
att(494,344).
att(667,347).
att(841,483).
att(350,16).
att(443,502).
att(362,3).
att(780,707).
att(448,542).
att(703,839).
att(605,309).
att(716,874).
att(783,699).
att(780,698).
att(378,6).
att(294,130).
att(356,30).
att(302,74).
att(307,148).
att(825,490).
att(446,539).
att(615,381).
att(789,697).
att(713,834).
att(816,482).
att(301,92).
att(301,99).
att(384,684).
att(299,96).
att(595,255).
att(292,150).
att(402,612).
att(812,488).
att(693,876).
att(706,856).
att(303,63).
att(605,313).
att(439,506).
att(446,542).
att(353,20).
att(693,880).
att(764,718).
att(353,3).
att(356,9).
att(719,832).
att(296,142).
att(309,67).
att(703,835).
att(700,833).
att(599,296).
att(618,302).
att(439,502).
att(441,509).
att(447,550).
att(597,279).
att(301,43).
att(303,98).
att(595,272).
att(299,47).
att(602,243).
att(703,797).
att(710,860).
att(595,285).
att(605,257).
att(386,617).
att(597,277).
att(400,640).
att(400,627).
att(716,851).
att(608,248).
att(388,604).
att(395,684).
att(439,511).
att(598,277).
att(608,246).
att(388,612).
att(388,614).
att(296,80).
att(710,832).
att(448,496).
att(397,623).
att(713,795).
att(713,791).
att(605,285).
att(706,827).
att(301,60).
att(703,821).
att(301,59).
att(597,218).
att(395,614).
att(608,275).
att(439,496).
att(598,208).
att(608,288).
att(615,252).
att(393,601).
att(402,568).
att(615,257).
att(302,60).
att(294,88).
att(599,255).
att(294,98).
att(602,390).
att(602,399).
att(780,809).
att(353,88).
att(375,36).
att(444,610).
att(615,454).
att(373,32).
att(615,441).
att(672,268).
att(786,791).
att(373,38).
att(667,198).
att(599,448).
att(447,592).
att(439,633).
att(618,439).
att(439,623).
att(356,94).
att(598,424).
att(448,614).
att(597,393).
att(667,279).
att(669,259).
att(775,791).
att(443,636).
att(595,393).
att(452,586).
att(706,887).
att(373,58).
att(439,570).
att(439,568).
att(672,202).
att(441,560).
att(764,807).
att(441,570).
att(685,277).
att(356,49).
att(593,414).
att(789,814).
att(444,623).
att(447,631).
att(362,11).
att(775,771).
att(301,125).
att(381,24).
att(797,483).
att(301,101).
att(772,774).
att(716,890).
att(439,580).
att(444,564).
att(446,565).
att(719,887).
att(795,483).
att(372,27).
att(608,332).
att(795,485).
att(353,60).
att(708,867).
att(777,766).
att(441,582).
att(700,889).
att(302,122).
att(669,215).
att(443,584).
att(595,347).
att(378,12).
att(443,590).
att(700,890).
att(447,558).
att(703,885).
att(618,424).
att(448,526).
att(597,303).
att(783,766).
att(775,709).
att(599,371).
att(439,540).
att(615,348).
att(708,873).
att(444,580).
att(373,22).
att(371,4).
att(693,886).
att(693,889).
att(608,381).
att(378,30).
att(764,759).
att(764,753).
att(615,350).
att(767,757).
att(441,536).
att(764,752).
att(735,399).
att(508,342).
att(703,215).
att(511,450).
att(710,279).
att(519,461).
att(515,460).
att(399,56).
att(516,456).
att(519,463).
att(792,802).
att(402,54).
att(708,205).
att(798,795).
att(723,437).
att(512,445).
att(723,447).
att(512,442).
att(395,86).
att(792,851).
att(388,40).
att(800,841).
att(397,60).
att(516,440).
att(804,747).
att(730,343).
att(395,51).
att(800,819).
att(716,212).
att(399,16).
att(713,199).
att(400,16).
att(515,438).
att(693,282).
att(796,814).
att(808,759).
att(388,55).
att(395,49).
att(725,351).
att(735,338).
att(418,116).
att(813,889).
att(511,474).
att(506,349).
att(876,490).
att(830,866).
att(502,339).
att(806,788).
att(792,752).
att(875,487).
att(507,377).
att(424,127).
att(512,466).
att(424,101).
att(732,375).
att(739,334).
att(507,383).
att(830,868).
att(739,332).
att(506,342).
att(726,350).
att(804,745).
att(506,335).
att(388,13).
att(512,462).
att(810,776).
att(505,339).
att(509,349).
att(728,294).
att(384,27).
att(518,480).
att(730,299).
att(407,125).
att(828,873).
att(792,778).
att(513,460).
att(516,467).
att(739,375).
att(400,20).
att(512,455).
att(732,302).
att(799,743).
att(830,874).
att(514,469).
att(732,296).
att(806,698).
att(512,457).
att(739,353).
att(393,12).
att(520,466).
att(820,873).
att(393,10).
att(824,865).
att(448,26).
att(713,373).
att(710,371).
att(855,699).
att(509,423).
att(447,21).
att(794,865).
att(855,718).
att(598,682).
att(706,307).
att(713,372).
att(880,487).
att(857,705).
att(880,486).
att(808,871).
att(400,138).
att(597,685).
att(399,134).
att(879,484).
att(386,122).
att(598,672).
att(716,372).
att(439,29).
att(859,718).
att(593,647).
att(510,415).
att(800,882).
att(501,389).
att(599,723).
att(804,865).
att(608,643).
att(695,347).
att(806,837).
att(794,875).
att(390,63).
att(513,479).
att(508,401).
att(386,148).
att(605,682).
att(384,138).
att(713,307).
att(512,480).
att(598,595).
att(393,105).
att(850,782).
att(708,329).
att(503,385).
att(444,28).
att(693,375).
att(444,25).
att(708,315).
att(502,352).
att(852,782).
att(877,486).
att(446,23).
att(593,672).
att(608,667).
att(846,698).
att(792,839).
att(794,831).
att(509,456).
att(703,257).
att(700,246).
att(713,322).
att(732,448).
att(713,327).
att(708,248).
att(504,431).
att(507,456).
att(725,439).
att(810,854).
att(400,86).
att(849,715).
att(501,417).
att(390,77).
att(402,88).
att(444,20).
att(615,668).
att(798,837).
att(397,98).
att(733,452).
att(792,841).
att(400,49).
att(400,36).
att(400,45).
att(507,445).
att(384,98).
att(792,853).
att(806,805).
att(737,448).
att(402,36).
att(719,255).
att(739,454).
att(799,837).
att(800,835).
att(393,74).
att(501,413).
att(693,329).
att(732,400).
att(808,801).
att(810,793).
att(393,70).
att(615,602).
att(708,285).
att(716,257).
att(708,279).
att(725,393).
att(390,96).
att(710,315).
att(618,602).
att(388,96).
att(756,886).
att(817,752).
att(418,11).
att(493,423).
att(497,438).
att(758,882).
att(828,751).
att(492,417).
att(737,199).
att(737,218).
att(760,881).
att(409,51).
att(414,49).
att(818,803).
att(414,43).
att(414,45).
att(491,425).
att(817,816).
att(655,338).
att(416,15).
att(497,428).
att(347,127).
att(346,140).
att(813,759).
att(744,887).
att(813,753).
att(411,24).
att(746,882).
att(760,870).
att(492,398).
att(659,334).
att(659,343).
att(409,10).
att(756,889).
att(750,861).
att(422,24).
att(498,408).
att(818,823).
att(754,885).
att(659,346).
att(494,457).
att(499,480).
att(499,477).
att(644,321).
att(647,307).
att(742,867).
att(824,702).
att(494,450).
att(758,879).
att(828,712).
att(515,331).
att(813,785).
att(813,766).
att(348,146).
att(655,375).
att(407,28).
att(643,294).
att(496,462).
att(420,2).
att(659,362).
att(748,875).
att(334,122).
att(657,371).
att(643,302).
att(409,22).
att(824,766).
att(644,294).
att(422,7).
att(815,776).
att(830,718).
att(338,123).
att(346,88).
att(347,74).
att(811,715).
att(346,90).
att(811,718).
att(647,325).
att(741,878).
att(742,875).
att(416,5).
att(347,78).
att(498,457).
att(756,835).
att(744,872).
att(332,132).
att(497,456).
att(492,434).
att(492,435).
att(651,329).
att(744,880).
att(493,433).
att(496,456).
att(813,702).
att(496,451).
att(338,140).
att(351,65).
att(414,29).
att(500,458).
att(645,303).
att(491,433).
att(645,305).
att(653,356).
att(492,433).
att(643,323).
att(409,9).
att(748,832).
att(395,20).
att(826,837).
att(800,702).
att(733,303).
att(512,370).
att(830,835).
att(384,5).
att(794,715).
att(405,142).
att(513,364).
att(519,398).
att(516,380).
att(833,486).
att(386,1).
att(492,477).
att(514,383).
att(511,365).
att(818,865).
att(407,144).
att(739,292).
att(737,301).
att(422,78).
att(517,368).
att(416,127).
att(424,67).
att(836,488).
att(733,356).
att(726,294).
att(824,876).
att(386,20).
att(723,362).
att(831,485).
att(726,292).
att(405,78).
att(494,466).
att(728,243).
att(835,489).
att(644,402).
att(813,840).
att(497,476).
att(730,257).
att(420,96).
att(405,76).
att(513,340).
att(649,443).
att(799,709).
att(407,72).
att(422,99).
att(514,364).
att(815,833).
att(830,851).
att(732,253).
att(723,301).
att(818,879).
att(495,474).
att(393,8).
att(824,835).
att(830,860).
att(644,447).
att(405,99).
att(516,429).
att(728,282).
att(824,801).
att(519,440).
att(519,442).
att(518,438).
att(518,434).
att(518,435).
att(657,447).
att(730,275).
att(647,448).
att(644,388).
att(643,402).
att(511,410).
att(409,96).
att(830,809).
att(644,395).
att(645,439).
att(818,831).
att(813,791).
att(424,11).
att(723,267).
att(516,398).
att(418,51).
att(828,814).
att(405,47).
att(657,384).
att(839,489).
att(519,419).
att(839,490).
att(840,483).
att(422,53).
att(409,45).
att(659,390).
att(828,819).
att(644,418).
att(653,443).
att(424,60).
att(514,398).
att(756,315).
att(750,253).
att(649,599).
att(653,668).
att(655,688).
att(742,292).
att(526,364).
att(540,396).
att(665,815).
att(524,352).
att(540,392).
att(657,678).
att(665,813).
att(544,471).
att(678,826).
att(532,389).
att(539,391).
att(530,340).
att(539,394).
att(889,488).
att(750,288).
att(549,471).
att(750,285).
att(549,475).
att(545,466).
att(667,786).
att(526,335).
att(655,605).
att(756,250).
att(756,246).
att(786,447).
att(546,477).
att(546,476).
att(657,602).
att(541,456).
att(645,618).
att(775,437).
att(546,474).
att(659,605).
att(657,598).
att(668,710).
att(672,772).
att(750,215).
att(777,416).
att(758,282).
att(682,750).
att(675,780).
att(750,205).
att(688,756).
att(772,395).
att(524,404).
att(746,248).
att(538,406).
att(538,401).
att(890,484).
att(783,411).
att(857,884).
att(777,334).
att(859,886).
att(667,730).
att(668,723).
att(754,202).
att(775,338).
att(780,420).
att(789,414).
att(883,483).
att(859,881).
att(526,396).
att(741,269).
att(672,706).
att(532,398).
att(678,700).
att(758,199).
att(530,368).
att(775,416).
att(536,394).
att(772,409).
att(541,479).
att(538,387).
att(750,351).
att(540,463).
att(588,331).
att(645,706).
att(647,695).
att(655,777).
att(532,455).
att(746,386).
att(651,706).
att(813,277).
att(744,400).
att(828,202).
att(651,710).
att(760,405).
att(524,431).
att(818,253).
att(830,195).
att(815,267).
att(659,772).
att(754,393).
att(530,419).
att(741,409).
att(741,411).
att(754,351).
att(536,440).
att(657,695).
att(756,351).
att(524,427).
att(534,431).
att(532,438).
att(817,202).
att(818,285).
att(540,433).
att(540,438).
att(746,418).
att(577,340).
att(536,478).
att(750,307).
att(756,353).
att(575,331).
att(582,365).
att(649,655).
att(647,649).
att(760,356).
att(573,339).
att(657,737).
att(758,381).
att(530,459).
att(754,334).
att(590,349).
att(655,653).
att(756,292).
att(536,467).
att(750,327).
att(667,830).
att(741,359).
att(750,315).
att(645,669).
att(754,303).
att(647,667).
att(685,846).
att(528,457).
att(539,471).
att(655,659).
att(587,349).
att(536,462).
att(524,460).
att(758,309).
att(754,359).
att(540,465).
att(672,849).
att(659,643).
att(665,808).
att(590,331).
att(716,444).
att(844,851).
att(452,49).
att(842,854).
att(452,45).
att(544,344).
att(597,762).
att(713,437).
att(780,259).
att(842,847).
att(448,100).
att(842,843).
att(852,853).
att(605,748).
att(719,446).
att(437,90).
att(504,470).
att(716,443).
att(846,851).
att(547,365).
att(615,811).
att(508,473).
att(618,815).
att(846,856).
att(508,474).
att(850,835).
att(550,366).
att(855,847).
att(772,253).
att(767,317).
att(685,597).
att(550,349).
att(599,813).
att(506,456).
att(602,789).
att(452,60).
att(780,272).
att(852,802).
att(506,455).
att(504,459).
att(716,400).
att(444,92).
att(598,695).
att(444,100).
att(505,458).
att(597,703).
att(706,411).
att(439,42).
att(446,98).
att(507,464).
att(786,269).
att(849,853).
att(437,32).
att(693,441).
att(501,435).
att(767,250).
att(767,259).
att(443,43).
att(550,337).
att(507,463).
att(700,384).
att(764,252).
att(713,411).
att(780,205).
att(443,12).
att(806,890).
att(863,488).
att(448,53).
att(545,389).
att(545,383).
att(710,424).
att(842,816).
att(545,385).
att(806,886).
att(864,488).
att(437,55).
att(706,346).
att(598,733).
att(857,751).
att(862,489).
att(713,424).
att(857,759).
att(547,408).
att(716,414).
att(780,195).
att(857,757).
att(846,819).
att(861,487).
att(446,36).
att(862,482).
att(862,481).
att(446,50).
att(618,762).
att(846,825).
att(850,793).
att(608,695).
att(439,59).
att(502,472).
att(700,422).
att(501,476).
att(850,802).
att(861,485).
att(452,29).
att(794,888).
att(400,123).
att(602,726).
att(544,361).
att(595,659).
att(794,889).
att(855,788).
att(444,59).
att(547,385).
att(866,484).
att(810,867).
att(505,473).
att(866,485).
att(448,11).
att(794,890).
att(808,862).
att(437,17).
att(597,659).
att(504,476).
att(439,10).
att(441,17).
att(446,53).
att(541,342).
att(550,391).
att(454,22).
att(541,339).
att(608,726).
att(810,863).
att(439,17).
att(598,659).
att(693,409).
att(708,373).
att(593,732).
att(548,366).
att(441,16).
att(502,462).
att(550,383).
att(439,11).
att(541,333).
att(695,418).
att(798,890).
att(452,122).
att(454,123).
att(667,643).
att(857,869).
att(545,419).
att(844,887).
att(669,730).
att(842,883).
att(667,645).
att(672,733).
att(780,351).
att(548,442).
att(780,348).
att(859,869).
att(675,728).
att(764,407).
att(741,199).
att(688,713).
att(767,405).
att(546,436).
att(541,403).
att(597,804).
att(844,865).
att(598,806).
att(668,665).
att(764,334).
att(437,119).
att(544,401).
att(543,412).
att(852,886).
att(441,116).
att(542,410).
att(685,726).
att(850,881).
att(675,644).
att(439,119).
att(597,849).
att(855,861).
att(548,415).
att(780,334).
att(848,864).
att(783,303).
att(849,865).
att(842,873).
att(532,341).
att(547,469).
att(544,453).
att(846,872).
att(544,450).
att(547,464).
att(672,678).
att(762,362).
att(777,323).
att(844,878).
att(532,344).
att(534,337).
att(762,359).
att(859,836).
att(852,866).
att(447,125).
att(848,873).
att(540,340).
att(618,848).
att(546,465).
att(850,861).
att(532,337).
att(547,462).
att(618,846).
att(789,294).
att(598,830).
att(685,659).
att(859,840).
att(599,859).
att(665,678).
att(539,335).
att(595,796).
att(602,850).
att(855,872).
att(540,331).
att(542,453).
att(549,459).
att(852,861).
att(842,839).
att(706,448).
att(857,845).
att(539,333).
att(545,436).
att(857,841).
att(447,67).
att(448,80).
att(439,80).
att(543,440).
att(672,595).
att(675,618).
att(437,74).
att(783,329).
att(454,92).
att(857,856).
att(844,833).
att(767,294).
att(546,453).
att(789,313).
att(439,74).
att(602,800).
att(669,685).
att(550,451).
att(447,142).
att(447,138).
att(568,438).
att(792,332).
att(796,334).
att(808,375).
att(808,362).
att(730,855).
att(602,103).
att(605,102).
att(716,725).
att(725,848).
att(799,409).
att(719,733).
att(708,655).
att(552,415).
att(605,117).
att(792,416).
att(568,427).
att(700,733).
att(800,407).
att(850,202).
att(608,120).
att(570,421).
att(728,810).
att(806,296).
att(703,669).
att(568,426).
att(794,375).
att(739,848).
att(615,114).
att(706,675).
att(726,859).
att(568,408).
att(695,726).
att(798,378).
att(804,317).
att(710,672).
att(728,824).
att(719,598).
att(800,309).
att(737,806).
att(558,455).
att(725,811).
att(810,315).
att(570,459).
att(723,849).
att(810,313).
att(713,667).
att(808,327).
att(554,432).
att(621,335).
att(739,792).
att(794,302).
att(723,857).
att(810,319).
att(708,593).
att(810,317).
att(568,451).
att(733,820).
att(824,454).
att(710,597).
att(725,744).
att(739,824).
att(554,421).
att(568,440).
att(798,329).
att(810,252).
att(564,421).
att(719,593).
att(810,245).
att(725,760).
att(799,307).
att(806,443).
att(857,253).
att(780,599).
att(806,439).
att(855,257).
att(780,618).
att(849,303).
att(627,364).
att(605,210).
att(857,246).
att(634,392).
att(719,817).
att(786,605).
att(608,216).
att(598,239).
att(608,193).
att(859,257).
att(570,476).
att(789,608).
att(852,303).
att(767,682).
att(570,479).
att(595,158).
att(564,467).
att(848,268).
att(855,288).
att(593,152).
att(636,368).
att(597,162).
att(568,471).
att(636,355).
att(605,235).
att(808,386).
att(597,167).
att(703,775).
att(566,475).
att(621,361).
att(695,818).
att(716,748).
att(844,252).
att(605,224).
att(560,463).
att(700,760).
att(850,319).
att(710,775).
att(792,390).
att(848,198).
att(804,418).
att(703,693).
att(792,386).
att(636,419).
att(794,400).
att(605,169).
att(627,413).
att(597,177).
att(794,390).
att(629,410).
att(857,212).
att(615,223).
att(608,160).
att(719,786).
att(846,272).
att(621,426).
att(615,231).
att(618,233).
att(608,165).
att(615,239).
att(857,198).
att(608,154).
att(700,767).
att(713,695).
att(703,735).
att(792,418).
att(638,401).
att(794,424).
att(597,117).
att(634,404).
att(636,406).
att(703,732).
att(554,476).
att(621,410).
att(598,108).
att(796,411).
att(638,392).
att(846,198).
att(564,477).
att(552,478).
att(848,215).
att(598,110).
att(708,732).
att(850,285).
att(587,428).
att(582,412).
att(725,597).
att(587,429).
att(647,796).
att(811,356).
att(735,651).
att(584,398).
att(649,804).
att(657,844).
att(735,657).
att(813,359).
att(659,859).
att(737,649).
att(586,394).
att(651,806).
att(737,657).
att(815,362).
att(739,643).
att(586,396).
att(725,682).
att(817,373).
att(647,820).
att(811,305).
att(733,685).
att(733,688).
att(528,476).
att(735,675).
att(530,474).
att(577,355).
att(587,401).
att(728,593).
att(739,682).
att(524,480).
att(643,813).
att(730,608).
att(653,846).
att(725,615).
att(653,849).
att(655,815).
att(588,457).
att(647,754).
att(584,440).
att(645,748).
att(653,824).
att(824,253).
att(828,253).
att(587,449).
att(655,820).
att(582,436).
att(828,245).
att(645,818).
att(590,445).
att(828,248).
att(737,615).
att(645,828).
att(750,446).
att(645,815).
att(824,275).
att(756,399).
att(588,431).
att(750,409).
att(575,408).
att(649,780).
att(830,285).
att(746,437).
att(760,388).
att(573,412).
att(758,402).
att(746,444).
att(645,760).
att(645,754).
att(728,789).
att(813,448).
att(730,762).
att(806,279).
att(728,786).
att(813,447).
att(800,259).
att(815,448).
att(735,748).
att(570,339).
att(693,602).
att(799,325).
att(739,746).
att(820,393).
att(732,783).
att(737,758).
att(580,469).
att(817,444).
att(733,817).
att(800,315).
att(568,337).
att(568,345).
att(580,463).
att(817,443).
att(725,783).
att(733,777).
att(565,344).
att(733,772).
att(798,198).
att(806,208).
att(730,703).
att(737,764).
att(735,786).
att(796,269).
att(799,255).
att(808,205).
att(580,458).
att(830,405).
att(723,760).
att(824,386).
att(723,756).
att(573,435).
att(725,713).
att(723,708).
att(644,859).
att(792,198).
att(730,737).
att(566,406).
att(566,401).
att(552,361).
att(739,716).
att(796,202).
att(737,708).
att(796,218).
att(817,405).
att(577,471).
att(794,208).
att(565,403).
att(815,420).
att(794,205).
att(723,789).
att(725,726).
att(726,693).
att(564,365).
att(824,372).
att(733,737).
att(811,338).
att(554,331).
att(558,365).
att(565,392).
att(643,844).
att(570,370).
att(811,414).
att(644,855).
att(644,844).
att(818,416).
att(653,231).
att(655,233).
att(645,160).
att(668,291).
att(748,700).
att(645,158).
att(758,764).
att(607,453).
att(668,310).
att(601,455).
att(657,223).
att(657,224).
att(744,758).
att(758,777).
att(655,224).
att(653,193).
att(645,233).
att(591,467).
att(592,464).
att(675,291).
att(617,453).
att(644,117).
att(591,464).
att(661,340).
att(668,311).
att(644,111).
att(645,183).
att(741,767).
att(748,732).
att(645,177).
att(741,762).
att(614,453).
att(685,376).
att(604,432).
att(655,165).
att(659,165).
att(649,183).
att(672,369).
att(746,775).
att(669,374).
att(746,789).
att(748,693).
att(620,436).
att(643,189).
att(610,474).
att(610,471).
att(682,298).
att(775,855).
att(675,328).
att(668,247).
att(681,391).
att(651,114).
att(688,298).
att(645,189).
att(620,476).
att(651,110).
att(610,466).
att(662,380).
att(667,276).
att(672,258).
att(667,289).
att(789,849).
att(653,102).
att(741,725).
att(685,316).
att(756,655).
att(668,289).
att(678,251).
att(657,117).
att(688,312).
att(742,725).
att(678,244).
att(612,476).
att(610,455).
att(617,470).
att(662,358).
att(687,342).
att(688,318).
att(687,419).
att(818,728).
att(644,283).
att(687,421).
att(756,849).
att(684,429).
att(657,324).
att(735,103).
att(674,403).
att(649,242).
att(828,644).
att(651,260).
att(651,256).
att(657,318).
att(681,417).
att(690,398).
att(653,291).
att(662,421).
att(677,394).
att(653,298).
att(741,855).
att(647,286).
att(754,806).
att(657,254).
att(756,810).
att(671,377).
att(746,844).
att(671,387).
att(760,794).
att(671,385).
att(748,808).
att(750,800).
att(677,366).
att(754,852).
att(687,394).
att(645,241).
att(661,467).
att(824,615).
att(754,830).
att(744,792).
att(674,435).
att(674,445).
att(811,675).
att(677,433).
att(742,804).
att(651,203).
att(746,794).
att(653,242).
att(754,796).
att(818,655).
att(817,669).
att(684,445).
att(750,772).
att(645,224).
att(653,203).
att(645,229).
att(748,777).
att(662,449).
att(818,618).
att(655,206).
att(681,438).
att(746,818).
att(746,811).
att(664,445).
att(653,265).
att(754,811).
att(643,227).
att(664,432).
att(664,431).
att(690,421).
att(746,824).
att(780,706).
att(595,320).
att(855,346).
att(602,297).
att(633,432).
att(775,733).
att(772,728).
att(668,117).
att(605,310).
att(786,695).
att(849,388).
att(621,460).
att(685,152).
att(764,775).
att(608,310).
att(621,458).
att(640,445).
att(621,455).
att(859,346).
att(685,169).
att(688,154).
att(789,708).
att(764,777).
att(633,427).
att(638,433).
att(672,111).
att(597,242).
att(638,431).
att(780,728).
att(633,417).
att(669,114).
att(634,442).
att(783,725).
att(844,346).
att(627,429).
att(605,330).
att(672,108).
att(777,653).
att(636,435).
att(672,117).
att(849,414).
att(618,297).
att(608,326).
att(850,405).
att(627,426).
att(599,308).
att(599,295).
att(623,401).
att(623,403).
att(767,716).
att(685,176).
att(614,365).
att(713,848).
att(614,358).
att(602,254).
att(713,842).
att(599,249).
att(602,242).
att(629,466).
att(708,799).
att(716,844).
att(780,643).
att(602,251).
att(780,644).
att(592,352).
att(621,479).
att(620,340).
att(764,739).
att(850,332).
att(634,475).
att(852,348).
att(640,464).
att(855,362).
att(772,653).
att(789,651).
att(591,358).
att(633,459).
att(638,464).
att(595,196).
att(713,804).
att(638,469).
att(710,810).
att(855,329).
att(595,213).
att(638,461).
att(716,799).
att(631,450).
att(713,808).
att(627,453).
att(598,203).
att(777,593).
att(850,353).
att(615,249).
att(605,276).
att(859,329).
att(591,333).
att(599,260).
att(772,688).
att(599,254).
att(700,804).
att(767,659).
att(618,251).
att(767,657).
att(607,385).
att(607,377).
att(748,593).
att(748,608).
att(607,387).
att(741,644).
att(777,830).
att(756,682).
att(592,406).
att(688,242).
att(675,276).
att(780,848).
att(668,235).
att(633,478).
att(775,746).
att(633,475).
att(772,750).
att(668,231).
att(604,365).
att(604,358).
att(783,820).
att(668,237).
att(604,352).
att(754,595).
att(601,349).
att(629,472).
att(688,283).
att(767,796).
att(789,828).
att(685,276).
att(592,377).
att(620,358).
att(612,377).
att(789,813).
att(678,216).
att(688,278).
att(746,688).
att(669,283).
att(767,806).
att(591,387).
att(767,798).
att(844,437).
att(665,155).
att(597,357).
att(775,780).
att(780,760).
att(607,419).
att(859,397).
att(688,193).
att(678,235).
att(685,203).
att(601,425).
att(848,444).
att(780,815).
att(665,233).
att(665,235).
att(602,363).
att(842,388).
att(595,306).
att(602,360).
att(614,429).
att(608,357).
att(850,444).
att(682,223).
att(859,420).
att(604,403).
att(614,421).
att(777,713).
att(685,223).
att(620,413).
att(685,225).
att(764,754).
att(789,762).
att(846,390).
att(607,396).
att(592,417).
att(789,772).
att(713,280).
att(599,561).
att(599,557).
att(857,618).
att(719,286).
att(849,645).
att(615,637).
att(852,655).
att(710,244).
att(800,859).
att(700,283).
att(695,254).
att(800,842).
att(710,203).
att(599,583).
att(593,523).
att(602,571).
att(602,574).
att(706,237).
att(602,576).
att(713,206).
att(842,608).
att(602,583).
att(693,286).
att(693,289).
att(719,210).
att(597,522).
att(796,826).
att(605,585).
att(700,213).
att(695,283).
att(719,206).
att(800,792).
att(792,741).
att(599,533).
att(804,783).
att(710,223).
att(615,572).
att(798,741).
att(850,593).
att(804,742).
att(850,608).
att(615,571).
att(615,576).
att(850,615).
att(804,706).
att(700,173).
att(728,293).
att(728,295).
att(732,295).
att(735,382).
att(725,295).
att(615,525).
att(810,716).
att(808,706).
att(716,169).
att(719,152).
att(726,363).
att(800,744).
att(615,529).
att(595,679).
att(713,357).
att(842,783).
att(599,648).
att(706,300).
att(859,710).
att(844,783).
att(859,693).
att(849,741).
att(605,641).
att(618,736).
att(682,522).
att(719,363).
att(859,706).
att(682,521).
att(688,527).
att(767,235).
att(713,297).
att(772,108).
att(713,304).
att(852,708).
att(767,175).
att(706,318).
att(706,328).
att(777,128).
att(775,103).
att(783,187).
att(693,382).
att(762,162).
att(695,367).
att(789,173).
att(595,680).
att(852,780).
att(593,680).
att(593,683).
att(595,628).
att(855,645).
att(852,726).
att(783,120).
att(605,616).
att(605,611).
att(602,603).
att(806,857).
att(855,643).
att(597,639).
att(846,737).
att(810,846).
att(605,609).
att(844,730).
att(848,728).
att(852,713).
att(846,732).
att(602,639).
att(855,675).
att(794,842).
att(710,249).
att(703,265).
att(703,280).
att(844,659).
att(602,625).
att(713,251).
att(703,278).
att(796,849).
att(855,665).
att(706,265).
att(615,594).
att(859,665).
att(695,314).
att(615,609).
att(796,855).
att(719,242).
att(593,632).
att(726,231).
att(733,213).
att(674,469).
att(677,465).
att(739,216).
att(817,818).
att(737,209).
att(798,605).
att(820,754).
att(723,283).
att(677,457).
att(687,468).
att(725,176).
att(813,748).
att(826,775).
att(671,455).
att(830,783).
att(681,467).
att(730,154).
att(737,227).
att(644,363).
att(664,461).
att(739,231).
att(799,608).
att(690,457).
att(830,777).
att(649,293).
att(733,162).
att(811,762).
att(735,152).
att(828,713).
att(651,298).
att(728,173).
att(811,777).
att(813,762).
att(826,716).
att(732,181).
att(730,176).
att(651,308).
att(644,304).
att(818,744).
att(733,179).
att(645,318).
att(723,183).
att(828,735).
att(657,295).
att(813,713).
att(826,735).
att(659,297).
att(730,108).
att(659,304).
att(674,476).
att(817,703).
att(824,693).
att(644,324).
att(725,128).
att(703,128).
att(804,730).
att(804,737).
att(695,171).
att(700,114).
att(806,732).
att(808,735).
att(794,695).
att(730,326).
att(799,780).
att(693,169).
att(739,293).
att(808,726).
att(716,189).
att(719,173).
att(716,176).
att(798,710).
att(735,316).
att(792,737).
att(804,649).
att(733,326).
att(730,247).
att(794,737).
att(730,244).
att(830,848).
att(723,291).
att(830,846).
att(716,128).
att(813,842).
att(730,270).
att(828,804).
att(792,645).
att(813,844).
att(735,258).
att(792,647).
att(820,799).
att(808,678).
att(815,857).
att(817,850).
att(830,796).
att(794,649).
att(824,846).
att(725,278).
att(695,111).
att(799,726).
att(726,196).
att(728,193).
att(798,597).
att(800,669).
att(828,826).
att(828,815).
att(806,618).
att(817,800).
att(800,657).
att(723,256).
att(820,815).
att(820,817).
att(750,260).
att(817,102).
att(647,606).
att(760,328).
att(659,663).
att(826,108).
att(815,176).
att(760,320).
att(760,318).
att(644,563).
att(668,784).
att(741,330).
att(811,128).
att(742,324).
att(756,258).
att(651,626).
att(748,258).
att(741,298).
att(817,128).
att(746,318).
att(748,244).
att(760,251).
att(760,260).
att(741,258).
att(750,219).
att(669,773).
att(672,763).
att(675,790).
att(653,622).
att(647,561).
att(744,247).
att(742,251).
att(746,249).
att(672,720).
att(682,768).
att(756,193).
att(748,223).
att(754,200).
att(754,203).
att(741,263).
att(645,581).
att(672,694).
att(675,701).
att(649,581).
att(685,784).
att(653,555).
att(672,704).
att(744,286).
att(688,769).
att(742,276).
att(667,696).
att(659,563).
att(748,210).
att(760,206).
att(760,219).
att(649,691).
att(655,768).
att(725,522).
att(817,196).
att(820,227).
att(813,280).
att(643,694).
att(732,579).
att(813,273).
att(737,569).
att(723,639).
att(830,219).
att(659,773).
att(655,696).
att(726,533).
att(733,571).
att(824,223).
att(811,203).
att(828,224).
att(732,531).
att(732,529).
att(645,714).
att(732,525).
att(815,196).
att(643,734).
att(830,225).
att(733,537).
att(750,297).
att(818,227).
att(824,169).
att(723,523).
att(735,537).
att(813,225).
att(657,722).
att(735,533).
att(815,237).
att(659,721).
att(659,722).
att(760,354).
att(739,523).
att(643,658).
att(828,155).
att(830,169).
att(655,642).
att(824,181).
att(741,360).
att(818,160).
att(817,183).
att(657,654).
att(655,648).
att(813,167).
att(742,374).
att(655,656).
att(746,357).
att(748,298).
att(657,646).
att(760,293).
att(644,663).
att(830,171).
att(643,680).
att(775,289).
att(597,773).
att(775,276).
att(783,258).
att(846,848).
att(665,635).
att(772,241).
att(775,219).
att(780,270).
att(852,810).
att(849,855).
att(668,583).
att(859,813).
att(783,283).
att(672,561).
att(852,849).
att(762,251).
att(780,244).
att(789,276).
att(678,551).
att(859,754).
att(597,729).
att(762,280).
att(605,694).
att(850,806).
att(593,691).
att(848,818).
att(777,223).
att(786,203).
att(777,229).
att(762,276).
att(688,553).
att(595,711).
att(595,692).
att(599,781).
att(688,563).
att(618,773).
att(775,169).
att(595,646).
att(852,760).
att(605,727).
att(672,521).
att(605,734).
att(706,374).
att(783,239).
att(678,535).
att(777,155).
att(675,529).
att(786,231).
att(608,736).
att(618,694).
att(762,196).
att(852,817).
att(685,571).
att(852,815).
att(593,734).
att(741,216).
att(333,707).
att(672,736).
att(775,376).
att(667,650).
att(682,691).
att(659,521).
att(685,691).
att(653,574).
att(651,531).
att(744,193).
att(643,537).
att(688,704).
att(760,229).
att(783,363).
att(667,673).
att(775,306).
att(653,533).
att(667,689).
att(672,642).
att(672,652).
att(653,525).
att(678,660).
att(789,363).
att(789,374).
att(655,525).
att(760,155).
att(659,537).
att(760,162).
att(746,225).
att(659,531).
att(748,108).
att(775,318).
att(746,173).
att(783,298).
att(340,774).
att(331,759).
att(756,177).
att(777,316).
att(789,306).
att(742,154).
att(764,374).
att(341,715).
att(764,360).
att(340,785).
att(748,187).
att(775,298).
att(665,679).
att(667,680).
att(669,656).
att(341,698).
att(335,776).
att(669,642).
att(688,646).
att(340,697).
att(783,314).
att(340,707).
att(746,120).
att(675,603).
att(741,171).
att(762,308).
att(672,609).
att(741,183).
att(331,782).
att(335,715).
att(758,117).
att(742,183).
att(758,111).
att(764,306).
att(688,679).
att(760,103).
att(842,239).
att(767,521).
att(855,167).
att(855,169).
att(595,147).
att(713,729).
att(808,363).
att(857,160).
att(808,357).
att(602,118).
att(703,650).
att(341,749).
att(708,648).
att(846,227).
att(846,239).
att(716,729).
att(598,137).
att(700,738).
att(344,743).
att(345,749).
att(608,107).
att(764,572).
att(598,136).
att(618,178).
att(794,369).
att(855,177).
att(339,745).
att(792,360).
att(792,354).
att(796,354).
att(849,233).
att(331,821).
att(342,759).
att(597,75).
att(794,363).
att(842,160).
att(798,357).
att(719,658).
att(850,235).
att(341,771).
att(708,670).
att(706,666).
att(615,115).
att(342,776).
att(708,663).
att(333,814).
att(846,155).
att(593,139).
att(599,124).
att(850,225).
att(341,778).
att(598,68).
att(806,312).
att(344,809).
att(703,611).
att(796,291).
att(597,97).
att(855,108).
att(713,686).
att(345,797).
att(796,308).
att(799,360).
att(693,660).
att(615,139).
att(716,673).
att(849,156).
att(341,797).
att(335,841).
att(800,376).
att(344,803).
att(700,689).
att(852,167).
att(846,173).
att(798,297).
att(798,304).
att(846,183).
att(593,34).
att(700,625).
att(602,91).
att(804,258).
att(599,97).
att(716,611).
att(808,254).
att(794,328).
att(331,856).
att(599,82).
att(703,630).
att(608,93).
att(844,102).
att(335,793).
att(337,802).
att(794,320).
att(844,117).
att(695,673).
att(846,102).
att(593,91).
att(608,81).
att(798,326).
att(618,69).
att(331,864).
att(337,866).
att(842,330).
att(667,44).
att(333,870).
att(595,238).
att(780,613).
att(608,191).
att(605,217).
att(368,718).
att(597,232).
att(783,606).
att(844,328).
att(352,788).
att(775,632).
att(364,697).
att(775,628).
att(335,879).
att(358,715).
att(618,266).
att(789,611).
att(846,324).
att(598,230).
att(615,274).
att(762,666).
att(365,715).
att(344,832).
att(678,89).
att(358,697).
att(365,712).
att(678,81).
att(688,62).
att(764,676).
att(852,298).
att(850,310).
att(669,41).
att(331,873).
att(602,238).
att(700,773).
att(855,280).
att(783,632).
att(844,260).
att(341,833).
att(615,214).
att(708,765).
att(859,283).
att(783,628).
att(342,840).
att(857,289).
att(605,236).
att(672,35).
att(618,214).
att(846,247).
att(846,260).
att(335,832).
att(682,81).
att(764,613).
att(762,603).
att(777,561).
att(708,781).
att(783,625).
att(339,836).
att(852,326).
att(339,831).
att(688,87).
att(345,860).
att(618,201).
att(842,286).
att(855,206).
att(703,711).
att(852,276).
att(848,209).
att(368,747).
att(783,563).
att(605,168).
att(783,559).
att(352,829).
att(844,265).
att(341,887).
att(341,889).
att(352,825).
att(342,884).
att(857,216).
att(340,887).
att(358,755).
att(593,151).
att(685,46).
att(762,625).
att(764,639).
att(846,283).
att(850,241).
att(335,881).
att(700,781).
att(358,749).
att(370,788).
att(700,761).
att(602,190).
att(342,862).
att(355,752).
att(595,118).
att(855,227).
att(848,224).
att(703,734).
att(339,862).
att(703,721).
att(767,585).
att(331,887).
att(365,774).
att(855,235).
att(368,774).
att(783,572).
att(368,788).
att(693,769).
att(783,589).
att(857,225).
att(859,229).
att(358,779).
att(708,727).
att(598,115).
att(335,868).
att(706,731).
att(789,585).
att(345,880).
att(593,188).
att(764,553).
att(344,875).
att(850,286).
att(366,697).
att(593,186).
att(826,297).
att(826,291).
att(798,171).
att(828,306).
att(735,656).
att(693,533).
att(732,676).
att(358,803).
att(739,654).
att(355,843).
att(796,152).
att(817,376).
att(365,793).
att(364,819).
att(811,306).
att(355,807).
att(800,179).
att(726,603).
att(815,291).
att(361,805).
att(813,306).
att(732,600).
att(808,120).
att(341,884).
att(345,885).
att(730,609).
att(794,181).
att(799,156).
att(810,128).
att(385,699).
att(824,260).
att(799,108).
att(737,613).
att(366,836).
att(813,324).
att(828,241).
att(728,628).
att(739,613).
att(737,596).
att(796,114).
att(380,715).
att(830,254).
att(380,712).
att(737,616).
att(794,114).
att(726,613).
att(818,304).
att(739,606).
att(358,840).
att(380,705).
att(796,117).
att(733,630).
att(728,557).
att(364,847).
att(733,639).
att(818,251).
att(726,557).
att(820,200).
att(828,280).
att(366,845).
att(366,802).
att(732,559).
att(732,561).
att(732,557).
att(828,278).
att(730,553).
att(815,256).
att(723,603).
att(370,802).
att(723,600).
att(723,613).
att(739,626).
att(817,254).
att(383,745).
att(703,557).
att(710,628).
att(385,759).
att(396,774).
att(808,263).
att(730,781).
att(368,870).
att(730,765).
att(383,757).
att(792,249).
att(798,242).
att(725,763).
att(810,280).
att(719,624).
att(800,326).
att(700,639).
att(850,106).
att(800,316).
att(798,256).
att(355,888).
att(798,258).
att(387,788).
att(392,707).
att(700,585).
att(726,701).
att(728,694).
att(389,779).
att(396,699).
att(806,209).
att(368,878).
att(383,788).
att(366,876).
att(383,782).
att(706,571).
att(725,691).
att(799,242).
att(808,209).
att(383,698).
att(380,766).
att(713,555).
att(365,880).
att(719,553).
att(392,709).
att(615,34).
att(710,581).
att(726,731).
att(385,809).
att(385,803).
att(703,529).
att(380,843).
att(792,200).
att(806,235).
att(370,883).
att(693,567).
att(732,740).
att(739,692).
att(808,225).
att(794,203).
att(800,283).
att(804,193).
att(377,809).
att(726,696).
att(726,691).
att(804,156).
att(804,158).
att(385,827).
att(726,646).
att(726,648).
att(733,736).
att(828,374).
att(710,522).
att(735,727).
att(792,231).
att(391,751).
att(370,861).
att(358,890).
att(396,770).
att(732,654).
att(364,886).
att(377,819).
att(693,578).
att(799,209).
att(693,572).
att(365,884).
att(725,656).
att(645,161).
att(818,628).
att(750,711).
att(830,578).
att(735,44).
att(655,230).
att(756,773).
att(811,626).
att(815,626).
att(377,833).
att(649,163).
att(644,151).
att(739,37).
att(818,613).
att(653,191).
att(830,551).
att(737,33).
att(830,557).
att(647,190).
att(653,161).
att(756,691).
att(396,805).
att(651,190).
att(760,711).
att(649,174).
att(389,807).
att(826,576).
att(748,720).
att(830,576).
att(645,164).
att(387,809).
att(659,157).
att(383,869).
att(412,712).
att(413,697).
att(817,529).
att(412,709).
att(383,867).
att(413,702).
att(817,523).
att(387,866).
att(655,184).
att(394,877).
att(404,788).
att(756,727).
att(811,579).
att(655,188).
att(742,694).
att(815,579).
att(403,785).
att(403,779).
att(651,124).
att(744,711).
att(387,873).
att(813,572).
att(828,533).
att(380,864).
att(394,837).
att(649,121).
att(746,720).
att(659,180).
att(385,868).
att(643,129).
att(644,73).
att(667,290).
att(391,837).
att(649,137).
att(811,523).
att(396,837).
att(742,724).
att(756,660).
att(396,833).
att(387,838).
att(744,727).
att(394,856).
att(744,734).
att(657,126).
att(742,729).
att(391,831).
att(392,840).
att(754,724).
att(385,876).
att(392,833).
att(377,880).
att(403,698).
att(392,832).
att(726,141).
att(396,886).
att(726,143).
att(799,522).
att(413,749).
att(726,139).
att(398,807).
att(415,755).
att(733,104).
att(401,812).
att(387,884).
att(820,654).
att(392,883).
att(815,731).
att(396,868).
att(723,133).
att(815,648).
att(830,680).
att(377,887).
att(739,143).
att(723,112).
att(732,61).
att(377,884).
att(737,136).
att(644,232).
att(404,851).
att(820,630).
att(412,793).
att(645,201).
att(739,81).
att(649,204).
att(398,838).
att(398,839).
att(726,82).
att(826,616).
att(828,596).
att(739,66).
att(645,284).
att(830,594).
att(659,290).
att(412,825).
att(733,91).
att(820,553).
att(412,812).
att(644,166).
att(820,557).
att(398,856).
att(404,802).
att(415,825).
att(649,222).
att(735,82).
att(401,791).
att(815,611).
att(813,603).
att(406,795).
att(739,87).
att(426,705).
att(682,151).
att(412,839).
att(412,833).
att(780,714).
att(408,876).
att(668,118).
att(756,581).
att(410,874).
att(415,840).
att(756,583).
att(403,865).
att(756,579).
att(410,876).
att(742,556).
att(401,873).
att(417,707).
att(423,709).
att(668,109).
att(417,705).
att(746,557).
att(744,553).
att(767,781).
att(669,104).
att(672,124).
att(665,136).
att(746,527).
att(669,115).
att(764,691).
att(762,714).
att(777,642).
att(758,535).
att(685,184).
att(403,838).
att(403,833).
att(688,174).
att(413,854).
att(760,523).
att(767,717).
att(410,885).
att(426,751).
att(857,293).
att(667,73).
att(780,648).
att(783,641).
att(665,66).
att(775,663).
att(597,262).
att(852,382).
att(333,212).
att(842,357).
att(331,195).
att(668,64).
att(428,743).
att(675,147).
att(598,281).
att(417,823).
att(668,71).
att(419,819).
att(429,774).
att(428,770).
att(688,124).
att(744,533).
att(423,753).
att(764,734).
att(846,374).
att(859,308).
att(744,521).
att(780,722).
att(412,861).
att(780,721).
att(772,642).
att(426,776).
att(780,676).
att(783,663).
att(772,594).
att(404,863).
att(602,266).
att(417,759).
att(675,69).
att(668,91).
att(762,642).
att(597,220).
att(423,771).
att(789,683).
att(852,367).
att(685,141).
att(789,663).
att(413,875).
att(608,271).
att(786,679).
att(848,291).
att(423,779).
att(598,207).
att(850,367).
att(423,766).
att(682,135).
att(777,609).
att(669,149).
att(406,868).
att(413,874).
att(852,369).
att(672,284).
att(668,194).
att(746,679).
att(333,255).
att(756,679).
att(657,133).
att(760,686).
att(337,277).
att(423,809).
att(678,287).
att(742,648).
att(678,281).
att(430,823).
att(746,660).
att(665,274).
att(345,215).
att(746,656).
att(682,266).
att(675,191).
att(415,886).
att(333,282).
att(754,613).
att(750,632).
att(331,269).
att(428,812).
att(655,69).
att(647,93).
att(339,205).
att(651,95).
att(427,745).
att(657,69).
att(685,271).
att(657,79).
att(421,821).
att(667,194).
att(754,663).
att(748,613).
att(760,594).
att(665,217).
att(657,68).
att(669,262).
att(429,860).
att(754,630).
att(653,91).
att(653,93).
att(775,787).
att(667,170).
att(667,157).
att(428,837).
att(428,833).
att(653,82).
att(425,840).
att(682,201).
att(428,835).
att(647,44).
att(682,214).
att(428,836).
att(421,833).
att(688,217).
att(423,840).
att(758,632).
att(678,238).
att(429,841).
att(419,875).
att(669,214).
att(688,204).
att(335,321).
att(340,315).
att(760,639).
att(746,611).
att(331,315).
att(748,576).
att(344,267).
att(419,840).
att(333,327).
att(672,151).
att(419,832).
att(342,246).
att(682,232).
att(786,781).
att(342,248).
att(685,221).
att(741,630).
att(429,802).
att(423,853).
att(655,39).
att(786,790).
att(426,845).
att(657,33).
att(760,561).
att(688,226).
att(599,552).
att(772,83).
att(429,880).
att(713,264).
att(767,61).
att(333,351).
att(852,676).
att(344,305).
att(703,192).
att(767,62).
att(783,62).
att(442,766).
att(844,686).
att(706,211).
att(775,97).
att(423,886).
att(780,62).
att(855,594).
att(331,350).
att(427,879).
att(435,771).
att(682,493).
att(719,281).
att(423,870).
att(777,85).
att(849,658).
att(344,296).
att(700,287).
att(703,261).
att(855,663).
att(593,565).
att(608,552).
att(344,322).
att(772,39).
att(436,709).
att(438,707).
att(703,226).
att(842,619).
att(855,632).
att(333,372).
att(780,93).
att(593,528).
att(767,85).
att(433,766).
att(700,232).
att(789,34).
att(434,707).
att(339,294).
att(423,861).
att(605,582).
att(716,214).
att(777,44).
att(605,588).
att(842,594).
att(337,362).
att(602,577).
att(331,371).
att(772,33).
att(775,46).
att(695,262).
att(786,83).
att(762,61).
att(605,577).
att(786,95).
att(859,632).
att(335,292).
att(337,301).
att(605,584).
att(345,322).
att(419,866).
att(431,779).
att(852,680).
att(719,207).
att(780,46).
att(436,823).
att(599,524).
att(355,272).
att(433,805).
att(855,559).
att(333,402).
att(710,238).
att(438,829).
att(700,159).
att(341,407).
att(442,823).
att(602,530).
att(842,624).
att(806,790).
att(855,555).
att(430,887).
att(440,755).
att(598,543).
att(435,827).
att(598,549).
att(440,753).
att(341,348).
att(783,41).
att(719,221).
att(361,215).
att(435,816).
att(605,538).
att(693,194).
att(339,405).
att(344,347).
att(618,577).
att(850,596).
att(786,34).
att(710,191).
att(429,885).
att(764,85).
att(719,240).
att(846,630).
att(806,696).
att(436,753).
att(703,178).
att(806,711).
att(429,870).
att(431,821).
att(433,814).
att(593,506).
att(852,561).
att(344,375).
att(349,208).
att(808,714).
att(337,409).
att(602,543).
att(855,578).
att(432,812).
att(852,556).
att(842,559).
att(340,343).
att(345,362).
att(719,168).
att(440,766).
att(693,238).
att(810,696).
att(708,178).
att(597,501).
att(716,159).
att(796,784).
att(808,720).
att(859,589).
att(431,825).
att(333,411).
att(344,373).
att(618,528).
att(846,555).
att(850,630).
att(345,378).
att(434,755).
att(859,571).
att(719,161).
att(335,346).
att(618,532).
att(719,157).
att(364,259).
att(364,246).
att(665,501).
att(669,542).
att(855,704).
att(364,243).
att(780,170).
att(767,163).
att(842,761).
att(767,153).
att(341,439).
att(361,323).
att(432,839).
att(368,253).
att(436,860).
att(682,532).
att(341,444).
att(857,717).
att(335,454).
att(366,272).
att(345,384).
att(598,674).
att(668,501).
att(741,34).
att(762,232).
att(668,505).
att(685,539).
att(786,168).
att(442,809).
att(767,230).
att(744,41).
att(370,288).
att(340,439).
att(431,831).
att(772,109).
att(855,731).
att(337,446).
att(669,506).
att(602,684).
att(842,714).
att(780,188).
att(842,694).
att(355,255).
att(432,860).
att(337,443).
att(857,727).
att(358,285).
att(440,827).
att(850,768).
att(442,819).
att(435,795).
att(672,502).
att(859,738).
att(341,418).
att(762,161).
att(855,694).
att(669,550).
att(595,662).
att(772,186).
att(855,692).
att(436,878).
att(855,652).
att(780,112).
att(842,736).
att(855,648).
att(855,660).
att(852,740).
att(772,139).
att(366,292).
att(615,681).
att(844,740).
att(457,697).
att(608,591).
att(762,186).
att(432,864).
att(780,109).
att(453,778).
att(672,514).
att(352,375).
att(432,863).
att(456,702).
att(685,510).
att(762,172).
att(783,107).
att(442,840).
att(608,612).
att(449,782).
att(593,610).
att(445,837).
att(449,766).
att(767,190).
att(433,866).
att(450,774).
att(678,516).
att(440,840).
att(438,875).
att(602,636).
att(767,136).
att(852,652).
att(703,287).
att(365,321).
att(344,454).
att(370,245).
att(703,262).
att(449,699).
att(599,629).
att(762,112).
att(442,834).
att(451,715).
att(672,497).
att(849,722).
att(436,840).
att(780,135).
att(706,264).
att(358,325).
att(434,832).
att(685,520).
att(672,494).
att(434,835).
att(608,621).
att(615,620).
att(593,631).
att(449,709).
att(349,305).
att(685,511).
att(850,727).
att(440,853).
att(618,601).
att(352,411).
att(385,218).
att(700,44).
att(719,31).
att(460,745).
att(383,199).
att(710,89).
att(352,420).
att(703,44).
att(710,83).
att(728,228).
att(735,214).
att(442,888).
att(459,782).
att(725,221).
att(808,622).
att(450,825).
att(716,85).
att(366,381).
att(796,611).
att(456,755).
att(365,350).
att(455,749).
att(810,622).
att(438,887).
att(434,884).
att(438,885).
att(365,371).
att(725,172).
att(460,782).
att(737,221).
att(442,864).
att(710,33).
att(730,164).
att(806,569).
att(432,882).
att(368,362).
att(457,785).
att(730,151).
att(732,159).
att(440,872).
att(456,779).
att(739,221).
att(442,880).
att(440,871).
att(730,163).
att(433,887).
att(726,238).
att(449,745).
att(455,788).
att(693,89).
att(798,637).
att(368,384).
att(813,769).
att(453,860).
att(735,164).
att(385,246).
att(804,579).
att(826,692).
att(800,551).
att(458,807).
att(453,841).
att(451,860).
att(792,553).
att(396,282).
att(826,717).
att(365,397).
att(366,424).
att(830,711).
att(808,581).
att(451,802).
att(364,397).
att(377,250).
att(726,170).
att(355,448).
att(817,787).
att(796,561).
att(817,781).
att(804,535).
att(352,386).
att(733,178).
att(352,388).
att(352,384).
att(451,809).
att(806,523).
att(806,533).
att(457,822).
att(361,384).
att(728,121).
att(730,124).
att(389,195).
att(456,819).
att(366,351).
att(737,182).
att(794,576).
att(794,585).
att(445,889).
att(358,416).
att(451,821).
att(792,571).
att(358,405).
att(365,424).
att(458,812).
att(355,395).
att(459,751).
att(732,121).
att(449,791).
att(703,112).
att(593,511).
att(593,512).
att(392,319).
att(800,701).
att(597,514).
att(464,712).
att(460,831).
att(460,835).
att(460,836).
att(602,509).
att(459,847).
att(849,559).
att(708,112).
att(693,164).
att(799,761).
att(859,531).
att(849,567).
att(385,294).
att(800,784).
att(792,769).
att(370,452).
att(394,252).
att(850,567).
att(618,546).
att(719,178).
att(593,493).
att(700,135).
att(806,642).
att(710,112).
att(852,537).
att(700,133).
att(458,854).
att(808,654).
att(706,139).
att(451,834).
att(703,141).
att(693,178).
att(798,722).
att(450,833).
att(455,851).
att(459,803).
att(708,147).
att(844,533).
att(358,437).
att(377,321).
att(453,836).
att(708,135).
att(703,79).
att(451,887).
att(804,686).
att(465,745).
att(453,881).
att(728,262).
att(385,348).
att(469,782).
att(730,271).
att(470,782).
att(730,290).
att(389,332).
att(394,302).
att(706,66).
att(799,722).
att(380,351).
att(461,751).
att(732,284).
att(380,336).
att(593,499).
att(719,135).
att(377,351).
att(458,861).
att(719,139).
att(377,350).
att(385,343).
att(695,61).
att(457,877).
att(457,875).
att(733,281).
att(450,885).
att(461,753).
att(713,62).
att(383,372).
att(792,666).
att(450,889).
att(396,294).
att(449,867).
att(799,656).
att(456,880).
att(459,832).
att(713,66).
att(796,663).
att(385,359).
att(392,309).
att(700,79).
att(695,149).
att(449,869).
att(458,877).
att(463,774).
att(455,874).
att(719,69).
att(396,405).
att(655,661).
att(811,186).
att(817,107).
att(818,180).
att(391,418).
att(817,104).
att(394,407).
att(728,511).
att(813,186).
att(389,395).
att(824,104).
att(728,519).
att(466,814).
att(651,607).
att(403,285).
att(387,407).
att(403,279).
att(463,791).
att(398,267).
att(461,801).
att(730,515).
att(394,338).
att(398,272).
att(657,687).
att(398,275).
att(467,816).
att(392,422).
att(413,215).
att(385,390).
att(408,198).
att(723,546).
att(401,285).
att(659,677).
att(466,816).
att(385,393).
att(647,640).
att(820,66).
att(644,552).
att(465,823).
att(817,136).
att(383,409).
att(462,822).
att(728,491).
att(735,514).
att(461,795).
att(468,751).
att(728,497).
att(464,823).
att(811,121).
att(468,757).
att(815,112).
att(377,416).
att(461,829).
att(464,752).
att(657,617).
att(456,884).
att(723,509).
att(739,516).
att(392,336).
att(817,124).
att(401,215).
att(403,205).
att(468,847).
att(733,499).
att(655,634).
att(469,860).
att(394,439).
att(826,75).
att(826,62).
att(461,872).
att(655,631).
att(404,325).
att(647,560).
att(464,833).
att(408,255).
att(815,137).
att(651,562).
att(657,627).
att(415,275).
att(415,277).
att(467,847).
att(643,562).
att(739,497).
att(645,621).
att(408,259).
att(391,400).
att(653,558).
att(469,802).
att(644,536).
att(465,847).
att(401,252).
att(413,269).
att(643,524).
att(385,454).
att(461,834).
att(742,271).
att(742,284).
att(824,82).
att(394,393).
att(655,570).
att(644,526).
att(756,214).
att(818,68).
att(744,271).
att(651,584).
att(410,275).
att(403,259).
att(466,791).
att(744,281).
att(464,802).
att(813,71).
att(826,85).
att(463,851).
att(467,797).
att(754,266).
att(462,841).
att(466,803).
att(811,287).
att(726,575).
att(804,93).
att(412,296).
att(465,863).
att(723,554).
att(800,71).
att(406,381).
att(799,66).
att(461,884).
att(476,770).
att(475,785).
att(470,871).
att(472,757).
att(461,881).
att(735,558).
att(476,771).
att(478,699).
att(815,271).
att(401,359).
att(828,207).
att(466,871).
att(737,564).
att(471,788).
att(815,281).
att(737,560).
att(461,870).
att(471,782).
att(730,584).
att(794,71).
att(470,840).
att(406,359).
att(469,871).
att(469,872).
att(477,699).
att(796,68).
att(810,91).
att(804,48).
att(412,327).
att(800,83).
att(811,214).
att(473,702).
att(726,538).
att(413,317).
att(725,542).
att(824,234).
att(412,313).
att(824,236).
att(470,837).
att(410,305).
att(730,539).
att(735,582).
att(398,362).
att(404,299).
att(415,313).
att(415,315).
att(464,873).
att(800,81).
att(462,875).
att(474,709).
att(830,238).
att(732,540).
att(403,309).
att(466,831).
att(463,871).
att(794,83).
att(815,192).
att(472,698).
att(806,39).
att(796,81).
att(796,87).
att(723,558).
att(466,838).
att(413,315).
att(462,877).
att(401,303).
att(398,395).
att(818,228).
att(723,528).
att(824,164).
att(820,180).
att(470,890).
att(419,267).
att(425,202).
att(415,351).
att(726,541).
att(415,338).
att(408,348).
att(830,166).
att(401,416).
att(828,161).
att(732,546).
att(737,538).
att(828,163).
att(815,236).
att(794,44).
att(815,221).
att(469,883).
att(723,582).
att(796,31).
att(817,228).
att(421,205).
att(480,745).
att(421,218).
att(723,580).
att(830,153).
att(818,192).
att(474,829).
att(419,218).
att(465,890).
att(468,862).
att(412,362).
att(733,550).
att(468,866).
att(739,501).
att(817,172).
att(415,372).
att(471,823).
att(479,770).
att(398,420).
att(811,163).
att(398,407).
att(468,870).
att(398,409).
att(651,677).
att(462,889).
att(735,541).
att(649,677).
att(828,188).
att(830,174).
att(477,788).
att(413,359).
att(462,888).
att(748,66).
att(472,834).
att(479,803).
att(415,397).
att(754,139).
att(419,313).
att(775,266).
att(479,791).
att(659,498).
att(410,452).
att(471,834).
att(675,627).
att(478,851).
att(741,107).
att(754,135).
att(756,149).
att(668,560).
att(741,121).
att(777,284).
att(479,805).
att(423,259).
att(685,604).
att(756,135).
att(760,135).
att(413,399).
att(669,612).
att(659,514).
att(746,126).
att(398,437).
att(429,199).
att(783,281).
att(476,803).
att(406,402).
att(675,558).
att(742,137).
att(415,420).
att(425,285).
att(472,856).
att(653,496).
att(748,82).
att(401,386).
att(678,560).
att(742,136).
att(477,814).
att(471,801).
att(742,139).
att(750,82).
att(665,562).
att(412,405).
att(427,198).
att(473,807).
att(413,409).
att(423,267).
att(427,205).
att(678,552).
att(760,69).
att(425,296).
att(475,877).
att(339,669).
att(775,222).
att(423,353).
att(682,552).
att(428,296).
att(344,598).
att(667,526).
att(479,839).
att(667,528).
att(477,832).
att(477,833).
att(678,584).
att(742,64).
att(428,322).
att(758,93).
att(756,87).
att(335,678).
att(341,598).
att(688,564).
att(335,665).
att(758,81).
att(744,73).
att(758,87).
att(425,315).
att(419,309).
att(475,831).
att(333,669).
att(780,226).
att(780,238).
att(421,322).
att(480,854).
att(412,441).
att(682,586).
att(777,159).
att(331,672).
att(342,618).
att(762,217).
att(777,166).
att(421,313).
att(758,46).
att(789,222).
att(764,211).
att(777,153).
att(786,226).
att(331,595).
att(668,544).
att(742,93).
att(473,838).
att(744,81).
att(780,194).
att(480,843).
att(665,540).
att(475,888).
att(741,220).
att(824,48).
att(333,703).
att(333,716).
att(476,883).
att(754,238).
att(659,530).
att(758,236).
att(655,584).
att(647,538).
att(417,418).
att(339,730).
att(425,350).
att(341,647).
att(657,573).
att(657,582).
att(649,536).
att(428,381).
att(830,39).
att(335,732).
att(476,885).
att(817,91).
att(760,228).
att(828,31).
att(476,889).
att(815,85).
att(335,739).
att(473,888).
att(471,889).
att(344,665).
att(475,866).
att(647,543).
att(475,862).
att(479,879).
att(473,867).
att(477,873).
att(659,539).
att(427,296).
att(477,877).
att(341,682).
att(474,861).
att(335,644).
att(340,653).
att(651,543).
att(341,668).
att(421,378).
att(748,151).
att(335,645).
att(433,257).
att(428,393).
att(433,259).
att(445,195).
att(748,104).
att(419,454).
att(672,664).
att(434,267).
att(436,267).
att(432,243).
att(339,777).
att(342,767).
att(651,508).
att(657,543).
att(432,268).
att(758,184).
att(655,545).
att(421,395).
att(655,541).
att(426,395).
att(335,789).
att(426,393).
att(748,131).
att(741,186).
att(426,418).
att(760,136).
att(742,178).
att(756,104).
att(423,395).
att(668,631).
att(675,614).
att(756,112).
att(342,695).
att(433,272).
att(645,512).
att(744,180).
att(657,507).
att(421,414).
att(423,411).
att(655,505).
att(429,343).
att(340,710).
att(435,198).
att(651,515).
att(744,182).
att(772,544).
att(339,828).
att(179,766).
att(349,667).
att(355,685).
att(433,294).
att(772,548).
att(177,778).
att(431,302).
att(593,134).
att(668,5).
att(120,863).
att(187,755).
att(352,665).
att(432,299).
att(435,292).
att(777,547).
att(597,144).
att(682,18).
att(179,778).
att(364,608).
att(110,873).
att(775,542).
att(337,799).
att(667,6).
att(669,21).
att(772,541).
att(427,443).
att(435,329).
att(608,113).
att(341,756).
att(608,125).
att(672,24).
att(675,25).
att(341,758).
att(762,573).
att(859,159).
att(341,746).
att(120,869).
att(114,888).
att(111,890).
att(345,750).
att(440,250).
att(189,759).
att(593,123).
att(764,584).
att(608,105).
att(331,817).
att(438,250).
att(775,507).
att(857,185).
att(767,545).
att(114,880).
att(344,777).
att(595,80).
att(177,707).
att(433,315).
att(595,70).
att(602,145).
att(333,824).
att(429,388).
att(431,317).
att(688,1).
att(855,186).
att(110,838).
att(181,702).
att(598,78).
att(602,132).
att(597,80).
att(111,867).
att(598,65).
att(850,234).
att(786,543).
att(859,182).
att(187,778).
att(421,437).
att(435,259).
att(777,503).
att(435,255).
att(427,397).
att(859,188).
att(120,878).
att(423,443).
att(852,236).
att(108,875).
att(848,170).
att(430,400).
att(767,532).
att(189,774).
att(599,101).
att(764,526).
att(608,132).
att(352,723).
att(114,838).
att(602,77).
att(342,852).
att(438,372).
att(855,115).
att(344,810).
att(365,649).
att(852,180).
att(344,806).
att(710,681).
att(682,9).
att(442,359).
att(341,842).
att(855,109).
att(110,845).
att(117,838).
att(120,835).
att(364,647).
att(706,591).
att(713,684).
att(108,860).
att(345,796).
att(366,672).
att(434,356).
att(434,359).
att(719,681).
att(128,872).
att(187,699).
att(128,877).
att(341,798).
att(716,690).
att(777,520).
att(700,687).
att(177,718).
att(365,653).
att(789,508).
att(440,302).
att(859,109).
att(117,843).
att(342,794).
att(595,47).
att(106,809).
att(339,794).
att(852,129).
att(706,627).
att(597,38).
att(780,511).
att(857,139).
att(713,607).
att(331,859).
att(608,94).
att(850,185).
att(102,805).
att(777,498).
att(128,832).
att(435,303).
att(597,32).
att(102,797).
att(103,851).
att(844,104).
att(597,40).
att(708,621).
att(844,115).
att(716,620).
att(762,509).
att(349,649).
att(434,302).
att(848,118).
att(700,612).
att(764,505).
att(106,851).
att(358,672).
att(846,107).
att(435,302).
att(333,849).
att(431,353).
att(179,853).
att(181,843).
att(669,90).
att(760,494).
att(780,601).
att(181,851).
att(433,400).
att(436,409).
att(368,700).
att(189,835).
att(366,693).
att(368,703).
att(672,86).
att(368,719).
att(783,607).
att(181,845).
att(364,706).
att(440,348).
att(789,614).
att(358,716).
att(685,70).
att(756,517).
att(187,839).
att(189,831).
att(685,80).
att(455,202).
att(744,505).
att(445,348).
att(760,519).
att(764,677).
att(366,725).
att(767,681).
att(746,492).
att(181,793).
att(672,43).
att(438,346).
att(364,737).
att(667,57).
att(438,348).
att(772,560).
att(672,42).
att(682,84).
att(741,517).
att(181,807).
att(672,40).
att(762,612).
att(775,562).
att(435,346).
att(685,84).
att(789,636).
att(366,659).
att(171,793).
att(368,644).
att(442,372).
att(742,514).
att(859,274).
att(183,803).
att(187,860).
att(345,849).
att(361,739).
att(368,651).
att(177,858).
att(438,336).
att(665,49).
att(669,100).
att(746,519).
att(445,375).
att(760,495).
att(173,791).
att(772,621).
att(440,381).
att(171,805).
att(767,612).
att(385,605).
att(667,19).
att(195,482).
att(665,11).
att(772,575).
att(364,746).
att(355,824).
att(438,452).
att(842,262).
att(846,262).
att(102,885).
att(181,827).
att(457,248).
att(672,54).
att(176,753).
att(440,444).
att(668,19).
att(762,621).
att(110,883).
att(175,749).
att(783,566).
att(183,821).
att(456,246).
att(183,822).
att(440,390).
att(459,279).
att(685,49).
att(366,786).
att(181,822).
att(451,248).
att(440,384).
att(762,631).
att(449,325).
att(364,741).
att(377,618).
att(177,805).
att(772,566).
att(358,750).
att(789,560).
att(202,483).
att(445,384).
att(678,60).
att(764,633).
att(173,778).
att(364,789).
att(355,750).
att(432,447).
att(449,245).
att(855,228).
att(108,861).
att(772,536).
att(449,250).
att(688,12).
att(187,823).
att(451,259).
att(667,24).
att(368,775).
att(682,53).
att(849,281).
att(668,29).
att(775,526).
att(117,890).
att(215,489).
att(453,250).
att(844,194).
att(857,240).
att(442,386).
att(453,248).
att(103,883).
att(434,386).
att(786,573).
att(764,560).
att(358,780).
att(668,24).
att(187,819).
att(189,812).
att(675,13).
att(668,22).
att(764,566).
att(181,751).
att(442,422).
att(171,751).
att(665,19).
att(433,444).
att(789,573).
att(106,888).
att(177,816).
att(688,59).
att(370,710).
att(675,12).
att(685,55).
att(685,56).
att(392,668).
att(457,296).
att(618,20).
att(385,657).
att(804,188).
att(458,309).
att(618,1).
att(117,699).
att(703,506).
att(806,172).
att(808,186).
att(383,659).
att(361,844).
att(457,299).
att(599,4).
att(391,675).
att(459,327).
att(716,543).
att(693,539).
att(120,699).
att(796,170).
att(358,794).
att(380,653).
att(450,353).
att(370,818).
att(366,817).
att(451,301).
att(361,810).
att(365,810).
att(693,528).
att(719,542).
att(849,31).
att(365,792).
att(394,608).
att(716,544).
att(391,618).
att(700,516).
att(458,317).
att(392,595).
att(700,515).
att(377,678).
att(387,598).
att(457,321).
att(368,824).
att(792,182).
att(383,669).
att(700,511).
att(389,593).
att(615,5).
att(380,672).
att(706,512).
att(445,444).
att(796,190).
att(739,662).
att(451,321).
att(726,687).
att(450,301).
att(450,307).
att(810,129).
att(700,498).
att(800,109).
att(458,346).
att(457,336).
att(733,604).
att(391,723).
att(726,631).
att(385,710).
att(456,407).
att(735,607).
att(465,199).
att(700,491).
att(735,614).
att(370,846).
att(737,607).
att(739,592).
att(808,143).
att(808,137).
att(456,348).
att(716,518).
att(739,591).
att(733,662).
att(800,186).
att(387,732).
att(796,109).
att(726,591).
att(726,592).
att(383,723).
att(800,133).
att(385,732).
att(457,373).
att(695,498).
att(804,69).
att(733,638).
att(364,844).
att(713,495).
att(735,623).
att(368,859).
att(730,568).
att(366,842).
att(730,570).
att(826,290).
att(792,143).
att(453,346).
att(695,494).
att(391,649).
att(794,136).
att(365,852).
att(456,381).
att(794,143).
att(808,69).
att(713,491).
att(733,591).
att(365,855).
att(810,75).
att(364,850).
att(455,371).
att(458,356).
att(377,735).
att(459,302).
att(799,115).
att(739,640).
att(830,290).
att(693,520).
att(710,633).
att(806,281).
att(383,741).
att(457,384).
att(695,633).
att(394,762).
att(460,399).
att(844,149).
att(459,395).
att(716,636).
att(844,137).
att(703,554).
att(110,812).
att(451,443).
att(602,49).
att(703,552).
att(703,560).
att(117,797).
att(465,248).
att(842,139).
att(449,446).
att(693,601).
att(128,847).
att(389,777).
att(598,60).
att(693,620).
att(389,772).
att(808,271).
att(598,59).
att(708,568).
att(849,124).
att(110,819).
att(396,708).
att(618,86).
att(106,803).
att(462,257).
att(385,741).
att(449,439).
att(392,762).
att(855,95).
att(595,13).
att(391,713).
att(593,10).
att(792,284).
att(804,211).
att(389,783).
att(459,414).
att(464,269).
att(465,267).
att(794,284).
att(464,285).
att(465,268).
att(602,55).
att(108,747).
att(602,53).
att(842,75).
att(117,814).
att(810,214).
att(103,816).
att(102,755).
att(455,405).
att(708,580).
att(706,573).
att(450,386).
att(455,414).
att(857,81).
att(460,350).
att(464,202).
att(459,332).
att(103,822).
att(449,400).
att(848,71).
att(106,823).
att(392,719).
att(804,266).
att(804,262).
att(458,414).
att(111,797).
att(798,266).
att(618,43).
att(846,75).
att(106,770).
att(700,530).
att(412,615).
att(593,22).
att(114,753).
att(462,302).
att(462,309).
att(462,299).
att(792,191).
att(467,292).
att(404,669).
att(383,806).
att(120,751).
att(387,828).
att(403,672).
att(597,23).
att(404,598).
att(693,565).
att(794,204).
att(464,321).
att(467,315).
att(391,811).
att(800,287).
att(618,60).
att(800,266).
att(392,815).
att(392,817).
att(408,605).
att(377,798).
att(693,562).
att(106,707).
att(457,443).
att(806,164).
att(593,1).
att(466,252).
att(469,253).
att(404,593).
att(468,248).
att(398,685).
att(599,23).
att(852,33).
att(792,232).
att(460,448).
att(703,548).
att(806,168).
att(693,582).
att(849,83).
att(461,319).
att(810,151).
att(693,590).
att(389,748).
att(794,232).
att(455,447).
att(389,760).
att(800,217).
att(392,754).
att(385,813).
att(401,615).
att(458,448).
att(798,238).
att(716,528).
