arg(1..319).
att(306,30).
att(188,50).
att(118,250).
att(235,80).
att(117,279).
att(111,152).
att(144,33).
att(48,95).
att(177,49).
att(309,278).
att(312,284).
att(93,194).
att(80,258).
att(47,255).
att(212,30).
att(248,228).
att(254,279).
att(269,162).
att(183,86).
att(210,18).
att(71,289).
att(218,117).
att(187,231).
att(243,85).
att(106,254).
att(179,207).
att(202,38).
att(301,14).
att(103,125).
att(263,30).
att(152,203).
att(279,283).
att(198,298).
att(284,224).
att(73,21).
att(206,97).
att(283,218).
att(219,42).
att(205,27).
att(57,128).
att(2,213).
att(75,308).
att(312,251).
att(295,115).
att(315,38).
att(56,65).
att(170,94).
att(285,305).
att(145,302).
att(292,145).
att(243,5).
att(84,200).
att(307,10).
att(79,97).
att(222,245).
att(36,299).
att(141,240).
att(245,233).
att(258,80).
att(48,17).
att(101,167).
att(250,136).
att(68,224).
att(1,44).
att(241,56).
att(52,219).
att(240,141).
att(278,230).
att(318,239).
att(123,25).
att(69,88).
att(245,123).
att(302,166).
att(8,222).
att(274,139).
att(27,83).
att(49,177).
att(107,304).
att(237,175).
att(211,146).
att(54,164).
att(278,176).
att(57,80).
att(159,215).
att(224,171).
att(97,316).
att(203,174).
att(233,92).
att(302,145).
att(190,157).
att(208,264).
att(232,67).
att(220,252).
att(243,309).
att(193,110).
att(77,95).
att(46,9).
att(270,283).
att(278,218).
att(143,77).
att(50,314).
att(138,197).
att(256,129).
att(2,22).
att(74,236).
att(63,255).
att(6,252).
att(84,234).
att(26,142).
att(259,289).
att(14,301).
att(138,100).
att(137,91).
att(173,52).
att(67,199).
att(122,42).
att(130,190).
att(40,241).
att(317,201).
att(88,69).
att(209,127).
att(164,54).
att(16,111).
att(156,309).
att(95,48).
att(292,143).
att(56,180).
att(80,57).
att(74,59).
att(154,67).
att(261,291).
att(314,50).
att(313,118).
att(92,226).
att(161,310).
att(155,24).
att(202,28).
att(222,286).
att(272,293).
att(55,309).
att(47,63).
att(245,227).
att(316,309).
att(18,221).
att(309,245).
att(238,276).
att(66,306).
att(253,275).
att(263,185).
att(210,177).
att(153,181).
att(305,12).
att(78,283).
att(148,287).
att(171,116).
att(75,280).
att(281,116).
att(37,31).
att(131,19).
att(85,243).
att(203,156).
att(314,165).
att(242,12).
att(85,162).
att(118,10).
att(196,236).
att(20,277).
att(82,57).
att(291,261).
att(288,62).
att(30,31).
att(139,54).
att(115,159).
att(124,57).
att(279,13).
att(39,234).
att(25,8).
att(53,25).
att(289,212).
att(90,127).
att(23,238).
att(210,245).
att(162,269).
att(309,96).
att(96,162).
att(9,256).
att(318,220).
att(159,41).
att(139,164).
att(215,159).
att(20,280).
att(225,59).
att(58,77).
att(79,55).
att(70,232).
att(204,223).
att(116,171).
att(219,52).
att(113,246).
att(30,263).
att(192,109).
att(207,7).
att(171,100).
att(44,1).
att(21,319).
att(80,235).
att(63,47).
att(188,278).
att(156,235).
att(155,291).
att(81,47).
att(1,248).
att(72,98).
att(276,23).
att(182,61).
att(258,156).
att(30,289).
att(311,203).
att(229,45).
att(137,29).
att(301,153).
att(163,247).
att(142,26).
att(178,224).
att(5,34).
att(228,182).
att(258,82).
att(199,230).
att(309,156).
att(218,30).
att(86,186).
att(268,110).
att(62,35).
att(14,104).
att(57,271).
att(280,20).
att(47,22).
att(51,103).
att(125,299).
att(293,309).
att(238,150).
att(275,274).
att(309,267).
att(89,196).
att(96,278).
att(111,174).
att(70,287).
att(279,254).
att(160,64).
att(128,162).
att(113,76).
att(64,3).
att(79,309).
att(209,216).
att(66,194).
att(177,210).
att(313,290).
att(180,56).
att(142,102).
att(67,200).
att(261,102).
att(235,203).
att(127,209).
att(30,212).
att(35,26).
att(150,238).
att(260,266).
att(282,165).
att(140,245).
att(21,73).
att(226,34).
att(117,106).
att(113,253).
att(30,209).
att(171,249).
att(271,317).
att(308,105).
att(182,228).
att(266,73).
att(275,253).
att(285,89).
att(141,281).
att(309,269).
att(191,296).
att(244,69).
att(244,192).
att(279,218).
att(148,99).
att(278,96).
att(127,200).
att(258,57).
att(214,267).
att(44,150).
att(217,116).
att(11,17).
att(204,213).
att(192,244).
att(136,189).
att(195,203).
att(289,309).
att(315,225).
att(149,43).
att(94,303).
att(183,163).
att(178,171).
att(144,135).
att(309,124).
att(195,15).
att(180,184).
att(56,171).
att(81,303).
att(300,72).
att(33,171).
att(245,210).
att(57,169).
att(4,32).
att(87,240).
att(237,120).
att(295,105).
att(96,30).
att(60,221).
att(159,115).
att(184,116).
att(9,253).
att(87,113).
att(160,219).
att(130,67).
att(107,240).
att(311,156).
att(198,251).
att(297,186).
att(278,16).
att(288,167).
att(67,154).
att(65,180).
att(118,203).
att(307,158).
att(172,204).
att(193,96).
att(230,199).
att(96,40).
att(91,137).
att(49,114).
att(47,81).
att(152,111).
att(253,113).
att(189,211).
att(248,1).
att(161,147).
att(231,140).
att(151,78).
att(98,299).
att(241,71).
att(51,216).
att(286,222).
att(56,224).
att(135,247).
att(223,213).
att(57,124).
att(121,99).
att(283,270).
att(28,119).
att(99,148).
att(166,217).
att(11,145).
att(60,114).
att(55,97).
att(82,124).
att(293,272).
att(227,309).
att(32,290).
att(180,241).
att(86,183).
att(207,179).
att(69,46).
att(218,185).
att(112,215).
att(24,273).
att(109,173).
att(151,181).
att(36,104).
att(116,184).
att(206,79).
att(8,123).
att(158,4).
att(93,268).
att(105,295).
att(123,245).
att(266,260).
att(218,309).
att(269,224).
att(201,134).
att(276,168).
att(194,93).
att(33,144).
att(279,127).
att(76,205).
att(104,14).
att(35,62).
att(157,119).
att(30,309).
att(309,227).
att(96,176).
att(257,58).
att(309,289).
att(81,134).
att(133,112).
att(239,208).
att(249,88).
att(286,25).
att(121,289).
att(178,269).
att(88,171).
att(67,270).
att(154,43).
att(79,18).
att(168,166).
att(294,129).
att(63,265).
att(187,45).
att(166,168).
att(309,243).
att(257,46).
att(123,177).
att(319,179).
att(220,296).
att(127,126).
att(209,37).
att(300,126).
att(206,309).
att(185,263).
att(162,85).
att(192,3).
att(192,61).
att(226,233).
att(101,132).
att(302,197).
att(131,132).
att(279,90).
att(173,310).
att(269,192).
att(173,109).
att(309,235).
att(108,246).
att(145,11).
att(7,277).
att(146,15).
att(254,106).
att(172,169).
att(186,122).
att(185,218).
att(132,101).
att(110,268).
att(233,140).
att(19,29).
att(309,30).
att(214,229).
att(100,171).
att(122,297).
att(109,192).
att(218,262).
att(175,83).
att(73,266).
att(243,226).
att(13,111).
att(42,122).
att(120,294).
att(299,273).
att(108,304).
att(242,259).
att(61,318).
att(191,264).
att(46,224).
att(133,91).
att(37,30).
att(168,276).
att(12,305).
att(192,147).
att(269,6).
att(211,189).
att(282,159).
att(309,128).
att(283,117).
att(58,116).
att(260,39).
att(281,141).
att(54,170).
att(221,18).
att(177,53).
att(59,225).
att(5,243).
att(41,149).
att(17,48).
att(129,249).
att(17,11).
att(224,272).
att(68,265).
