arg(1..100).
att(2,1).
att(35,32).
att(67,64).
att(35,96).
att(12,41).
att(1,3).
att(5,1).
att(24,36).
att(51,58).
att(4,2).
att(5,2).
att(11,1).
att(59,95).
att(45,29).
att(14,1).
att(54,57).
att(8,2).
att(9,2).
att(60,55).
att(21,70).
att(10,2).
att(91,46).
att(95,45).
att(42,30).
att(13,2).
att(80,60).
att(86,68).
att(39,31).
att(87,85).
att(57,26).
att(36,32).
att(100,32).
att(14,59).
att(33,51).
att(45,92).
att(10,4).
att(87,58).
att(68,74).
att(78,37).
att(3,7).
att(8,5).
att(10,98).
att(49,59).
att(53,1).
att(54,1).
att(74,72).
att(59,1).
att(43,73).
att(62,66).
att(14,4).
att(31,66).
att(6,100).
att(23,37).
att(37,32).
att(33,2).
att(47,100).
att(67,24).
att(35,2).
att(36,2).
att(61,55).
att(17,4).
att(74,1).
att(76,1).
att(13,5).
att(26,36).
att(10,6).
att(1,10).
att(51,28).
att(21,38).
att(91,99).
att(21,93).
att(78,22).
att(89,1).
att(45,2).
att(6,8).
att(16,5).
att(48,46).
att(9,7).
att(47,2).
att(23,4).
att(99,1).
att(18,5).
att(14,6).
att(88,35).
att(57,68).
att(61,42).
att(6,9).
att(36,3).
att(69,24).
att(11,61).
att(16,6).
att(85,21).
att(49,71).
att(84,36).
att(22,38).
att(40,3).
att(10,8).
att(1,12).
att(81,70).
att(76,38).
att(100,73).
att(63,2).
att(7,63).
att(18,6).
att(72,73).
att(65,41).
att(66,65).
att(52,45).
att(45,3).
att(25,69).
att(49,46).
att(46,3).
att(35,4).
att(3,12).
att(97,74).
att(62,42).
att(74,2).
att(75,2).
att(82,60).
att(14,86).
att(14,8).
att(77,2).
att(11,9).
att(51,3).
att(30,67).
att(100,19).
att(79,50).
att(50,29).
att(87,21).
att(12,87).
att(82,2).
att(40,4).
att(7,11).
att(25,6).
att(56,3).
att(85,2).
att(32,5).
att(58,68).
att(90,35).
att(17,8).
att(97,90).
att(59,3).
att(76,62).
att(90,2).
att(53,45).
att(60,3).
att(63,55).
att(4,13).
att(92,2).
att(93,2).
att(76,81).
att(86,36).
att(7,12).
att(41,32).
att(70,64).
att(79,80).
att(82,79).
att(24,7).
att(10,44).
att(92,84).
att(16,9).
att(78,38).
att(100,2).
att(89,85).
att(36,87).
att(67,3).
att(77,97).
att(68,3).
att(8,12).
att(95,46).
att(6,13).
att(73,24).
att(27,37).
att(32,6).
att(42,94).
att(64,26).
att(56,97).
att(54,4).
att(7,13).
att(5,14).
att(71,40).
att(45,48).
att(54,45).
att(80,96).
att(43,5).
att(80,61).
att(10,12).
att(39,33).
att(20,40).
att(75,39).
att(95,75).
att(11,12).
att(88,48).
att(61,56).
att(65,26).
att(21,9).
att(9,45).
att(9,13).
att(92,47).
att(48,5).
att(96,46).
att(84,3).
att(3,16).
att(49,82).
att(59,96).
att(86,3).
att(10,13).
att(68,75).
att(86,22).
att(89,93).
att(88,3).
att(37,34).
att(43,49).
att(57,79).
att(7,90).
att(84,60).
att(95,91).
att(1,93).
att(67,4).
att(2,17).
att(52,46).
att(81,23).
att(54,70).
att(25,9).
att(93,99).
att(9,14).
att(69,4).
att(94,3).
att(29,37).
att(55,5).
att(95,3).
att(15,12).
att(44,32).
att(96,3).
att(38,51).
att(10,14).
att(38,7).
att(56,58).
att(73,4).
att(97,46).
att(59,57).
att(47,83).
att(77,24).
att(28,55).
att(33,8).
att(49,72).
att(88,22).
att(18,85).
att(75,63).
att(66,42).
att(44,49).
att(94,35).
att(61,5).
att(48,92).
att(23,71).
att(17,96).
att(50,47).
att(99,34).
att(36,8).
att(22,11).
att(19,12).
att(25,82).
att(81,71).
att(27,10).
att(54,6).
att(28,69).
att(98,46).
att(78,72).
att(96,21).
att(86,4).
att(87,94).
att(7,47).
att(53,30).
att(81,80).
att(60,57).
att(34,53).
att(38,65).
att(7,17).
att(23,83).
att(96,57).
att(42,75).
att(29,55).
att(1,20).
att(61,28).
att(51,91).
att(91,100).
att(51,47).
att(26,39).
att(53,81).
att(92,4).
att(13,15).
att(42,8).
att(50,72).
att(76,63).
att(19,13).
att(60,6).
att(94,99).
att(94,4).
att(15,75).
att(87,37).
att(11,16).
att(43,8).
att(61,6).
att(71,92).
att(97,98).
att(43,85).
att(98,66).
att(98,21).
att(86,23).
att(61,44).
att(28,11).
att(40,76).
att(20,95).
att(67,76).
att(85,70).
att(78,5).
att(2,50).
att(36,88).
att(64,56).
att(82,71).
att(61,57).
att(62,87).
att(81,5).
att(47,8).
att(93,22).
att(49,48).
att(79,72).
att(19,14).
att(34,67).
att(41,86).
att(83,5).
att(11,17).
att(80,39).
att(23,13).
att(14,16).
att(11,46).
att(96,47).
att(7,19).
att(94,22).
att(77,63).
att(57,89).
att(34,89).
att(12,17).
att(24,13).
att(88,94).
att(71,6).
att(74,99).
att(21,14).
att(28,39).
att(51,72).
att(83,88).
att(91,93).
att(33,11).
att(92,85).
att(8,19).
att(68,55).
att(6,20).
att(78,52).
att(90,5).
att(53,47).
att(85,38).
att(11,18).
att(40,10).
att(40,35).
att(26,40).
att(60,88).
att(47,9).
att(50,32).
att(91,59).
att(5,21).
att(64,95).
att(12,18).
att(15,17).
att(10,19).
att(60,45).
att(74,83).
att(60,69).
att(25,14).
att(13,18).
att(57,46).
att(58,8).
att(29,13).
att(54,47).
att(43,64).
att(75,64).
att(83,80).
att(22,42).
att(39,11).
att(66,67).
att(9,20).
att(45,10).
att(71,42).
att(30,39).
att(5,22).
att(92,23).
att(98,47).
att(20,43).
att(40,52).
att(63,29).
att(84,88).
att(41,11).
att(47,74).
att(87,6).
att(98,91).
att(23,84).
att(8,91).
att(83,39).
att(74,7).
att(28,14).
att(35,54).
att(82,62).
att(28,40).
att(25,15).
att(11,100).
att(29,14).
att(72,75).
att(16,45).
att(79,63).
att(14,63).
att(52,61).
att(93,77).
att(22,73).
att(34,38).
att(43,35).
att(83,25).
att(20,17).
att(33,55).
att(58,59).
att(61,58).
att(78,82).
att(64,87).
att(29,40).
att(50,33).
att(60,9).
att(4,68).
att(48,84).
att(47,63).
att(36,13).
att(93,59).
att(26,58).
att(32,39).
att(47,34).
att(79,90).
att(88,50).
att(16,19).
att(99,6).
att(55,99).
att(98,67).
att(48,11).
att(42,65).
att(82,89).
att(67,77).
att(14,20).
att(63,9).
att(15,63).
att(23,17).
att(56,10).
att(20,18).
att(82,72).
att(97,76).
att(54,91).
att(10,22).
att(7,92).
att(95,68).
att(62,58).
att(97,23).
att(23,73).
att(24,17).
att(18,19).
att(45,51).
att(45,12).
att(6,24).
att(22,85).
att(36,38).
att(18,45).
att(86,25).
att(39,37).
att(5,51).
att(9,66).
att(54,48).
att(36,14).
att(46,75).
att(59,10).
att(75,54).
att(6,81).
att(91,7).
att(53,11).
att(31,40).
att(5,25).
att(97,99).
att(77,91).
att(65,78).
att(19,75).
att(26,42).
att(47,94).
att(12,48).
att(10,23).
att(80,90).
att(16,88).
att(46,51).
att(44,76).
att(63,58).
att(24,18).
att(21,19).
att(50,34).
att(97,7).
att(95,85).
att(74,75).
att(32,40).
att(12,65).
att(96,37).
att(89,87).
att(47,35).
att(72,66).
att(69,67).
att(74,9).
att(25,18).
att(33,56).
att(35,39).
att(19,97).
att(42,87).
att(54,33).
att(7,25).
att(41,37).
att(8,92).
att(28,93).
att(67,10).
att(30,82).
att(68,10).
att(18,21).
att(18,46).
att(66,78).
att(13,100).
att(79,9).
att(80,98).
att(23,44).
att(98,99).
att(97,68).
att(64,69).
att(13,65).
att(31,41).
att(81,9).
att(73,66).
att(81,27).
att(29,18).
att(88,51).
att(84,89).
att(41,15).
att(38,89).
att(100,58).
att(48,51).
att(71,56).
att(93,86).
att(27,59).
att(56,72).
att(89,95).
att(20,97).
att(92,94).
att(91,70).
att(40,67).
att(98,8).
att(16,23).
att(4,83).
att(16,64).
att(69,30).
att(5,94).
att(1,96).
att(35,17).
att(43,53).
att(67,78).
att(38,39).
att(44,37).
att(62,70).
att(14,24).
att(28,72).
att(83,27).
att(78,99).
att(16,99).
att(49,51).
att(59,90).
att(46,86).
att(45,15).
att(56,13).
att(26,20).
att(54,73).
att(79,74).
att(17,77).
att(63,12).
att(41,16).
att(87,40).
att(89,26).
att(81,98).
att(96,100).
att(95,69).
att(13,25).
att(37,99).
att(21,22).
att(54,83).
att(96,38).
att(84,97).
att(31,42).
att(7,28).
att(47,52).
att(76,55).
att(50,51).
att(34,41).
att(88,40).
att(49,36).
att(83,53).
att(94,50).
att(57,91).
att(39,55).
att(76,29).
att(84,10).
att(67,12).
att(93,94).
att(19,47).
att(85,81).
att(40,39).
att(85,10).
att(72,67).
att(86,72).
att(55,62).
att(71,77).
att(42,54).
att(6,94).
att(53,35).
att(6,29).
att(95,60).
att(37,80).
att(41,17).
att(77,43).
att(37,18).
att(61,60).
att(27,73).
att(60,90).
att(20,63).
att(27,44).
att(60,48).
att(99,9).
att(78,11).
att(34,19).
att(80,91).
att(54,50).
att(92,61).
att(5,30).
att(15,100).
att(19,88).
att(31,20).
att(1,32).
att(11,51).
att(67,46).
att(83,90).
att(25,22).
att(74,85).
att(95,78).
att(12,80).
att(85,97).
att(32,20).
att(23,75).
att(81,54).
att(77,84).
att(70,68).
att(46,53).
att(59,61).
att(6,83).
att(62,60).
att(86,81).
att(13,27).
att(31,43).
att(97,93).
att(30,21).
att(85,53).
att(27,22).
att(2,72).
att(34,42).
att(95,26).
att(5,31).
att(19,25).
att(43,67).
att(26,61).
att(78,92).
att(31,21).
att(87,41).
att(2,56).
att(22,24).
att(77,12).
att(86,11).
att(44,54).
att(57,15).
att(70,13).
att(60,34).
att(18,99).
att(20,88).
att(20,25).
att(96,78).
att(15,50).
att(56,50).
att(68,69).
att(23,24).
att(67,79).
att(16,100).
att(29,60).
att(89,11).
att(98,100).
att(46,87).
att(49,17).
att(49,65).
att(77,30).
att(41,40).
att(42,55).
att(39,99).
att(66,14).
att(84,82).
att(73,77).
att(76,56).
att(82,74).
att(54,36).
att(65,33).
att(25,96).
att(50,17).
att(87,28).
att(95,94).
att(16,50).
att(70,46).
att(51,17).
att(75,13).
att(17,27).
att(52,75).
att(98,60).
att(37,100).
att(42,40).
att(44,88).
att(25,62).
att(66,70).
att(21,48).
att(79,92).
att(32,22).
att(72,68).
att(16,79).
att(29,23).
att(43,55).
att(30,84).
att(88,63).
att(18,27).
att(64,48).
att(42,98).
att(95,61).
att(46,54).
att(78,13).
att(21,26).
att(49,38).
att(2,57).
att(86,73).
att(88,89).
att(90,41).
att(71,32).
att(58,50).
att(54,17).
att(41,20).
att(4,72).
att(2,73).
att(19,27).
att(56,63).
att(88,12).
att(95,27).
att(4,85).
att(34,22).
att(98,11).
att(82,65).
att(75,45).
att(66,15).
att(80,13).
att(90,28).
att(68,59).
att(89,12).
att(28,24).
att(73,14).
att(10,31).
att(64,71).
att(57,36).
att(73,68).
att(81,30).
att(66,80).
att(75,14).
att(50,53).
att(24,97).
att(33,44).
att(9,94).
att(11,31).
att(76,45).
att(34,59).
att(74,86).
att(1,98).
att(36,43).
att(87,73).
att(30,24).
att(96,40).
att(3,35).
att(83,91).
att(39,42).
att(87,29).
att(69,59).
att(51,76).
att(21,49).
att(81,75).
att(63,61).
att(37,58).
att(66,34).
att(1,87).
att(65,71).
att(51,53).
att(70,47).
att(44,68).
att(27,86).
att(49,77).
att(27,75).
att(22,49).
att(94,28).
att(25,87).
att(35,44).
att(28,62).
att(30,25).
att(27,26).
att(32,84).
att(44,21).
att(49,54).
att(80,56).
att(81,92).
att(19,29).
att(50,39).
att(30,46).
att(52,53).
att(82,75).
att(55,52).
att(79,76).
att(78,85).
att(4,97).
att(57,37).
att(26,63).
att(10,83).
att(93,88).
att(77,15).
att(74,58).
att(86,30).
att(49,96).
att(95,52).
att(51,39).
att(71,59).
att(18,30).
att(32,25).
att(30,95).
att(94,13).
att(29,26).
att(37,92).
att(59,63).
att(65,61).
att(26,48).
att(68,80).
att(43,22).
att(56,52).
att(89,97).
att(87,14).
att(33,25).
att(92,96).
att(43,69).
att(30,26).
att(66,35).
att(74,78).
att(92,53).
att(64,72).
att(83,75).
att(13,93).
att(47,97).
att(22,29).
att(45,56).
att(96,52).
att(98,28).
att(79,85).
att(9,95).
att(93,29).
att(31,74).
att(63,50).
att(2,38).
att(57,64).
att(20,30).
att(97,87).
att(51,54).
att(38,24).
att(81,100).
att(24,98).
att(93,72).
att(35,25).
att(30,47).
att(29,27).
att(89,30).
att(47,41).
att(16,32).
att(90,73).
att(3,38).
att(60,19).
att(71,17).
att(23,50).
att(85,15).
att(33,26).
att(65,72).
att(53,86).
att(49,55).
att(12,34).
att(78,77).
att(19,67).
att(61,37).
att(58,52).
att(74,69).
att(22,30).
att(81,32).
att(37,25).
att(42,43).
att(25,29).
att(26,49).
att(64,62).
att(87,15).
att(80,16).
att(83,84).
att(12,83).
att(87,65).
att(10,95).
att(17,53).
att(62,51).
att(66,36).
att(82,100).
att(35,73).
att(56,53).
att(81,67).
att(74,59).
att(5,74).
att(85,99).
att(99,79).
att(69,49).
att(30,28).
att(56,39).
att(23,99).
att(62,63).
att(64,91).
att(91,15).
att(75,87).
att(45,57).
att(10,36).
att(71,18).
att(44,90).
att(1,61).
att(78,86).
att(15,34).
att(63,51).
att(51,55).
att(100,94).
att(44,99).
att(60,52).
att(15,93).
att(57,53).
att(23,31).
att(14,55).
att(94,30).
att(11,84).
att(75,59).
att(38,26).
att(36,46).
att(68,81).
att(68,36).
att(79,68).
att(71,80).
att(42,44).
att(48,79).
att(70,71).
att(33,62).
att(73,70).
att(3,99).
att(20,80).
att(49,56).
att(83,76).
att(59,21).
att(12,36).
att(69,36).
att(76,95).
att(58,53).
att(89,16).
att(37,46).
att(39,72).
att(86,32).
att(8,38).
att(97,15).
att(62,38).
att(6,39).
att(40,45).
att(25,31).
att(90,16).
att(27,50).
att(31,29).
att(58,65).
att(92,97).
att(70,36).
att(58,85).
att(41,26).
att(70,61).
att(56,40).
att(30,49).
att(62,52).
att(7,39).
att(53,23).
att(53,55).
att(29,30).
att(72,80).
att(97,88).
att(3,41).
att(83,33).
att(21,33).
att(49,79).
att(91,90).
att(41,45).
att(73,19).
att(84,76).
att(93,16).
att(99,42).
att(39,27).
att(28,50).
att(50,24).
att(74,88).
att(95,43).
att(33,29).
att(36,47).
att(76,48).
att(21,53).
att(59,22).
att(74,60).
att(87,17).
att(41,92).
att(63,52).
att(68,62).
att(65,63).
att(4,61).
att(92,82).
att(28,31).
att(89,83).
att(96,16).
att(69,72).
att(85,33).
att(56,23).
att(91,74).
att(23,33).
att(18,35).
att(8,74).
att(89,17).
att(58,40).
att(35,85).
att(70,50).
att(6,75).
att(37,47).
att(26,32).
att(77,48).
att(73,80).
att(23,100).
att(99,95).
att(100,30).
att(16,36).
att(95,31).
att(9,86).
att(35,29).
att(45,81).
att(79,78).
att(92,90).
att(22,80).
att(14,37).
att(41,72).
att(57,66).
att(51,97).
att(72,61).
att(58,54).
att(85,46).
att(36,62).
att(96,54).
att(65,83).
att(96,31).
att(3,62).
att(64,74).
att(38,47).
att(96,81).
att(78,48).
att(3,100).
att(43,27).
att(79,69).
att(86,18).
att(47,90).
att(39,61).
att(50,43).
att(44,45).
att(28,32).
att(99,63).
att(69,21).
att(55,67).
att(34,30).
att(70,98).
att(79,35).
att(62,53).
att(27,66).
att(57,41).
att(64,39).
att(29,32).
att(38,29).
att(63,84).
att(97,96).
att(67,63).
att(62,75).
att(8,87).
att(96,89).
att(51,43).
att(16,71).
att(52,97).
att(48,58).
att(29,51).
att(77,20).
att(97,17).
att(51,57).
att(36,30).
att(33,31).
att(4,43).
att(79,87).
att(77,60).
att(94,82).
att(57,55).
att(80,48).
att(90,66).
att(60,94).
att(74,61).
att(59,66).
att(33,76).
att(62,65).
att(71,62).
att(79,20).
att(87,76).
att(19,70).
att(89,99).
att(96,44).
att(49,58).
att(86,19).
att(56,42).
att(16,57).
att(52,57).
att(88,92).
att(95,97).
att(38,30).
att(81,69).
att(14,58).
att(94,90).
att(69,73).
att(24,68).
att(78,60).
att(3,90).
att(78,70).
att(61,24).
att(11,74).
att(40,84).
att(29,66).
att(22,69).
att(8,61).
att(93,45).
att(33,32).
att(39,48).
att(83,86).
att(73,81).
att(20,70).
att(52,69).
att(53,79).
att(76,80).
att(54,26).
att(68,39).
att(59,55).
att(95,65).
att(37,31).
att(37,95).
att(78,21).
att(31,88).
att(47,71).
att(59,25).
att(56,78).
att(79,70).
att(44,29).
att(58,67).
att(42,93).
att(79,21).
att(41,30).
att(48,59).
att(93,98).
att(43,47).
att(52,89).
att(94,33).
att(52,44).
att(7,62).
att(95,90).
att(47,91).
att(64,65).
