arg(1..100).
att(2,1).
att(19,16).
att(35,32).
att(67,64).
att(99,96).
att(3,1).
att(2,3).
att(4,2).
att(62,63).
att(66,67).
att(1,4).
att(25,23).
att(57,59).
att(54,57).
att(60,58).
att(5,3).
att(3,4).
att(29,94).
att(57,56).
att(6,3).
att(2,5).
att(5,4).
att(60,61).
att(92,93).
att(4,32).
att(31,28).
att(39,36).
att(71,68).
att(77,80).
att(26,23).
att(97,95).
att(80,79).
att(63,85).
att(87,89).
att(82,62).
att(6,5).
att(38,41).
att(7,5).
att(41,40).
att(72,75).
att(27,85).
att(71,73).
att(84,82).
att(5,84).
att(31,34).
att(5,71).
att(34,33).
att(8,6).
att(20,17).
att(6,7).
att(58,59).
att(70,71).
att(92,95).
att(95,94).
att(5,8).
att(77,78).
att(8,7).
att(93,91).
att(30,29).
att(42,40).
att(52,55).
att(84,25).
att(48,46).
att(9,7).
att(55,54).
att(100,1).
att(19,18).
att(38,37).
att(6,9).
att(9,8).
att(38,13).
att(43,44).
att(85,86).
att(28,30).
att(46,43).
att(88,87).
att(20,18).
att(13,47).
att(24,25).
att(76,74).
att(43,40).
att(91,88).
att(95,96).
att(84,17).
att(98,95).
att(74,77).
att(24,17).
att(49,46).
att(65,68).
att(77,76).
att(85,82).
att(11,65).
att(68,67).
att(10,9).
att(56,54).
att(91,90).
att(8,10).
att(11,9).
att(79,82).
att(92,7).
att(82,81).
att(12,9).
att(97,99).
att(100,98).
att(93,95).
att(70,69).
att(96,94).
att(8,11).
att(26,25).
att(91,92).
att(40,37).
att(11,10).
att(77,23).
att(53,52).
att(60,59).
att(12,10).
att(49,50).
att(98,97).
att(1,98).
att(67,65).
att(52,49).
att(42,45).
att(24,26).
att(74,75).
att(100,2).
att(61,31).
att(86,88).
att(83,85).
att(31,30).
att(66,68).
att(69,72).
att(75,77).
att(22,19).
att(78,76).
att(91,94).
att(94,93).
att(12,11).
att(45,48).
att(36,34).
att(29,31).
att(84,40).
att(51,53).
att(32,30).
att(89,91).
att(54,52).
att(79,78).
att(71,69).
att(92,90).
att(58,57).
att(43,45).
att(83,81).
att(66,78).
att(21,20).
att(43,41).
att(39,38).
att(65,66).
att(66,63).
att(10,13).
att(34,35).
att(98,99).
att(13,12).
att(97,94).
att(19,21).
att(90,3).
att(3,100).
att(24,27).
att(74,73).
att(14,43).
att(64,61).
att(70,67).
att(49,47).
att(14,12).
att(70,72).
att(44,45).
att(37,39).
att(41,42).
att(47,44).
att(48,51).
att(79,76).
att(40,38).
att(44,41).
att(56,58).
att(25,27).
att(18,36).
att(84,83).
att(87,90).
att(26,99).
att(62,59).
att(11,14).
att(57,33).
att(47,48).
att(97,96).
att(84,81).
att(26,27).
att(29,26).
att(33,36).
att(13,14).
att(49,51).
att(52,50).
att(72,74).
att(75,73).
att(20,22).
att(76,75).
att(23,21).
att(78,39).
att(71,72).
att(60,57).
att(12,15).
att(46,93).
att(57,55).
att(37,35).
att(85,87).
att(21,22).
att(24,21).
att(13,15).
att(46,45).
att(28,27).
att(31,32).
att(51,54).
att(14,15).
att(50,51).
att(88,90).
att(53,50).
att(60,63).
att(81,78).
att(35,36).
att(38,35).
att(96,93).
att(26,28).
att(66,69).
att(29,27).
att(20,23).
att(69,68).
att(23,22).
att(44,42).
att(49,48).
att(55,56).
att(98,96).
att(44,46).
att(58,55).
att(76,73).
att(58,61).
att(47,45).
att(79,81).
att(14,16).
att(82,80).
att(24,22).
att(30,27).
att(17,15).
att(41,39).
att(4,44).
att(30,33).
att(55,53).
att(63,65).
att(15,16).
att(19,24).
att(33,32).
att(66,64).
att(18,15).
att(83,86).
att(94,92).
att(42,43).
att(86,87).
att(61,63).
att(25,22).
att(89,86).
att(97,100).
att(64,62).
att(100,99).
att(50,48).
att(56,59).
att(89,88).
att(34,37).
att(37,36).
att(67,69).
att(44,17).
att(70,68).
att(31,33).
att(17,16).
att(34,32).
att(39,40).
att(80,83).
att(89,90).
att(59,61).
att(92,89).
att(62,60).
att(83,82).
att(2,99).
att(29,28).
att(52,51).
att(70,73).
att(18,16).
att(53,54).
att(73,72).
att(56,53).
att(78,75).
att(24,23).
att(38,36).
att(64,65).
att(80,81).
