arg(1..400).
att(261,15).
att(323,320).
att(4,1).
att(1,3).
att(392,250).
att(2,3).
att(4,2).
att(6,2).
att(1,5).
att(5,3).
att(240,358).
att(270,268).
att(28,79).
att(260,261).
att(252,253).
att(7,4).
att(8,4).
att(290,286).
att(21,2).
att(6,5).
att(221,223).
att(224,222).
att(4,6).
att(47,46).
att(7,5).
att(395,100).
att(328,331).
att(331,330).
att(237,68).
att(145,396).
att(3,264).
att(204,247).
att(251,379).
att(247,281).
att(355,354).
att(6,7).
att(357,361).
att(400,106).
att(9,6).
att(309,124).
att(378,81).
att(304,300).
att(5,8).
att(29,190).
att(147,143).
att(321,325).
att(8,7).
att(6,8).
att(148,152).
att(204,203).
att(92,285).
att(5,9).
att(388,373).
att(369,372).
att(344,342).
att(341,343).
att(186,188).
att(100,103).
att(63,66).
att(103,102).
att(248,249).
att(8,9).
att(136,137).
att(11,8).
att(139,136).
att(344,346).
att(379,376).
att(12,8).
att(7,10).
att(86,275).
att(11,9).
att(285,283).
att(174,177).
att(81,37).
att(9,10).
att(177,176).
att(7,11).
att(13,9).
att(335,337).
att(25,322).
att(378,380).
att(94,91).
att(125,49).
att(199,198).
att(381,379).
att(138,372).
att(196,192).
att(82,79).
att(350,348).
att(10,11).
att(399,275).
att(339,188).
att(325,328).
att(162,165).
att(365,366).
att(368,365).
att(9,12).
att(101,103).
att(231,232).
att(234,231).
att(104,102).
att(13,11).
att(234,1).
att(108,385).
att(55,146).
att(326,73).
att(118,122).
att(254,258).
att(277,276).
att(292,295).
att(332,334).
att(65,66).
att(68,65).
att(134,138).
att(260,256).
att(3,400).
att(10,13).
att(290,291).
att(89,93).
att(140,136).
att(383,382).
att(77,81).
att(313,315).
att(242,240).
att(317,318).
att(49,47).
att(14,12).
att(206,86).
att(110,113).
att(258,262).
att(244,245).
att(113,112).
att(300,297).
att(350,352).
att(10,14).
att(205,203).
att(155,159).
att(11,14).
att(277,281).
att(312,311).
att(366,362).
att(283,279).
att(391,390).
att(93,153).
att(324,320).
att(50,47).
att(285,288).
att(295,49).
att(288,287).
att(237,236).
att(105,102).
att(13,14).
att(178,176).
att(16,13).
att(11,15).
att(78,81).
att(391,72).
att(163,97).
att(93,92).
att(280,99).
att(119,122).
att(143,145).
att(246,250).
att(360,42).
att(382,386).
att(194,193).
att(64,67).
att(197,199).
att(17,14).
att(223,329).
att(399,1).
att(216,219).
att(12,16).
att(75,246).
att(322,325).
att(18,14).
att(215,213).
att(49,48).
att(362,352).
att(16,15).
att(191,111).
att(100,104).
att(142,3).
att(79,81).
att(106,102).
att(14,16).
att(283,284).
att(17,15).
att(104,387).
att(65,67).
att(170,171).
att(147,314).
att(216,327).
att(345,342).
att(342,339).
att(224,19).
att(252,161).
att(220,224).
att(17,16).
att(120,122).
att(185,189).
att(18,16).
att(299,78).
att(121,110).
att(150,178).
att(336,337).
att(272,273).
att(208,209).
att(80,81).
att(211,208).
att(101,256).
att(51,48).
att(179,176).
att(132,129).
att(258,257).
att(371,368).
att(69,66).
att(260,311).
att(38,340).
att(396,392).
att(181,183).
att(184,182).
att(248,244).
att(364,51).
att(242,308).
att(95,92).
att(167,164).
att(293,295).
att(142,47).
att(288,292).
att(294,290).
att(46,50).
att(262,261).
att(88,355).
att(235,237).
att(238,236).
att(379,380).
att(33,258).
att(20,17).
att(64,68).
att(356,358).
att(315,319).
att(70,66).
att(307,220).
att(336,333).
att(281,280).
att(321,317).
att(21,17).
att(16,19).
att(50,49).
att(121,122).
att(323,175).
att(289,287).
att(233,374).
att(247,250).
att(217,219).
att(46,151).
att(213,214).
att(208,3).
att(90,94).
att(105,103).
att(351,352).
att(222,198).
att(18,19).
att(24,17).
att(21,18).
att(381,383).
att(68,67).
att(48,50).
att(298,194).
att(352,70).
att(266,265).
att(16,20).
att(361,364).
att(300,302).
att(140,137).
att(174,178).
att(20,19).
att(82,284).
att(306,309).
att(309,308).
att(18,20).
att(207,203).
att(52,49).
att(224,223).
att(182,183).
att(392,390).
att(357,2).
att(281,285).
att(66,68).
att(69,67).
att(212,208).
att(22,19).
att(182,390).
att(299,374).
att(198,392).
att(326,324).
att(92,78).
att(106,103).
att(54,241).
att(42,77).
att(70,283).
att(47,51).
att(301,222).
att(83,81).
att(157,45).
att(383,2).
att(76,334).
att(112,147).
att(235,352).
att(243,246).
att(215,323).
att(131,130).
att(100,171).
att(196,200).
att(365,204).
att(153,229).
att(270,274).
att(108,218).
att(248,233).
att(252,254).
att(359,361).
att(346,342).
att(172,171).
att(20,21).
att(86,62).
att(400,2).
att(23,20).
att(183,24).
att(146,145).
att(337,341).
att(51,50).
att(398,352).
att(152,328).
att(263,261).
att(324,373).
att(45,152).
att(308,304).
att(95,93).
att(267,270).
att(81,82).
att(278,3).
att(307,167).
att(101,105).
att(218,219).
att(138,267).
att(22,21).
att(289,292).
att(10,262).
att(120,123).
att(153,152).
att(340,336).
att(123,122).
att(52,50).
att(374,371).
att(29,275).
att(286,29).
att(174,339).
att(20,22).
att(175,178).
att(23,21).
att(95,291).
att(327,328).
att(279,281).
att(166,165).
att(375,378).
att(178,144).
att(225,229).
att(296,299).
att(346,350).
att(378,377).
att(108,395).
att(318,314).
att(19,23).
att(1,31).
att(129,131).
att(202,205).
att(132,130).
att(391,394).
att(326,280).
att(79,83).
att(93,94).
att(85,81).
att(264,266).
att(118,71).
att(231,233).
att(69,68).
att(207,210).
att(55,270).
att(393,311).
att(314,311).
att(42,269).
att(367,366).
att(377,381).
att(13,329).
att(364,367).
att(144,146).
att(360,357).
att(105,104).
att(147,145).
att(24,22).
att(48,52).
att(320,322).
att(113,114).
att(303,16).
att(173,171).
att(121,123).
att(72,12).
att(114,397).
att(197,200).
att(200,199).
att(20,24).
att(151,153).
att(155,169).
att(52,51).
att(66,272).
att(21,24).
att(24,23).
att(247,245).
att(251,392).
att(339,320).
att(164,166).
att(25,23).
att(365,363).
att(253,254).
att(334,330).
att(311,251).
att(212,215).
att(102,306).
att(251,183).
att(188,189).
att(191,188).
att(85,158).
att(222,218).
att(274,273).
att(228,61).
att(111,115).
att(181,184).
att(264,261).
att(289,90).
att(21,25).
att(184,183).
att(84,82).
att(298,250).
att(27,23).
att(312,280).
att(137,139).
att(7,31).
att(140,138).
att(157,160).
att(271,269).
att(160,159).
att(116,136).
att(125,122).
att(22,25).
att(95,94).
att(54,51).
att(226,229).
att(301,135).
att(249,250).
att(306,305).
att(72,68).
att(292,296).
att(298,294).
att(63,187).
att(208,210).
att(290,292).
att(344,343).
att(341,340).
att(160,7).
att(192,195).
att(235,232).
att(226,223).
att(38,384).
att(387,385).
att(142,227).
att(198,200).
att(28,24).
att(99,11).
att(195,91).
att(297,299).
att(335,338).
att(291,287).
att(268,265).
att(67,70).
att(331,327).
att(391,247).
att(26,25).
att(341,271).
att(50,53).
att(137,149).
att(13,68).
att(313,316).
att(379,33).
att(120,124).
att(69,47).
att(177,178).
att(375,371).
att(180,177).
att(374,375).
att(369,373).
att(180,116).
att(320,318).
att(317,319).
att(295,114).
att(260,67).
att(115,36).
att(243,241).
att(80,84).
att(309,313).
att(350,349).
att(277,324).
att(367,114).
att(15,316).
att(158,160).
att(28,25).
att(376,378).
att(108,104).
att(117,396).
att(332,335).
att(185,183).
att(71,69).
att(379,377).
att(245,246).
att(268,112).
att(296,71).
att(299,303).
att(220,219).
att(39,22).
att(74,163).
att(324,321).
att(333,128).
att(321,322).
att(286,284).
att(260,200).
att(97,94).
att(132,131).
att(249,184).
att(24,27).
att(257,253).
att(8,293).
att(160,271).
att(242,323).
att(164,205).
att(169,173).
att(83,179).
att(55,52).
att(378,381).
att(44,355).
att(81,84).
att(84,83).
att(381,380).
att(69,70).
att(265,261).
att(381,226).
att(124,71).
att(212,209).
att(26,27).
att(29,26).
att(278,277).
att(50,54).
att(106,105).
att(272,269).
att(163,167).
att(169,165).
att(322,326).
att(332,331).
att(372,318).
att(92,96).
att(230,234).
att(30,26).
att(98,191).
att(380,14).
att(147,146).
att(274,5).
att(328,324).
att(129,363).
att(98,94).
att(113,158).
att(175,179).
att(281,200).
att(154,194).
att(181,177).
att(363,364).
att(398,399).
att(114,115).
att(54,53).
att(117,114).
att(304,306).
att(278,282).
att(291,292).
att(310,304).
att(187,190).
att(29,27).
att(258,168).
att(398,175).
att(141,67).
att(27,28).
att(122,124).
att(104,106).
att(125,123).
att(68,71).
att(245,308).
att(55,53).
att(286,289).
att(93,96).
att(244,241).
att(96,95).
att(217,214).
att(353,356).
att(301,298).
att(356,355).
att(215,221).
att(345,343).
att(305,319).
att(358,362).
att(243,247).
att(239,237).
att(249,245).
att(336,338).
att(345,347).
att(56,53).
att(112,116).
att(314,316).
att(116,312).
att(238,296).
att(167,166).
att(394,397).
att(256,259).
att(243,218).
att(318,319).
att(194,195).
att(259,258).
att(148,315).
att(270,227).
att(255,254).
att(284,285).
att(28,29).
att(31,28).
att(94,96).
att(51,55).
att(163,159).
att(108,105).
att(179,178).
att(197,201).
att(232,354).
att(303,302).
att(123,124).
att(333,335).
att(222,225).
att(32,28).
att(170,46).
att(70,71).
att(152,154).
att(293,220).
att(368,370).
att(306,310).
att(248,251).
att(187,115).
att(251,250).
att(181,185).
att(312,308).
att(172,255).
att(267,271).
att(276,278).
att(244,375).
att(110,117).
att(273,269).
att(200,353).
att(113,116).
att(116,115).
att(28,30).
att(360,369).
att(82,85).
att(31,29).
att(85,84).
att(356,359).
att(359,358).
att(172,331).
att(98,95).
att(88,346).
att(103,107).
att(149,146).
att(109,105).
att(129,133).
att(56,54).
att(390,388).
att(242,180).
att(351,353).
att(218,214).
att(387,389).
att(6,224).
att(382,380).
att(393,394).
att(330,332).
att(275,334).
att(349,170).
att(326,325).
att(96,392).
att(333,331).
att(127,123).
att(222,219).
att(282,281).
att(203,206).
att(318,86).
att(18,167).
att(294,296).
att(156,91).
att(158,161).
att(297,295).
att(308,305).
att(93,268).
att(115,75).
att(83,85).
att(134,276).
att(31,30).
att(333,149).
att(240,237).
att(244,247).
att(367,363).
att(93,97).
att(119,294).
att(361,365).
att(290,288).
att(307,162).
att(83,139).
att(32,30).
att(296,300).
att(104,107).
att(139,140).
att(107,106).
att(52,56).
att(226,230).
att(232,228).
att(257,259).
att(147,321).
att(185,184).
att(189,190).
att(48,80).
att(130,133).
att(396,400).
att(73,71).
att(346,343).
att(87,84).
att(343,340).
att(259,58).
att(302,6).
att(54,151).
att(125,124).
att(64,158).
att(354,356).
att(103,295).
att(318,315).
att(315,316).
att(86,179).
att(177,155).
att(235,233).
att(338,148).
att(288,284).
att(29,32).
att(97,96).
att(328,123).
att(264,262).
att(337,338).
att(322,318).
att(252,250).
att(255,249).
att(69,310).
att(362,361).
att(283,327).
att(301,303).
att(159,161).
att(278,111).
att(162,160).
att(33,31).
att(268,271).
att(82,86).
att(280,277).
att(209,67).
att(88,84).
att(308,253).
att(151,155).
att(137,141).
att(149,282).
att(383,387).
att(143,139).
att(61,369).
att(31,32).
att(204,206).
att(323,322).
att(193,196).
att(217,221).
att(112,195).
att(131,133).
att(228,140).
att(95,97).
att(240,243).
att(111,140).
att(250,352).
att(69,73).
att(370,311).
att(145,148).
att(172,378).
att(371,373).
att(386,285).
att(326,227).
att(209,211).
att(395,110).
att(199,201).
att(247,235).
att(202,200).
att(117,90).
att(235,239).
att(30,33).
att(392,355).
att(265,267).
att(113,117).
att(33,32).
att(241,237).
att(283,381).
att(83,86).
att(280,282).
att(192,10).
att(109,106).
att(15,211).
att(53,57).
att(290,293).
att(265,167).
att(279,94).
att(167,63).
att(360,358).
att(295,296).
att(67,74).
att(303,307).
att(327,325).
att(170,166).
att(238,208).
att(334,331).
att(337,330).
att(370,366).
att(364,368).
att(309,305).
att(22,166).
att(188,349).
att(224,225).
att(160,161).
att(227,224).
att(355,352).
att(291,288).
att(257,254).
att(141,140).
att(198,165).
att(152,155).
att(171,262).
att(129,134).
att(30,34).
att(388,389).
att(233,234).
att(147,361).
att(36,32).
att(127,124).
att(383,380).
att(391,388).
att(90,187).
att(397,393).
att(110,106).
att(334,310).
att(176,180).
att(146,148).
att(128,324).
att(214,216).
att(253,250).
att(58,56).
att(194,196).
att(362,326).
att(365,364).
att(208,205).
att(35,33).
att(272,275).
att(218,221).
att(275,274).
att(313,317).
att(338,342).
att(135,37).
att(85,86).
att(344,340).
att(174,173).
att(347,343).
att(312,313).
att(279,103).
att(72,73).
att(33,34).
att(75,72).
att(382,384).
att(121,75).
att(358,355).
att(291,132).
att(165,168).
att(139,141).
att(142,140).
att(302,164).
att(108,107).
att(71,24).
att(357,17).
att(37,33).
att(236,239).
att(153,155).
att(239,238).
att(54,58).
att(308,310).
att(316,70).
att(383,35).
att(98,97).
att(83,87).
att(70,74).
att(324,322).
att(266,267).
att(304,170).
att(321,323).
att(89,85).
att(249,246).
att(228,230).
att(348,28).
att(152,52).
att(393,391).
att(228,224).
att(371,311).
att(36,34).
att(100,134).
att(55,58).
att(284,218).
att(64,275).
att(252,256).
att(34,35).
att(109,107).
att(299,295).
att(130,73).
att(237,233).
att(195,196).
att(74,73).
att(288,84).
att(360,202).
att(372,373).
att(348,74).
att(215,216).
att(304,307).
att(375,372).
att(377,375).
att(134,133).
att(59,57).
att(182,186).
att(188,184).
att(329,333).
att(248,252).
att(159,162).
att(198,202).
att(254,250).
att(86,49).
att(298,300).
att(189,191).
att(301,235).
att(359,370).
att(301,299).
att(361,358).
att(262,59).
att(260,264).
att(266,262).
att(76,90).
att(272,327).
att(72,74).
att(38,370).
att(75,73).
att(214,210).
att(57,58).
att(373,171).
att(356,352).
att(88,101).
att(128,350).
att(37,35).
att(85,87).
att(105,264).
att(113,106).
att(300,190).
att(273,275).
att(199,29).
att(242,243).
att(136,122).
att(326,238).
att(134,271).
att(35,36).
att(38,35).
att(127,125).
att(12,117).
att(240,238).
att(276,279).
att(61,57).
att(178,180).
att(48,32).
att(392,388).
att(131,17).
att(112,395).
att(132,134).
att(144,140).
att(395,394).
att(232,229).
att(309,376).
att(306,302).
att(309,301).
att(316,312).
att(226,225).
att(205,352).
att(86,87).
att(56,59).
att(59,58).
att(111,107).
att(163,161).
att(158,154).
att(170,167).
att(101,97).
att(64,95).
att(204,207).
att(183,186).
att(186,185).
att(309,310).
att(213,217).
att(278,104).
att(345,348).
att(219,215).
att(38,36).
att(84,172).
att(348,347).
att(388,254).
att(115,118).
att(389,289).
att(386,383).
att(125,236).
att(141,396).
att(122,127).
att(257,260).
att(266,257).
att(125,126).
att(128,125).
att(292,293).
att(39,36).
att(336,335).
att(42,341).
att(294,297).
att(70,55).
att(249,252).
att(142,141).
att(41,147).
att(263,182).
att(34,38).
att(96,99).
att(225,66).
att(290,289).
att(206,399).
att(40,36).
att(99,98).
att(61,58).
att(351,350).
att(260,398).
att(264,263).
att(391,392).
att(292,259).
att(212,191).
att(388,302).
att(141,56).
att(299,44).
att(323,327).
att(172,190).
att(299,300).
att(240,244).
att(88,87).
att(246,242).
att(56,60).
att(156,155).
att(359,111).
att(76,74).
att(161,162).
att(138,384).
att(202,384).
att(164,161).
att(241,238).
att(333,332).
att(277,274).
att(150,148).
att(257,109).
att(3,52).
att(285,286).
att(194,197).
att(31,205).
att(97,99).
att(184,186).
att(103,231).
att(280,278).
att(131,135).
att(209,298).
att(40,135).
att(57,60).
att(205,207).
att(208,206).
att(351,354).
att(248,230).
att(325,287).
att(108,229).
att(27,207).
att(65,149).
att(369,367).
att(366,368).
att(207,347).
att(268,267).
att(39,244).
att(101,253).
att(240,330).
att(318,316).
att(304,303).
att(140,360).
att(120,117).
att(314,313).
att(58,60).
att(39,38).
att(271,180).
att(322,319).
att(183,179).
att(101,98).
att(72,76).
att(127,126).
att(258,260).
att(379,382).
att(261,259).
att(330,329).
att(78,74).
att(283,282).
att(157,155).
att(340,342).
att(148,149).
att(307,311).
att(40,38).
att(384,227).
att(19,229).
att(367,190).
att(166,169).
att(390,389).
att(146,333).
att(59,60).
att(62,59).
att(171,269).
att(252,158).
att(337,339).
att(174,34).
att(199,317).
att(380,170).
att(354,287).
att(13,300).
att(167,66).
att(346,348).
att(115,141).
att(298,296).
att(349,347).
att(198,196).
att(392,210).
att(115,119).
att(362,395).
att(96,100).
att(291,102).
att(102,98).
att(95,25).
att(219,196).
att(300,309).
att(231,230).
att(23,96).
att(228,225).
att(298,146).
att(351,288).
att(26,44).
att(306,307).
att(206,207).
att(336,137).
att(128,126).
att(37,40).
att(272,276).
att(14,264).
att(201,202).
att(204,201).
att(77,75).
att(218,216).
att(246,248).
att(302,178).
att(349,351).
att(289,285).
att(324,327).
att(41,39).
att(327,326).
att(160,163).
att(352,246).
att(399,400).
att(234,235).
att(97,100).
att(202,234).
att(191,153).
att(154,391).
att(211,212).
att(173,175).
att(222,221).
att(176,174).
att(394,84).
att(39,40).
att(193,144).
att(17,381).
att(368,329).
att(62,60).
att(38,193).
att(236,257).
att(78,75).
att(107,110).
att(132,155).
att(187,200).
att(80,29).
att(386,387).
att(37,41).
att(111,221).
att(26,113).
att(129,126).
att(43,39).
att(389,386).
att(369,371).
att(262,259).
att(302,304).
att(305,303).
att(196,197).
att(60,61).
att(199,196).
att(355,353).
att(87,89).
att(90,88).
att(205,187).
att(284,282).
att(14,101).
att(395,398).
att(212,14).
att(32,186).
att(73,77).
att(92,27).
att(398,397).
att(323,319).
att(319,261).
att(367,368).
att(370,367).
att(153,157).
att(266,321).
att(117,119).
att(204,208).
att(372,80).
att(2,399).
att(328,330).
att(214,198).
att(186,378).
att(285,241).
att(223,227).
att(311,310).
att(266,263).
att(396,229).
att(164,162).
att(199,203).
att(132,313).
att(179,181).
att(353,334).
att(143,142).
att(205,201).
att(344,341).
att(341,342).
att(4,56).
att(350,40).
att(344,345).
att(216,217).
att(40,41).
att(88,89).
att(168,169).
att(91,88).
att(171,168).
att(347,344).
att(293,85).
att(338,339).
att(74,77).
att(67,190).
att(130,126).
att(174,175).
att(341,338).
att(281,371).
att(257,301).
att(102,99).
att(62,61).
att(247,248).
att(209,213).
att(38,42).
att(215,211).
att(44,40).
att(297,273).
att(391,389).
att(232,236).
att(276,275).
att(350,347).
att(220,222).
att(270,272).
att(273,271).
att(304,390).
att(24,339).
att(355,357).
att(28,46).
att(118,119).
att(192,62).
att(284,287).
att(301,300).
att(287,286).
att(184,187).
att(42,41).
att(109,110).
att(78,76).
att(276,280).
att(368,124).
att(194,198).
att(40,274).
att(103,232).
att(154,157).
att(276,106).
att(360,363).
att(128,157).
att(103,99).
att(363,362).
att(40,42).
att(249,137).
att(382,385).
att(191,192).
att(328,326).
att(194,191).
att(171,213).
att(259,255).
att(144,73).
att(162,163).
att(300,327).
att(64,61).
att(263,259).
att(76,77).
att(332,32).
att(183,180).
att(15,232).
att(44,41).
att(208,207).
att(256,234).
att(172,168).
att(255,251).
att(90,89).
att(172,176).
att(227,312).
att(227,226).
att(59,63).
att(285,282).
att(45,41).
att(110,97).
att(243,244).
att(133,136).
att(136,135).
att(241,239).
att(213,397).
att(220,216).
att(320,316).
att(257,119).
att(149,159).
att(40,43).
att(149,150).
att(393,392).
att(375,373).
att(384,388).
att(321,320).
att(353,354).
att(370,371).
att(129,127).
att(158,156).
att(60,63).
att(292,294).
att(374,377).
att(63,62).
att(185,187).
att(373,370).
att(31,233).
att(224,221).
att(192,262).
att(308,11).
att(377,376).
att(233,236).
att(157,20).
att(114,235).
att(44,42).
att(195,198).
att(170,334).
att(108,111).
att(111,110).
att(152,130).
att(235,164).
att(120,119).
att(99,101).
att(93,386).
att(189,193).
att(271,272).
att(387,114).
att(396,398).
att(61,63).
att(28,273).
att(8,268).
att(178,182).
att(170,169).
att(395,210).
att(184,180).
att(244,306).
att(134,136).
att(137,135).
att(173,176).
att(1,400).
att(176,175).
att(308,307).
att(46,42).
att(395,220).
att(209,207).
att(13,55).
att(265,269).
att(201,203).
att(271,116).
att(130,127).
att(131,62).
att(65,62).
att(345,349).
att(333,337).
att(339,335).
att(316,73).
att(109,111).
att(356,357).
att(44,43).
att(156,157).
att(159,156).
att(228,226).
att(144,74).
att(118,120).
att(121,119).
att(218,217).
att(203,61).
att(87,91).
att(263,349).
att(239,240).
att(60,64).
att(241,245).
att(242,239).
att(66,62).
att(189,186).
att(202,385).
att(214,212).
att(77,78).
att(80,77).
att(112,27).
att(286,282).
att(377,272).
att(354,350).
att(233,329).
att(219,223).
att(336,332).
att(225,221).
att(46,43).
att(265,264).
att(352,41).
att(168,170).
att(383,385).
att(150,389).
att(135,220).
att(193,192).
att(234,236).
att(64,63).
att(386,384).
att(211,394).
att(266,27).
att(148,151).
att(151,150).
att(47,43).
att(144,143).
att(116,315).
att(84,255).
att(293,294).
att(348,375).
att(266,62).
att(160,156).
att(319,321).
att(397,150).
att(339,215).
att(42,45).
att(345,229).
att(313,310).
att(210,132).
att(86,339).
att(278,275).
att(267,109).
att(298,297).
att(351,355).
att(362,359).
att(133,137).
att(89,91).
att(165,163).
att(43,45).
att(46,44).
att(91,118).
att(373,374).
att(308,56).
att(255,257).
att(129,128).
att(190,186).
att(231,348).
att(385,388).
att(326,323).
att(200,107).
att(1,357).
att(366,369).
att(343,342).
att(44,45).
att(374,195).
att(309,307).
att(172,169).
att(251,253).
att(172,227).
att(369,368).
att(64,264).
att(121,211).
att(366,151).
att(213,47).
att(197,198).
att(152,150).
att(191,193).
att(67,63).
att(220,223).
att(93,90).
att(100,102).
att(217,147).
att(106,70).
att(226,239).
att(155,158).
att(400,397).
att(309,138).
att(87,132).
att(109,112).
att(133,78).
att(367,365).
att(112,111).
att(346,349).
att(364,366).
att(118,180).
att(263,265).
att(281,284).
att(354,358).
att(65,64).
att(360,356).
att(200,204).
att(121,120).
att(163,188).
att(206,202).
att(394,145).
att(223,161).
att(305,304).
att(47,45).
att(330,166).
att(101,102).
att(387,391).
att(185,188).
att(63,65).
att(327,127).
att(349,352).
att(146,143).
att(328,314).
att(14,345).
att(344,61).
att(291,295).
att(45,46).
att(110,112).
att(48,45).
att(312,315).
att(360,273).
att(82,78).
att(315,314).
att(270,273).
att(220,217).
att(279,275).
att(289,291).
att(130,158).
att(173,177).
att(181,182).
att(139,189).
att(393,306).
att(195,199).
att(92,291).
att(216,212).
att(230,232).
att(89,92).
att(138,136).
att(256,257).
