arg(1..500).
att(438,106).
att(2,3).
att(1,4).
att(495,497).
att(248,355).
att(25,211).
att(2,4).
att(170,495).
att(3,4).
att(129,106).
att(10,2).
att(6,3).
att(24,118).
att(172,450).
att(347,174).
att(2,5).
att(8,3).
att(276,281).
att(9,3).
att(6,4).
att(2,6).
att(10,3).
att(4,5).
att(218,224).
att(225,137).
att(257,112).
att(282,279).
att(279,280).
att(284,288).
att(389,101).
att(97,451).
att(362,193).
att(9,4).
att(2,7).
att(215,282).
att(126,245).
att(5,6).
att(59,67).
att(324,461).
att(12,4).
att(260,342).
att(2,8).
att(4,7).
att(62,66).
att(295,303).
att(5,7).
att(117,110).
att(111,112).
att(115,391).
att(259,430).
att(8,6).
att(34,2).
att(212,34).
att(17,4).
att(446,372).
att(455,341).
att(352,424).
att(295,26).
att(87,93).
att(24,290).
att(304,300).
att(5,8).
att(446,240).
att(307,308).
att(8,7).
att(93,91).
att(201,204).
att(368,376).
att(420,19).
att(13,6).
att(68,353).
att(201,144).
att(380,372).
att(56,197).
att(396,402).
att(5,9).
att(14,6).
att(165,172).
att(11,7).
att(463,387).
att(6,9).
att(200,176).
att(38,3).
att(405,399).
att(171,170).
att(470,33).
att(7,9).
att(330,418).
att(13,7).
att(10,8).
att(126,130).
att(273,262).
att(309,404).
att(135,127).
att(8,9).
att(63,386).
att(419,421).
att(11,8).
att(69,64).
att(267,264).
att(199,288).
att(341,339).
att(344,346).
att(267,496).
att(191,37).
att(154,159).
att(5,11).
att(163,156).
att(113,191).
att(373,367).
att(305,220).
att(386,141).
att(431,235).
att(440,153).
att(335,290).
att(179,183).
att(188,180).
att(86,2).
att(13,9).
att(108,157).
att(448,443).
att(341,95).
att(94,91).
att(187,195).
att(2,92).
att(61,67).
att(126,413).
att(190,194).
att(9,412).
att(12,10).
att(70,64).
att(250,114).
att(250,337).
att(322,329).
att(334,308).
att(322,494).
att(474,476).
att(474,377).
att(15,197).
att(459,427).
att(477,475).
att(318,46).
att(237,230).
att(431,461).
att(145,144).
att(75,3).
att(234,231).
att(364,355).
att(69,421).
att(180,39).
att(20,9).
att(251,259).
att(194,499).
att(309,280).
att(328,167).
att(394,127).
att(450,328).
att(263,255).
att(420,440).
att(7,14).
att(295,294).
att(453,128).
att(231,220).
att(332,334).
att(65,66).
att(3,496).
att(40,6).
att(10,13).
att(222,223).
att(405,494).
att(281,407).
att(38,322).
att(98,90).
att(239,241).
att(242,240).
att(107,114).
att(166,172).
att(267,322).
att(413,69).
att(110,113).
att(7,15).
att(175,169).
att(172,170).
att(113,112).
att(152,160).
att(294,1).
att(279,51).
att(228,267).
att(353,351).
att(434,429).
att(22,120).
att(19,11).
att(432,436).
att(58,336).
att(497,491).
att(100,497).
att(318,322).
att(117,154).
att(9,15).
att(287,178).
att(72,64).
att(324,320).
att(69,65).
att(264,314).
att(10,15).
att(220,139).
att(111,3).
att(96,271).
att(396,409).
att(391,397).
att(17,13).
att(394,396).
att(449,455).
att(383,440).
att(12,15).
att(96,91).
att(79,369).
att(352,23).
att(296,303).
att(456,139).
att(424,426).
att(472,471).
att(188,195).
att(405,406).
att(421,427).
att(379,387).
att(408,405).
att(13,15).
att(259,267).
att(19,13).
att(191,194).
att(427,425).
att(194,193).
att(11,16).
att(284,359).
att(369,338).
att(415,416).
att(3,158).
att(388,384).
att(108,114).
att(396,367).
att(222,103).
att(220,122).
att(333,490).
att(261,75).
att(117,111).
att(12,16).
att(385,88).
att(66,271).
att(144,77).
att(209,215).
att(10,17).
att(278,72).
att(42,282).
att(218,212).
att(436,441).
att(215,213).
att(74,391).
att(127,348).
att(19,14).
att(446,141).
att(477,124).
att(442,106).
att(424,109).
att(14,16).
att(485,155).
att(416,230).
att(168,369).
att(437,1).
att(443,451).
att(60,196).
att(365,472).
att(455,447).
att(226,234).
att(88,94).
att(467,461).
att(388,470).
att(15,16).
att(153,160).
att(179,168).
att(420,477).
att(71,65).
att(238,230).
att(452,448).
att(384,40).
att(287,382).
att(464,1).
att(223,310).
att(342,339).
att(53,8).
att(147,124).
att(19,15).
att(342,347).
att(428,364).
att(349,197).
att(348,345).
att(41,10).
att(351,344).
att(345,346).
att(312,260).
att(233,33).
att(200,205).
att(493,1).
att(495,1).
att(203,204).
att(123,260).
att(497,1).
att(500,1).
att(188,67).
att(158,464).
att(249,238).
att(496,497).
att(13,18).
att(109,114).
att(472,216).
att(269,274).
att(400,401).
att(272,273).
att(365,370).
att(246,239).
att(240,241).
att(150,143).
att(5,256).
att(115,112).
att(135,128).
att(213,187).
att(261,256).
att(258,257).
att(372,180).
att(46,220).
att(499,496).
att(178,184).
att(184,182).
att(443,106).
att(476,187).
att(10,20).
att(296,294).
att(423,420).
att(376,328).
att(16,18).
att(22,16).
att(21,85).
att(119,235).
att(382,379).
att(199,383).
att(68,489).
att(198,192).
att(20,17).
att(195,193).
att(320,313).
att(314,315).
att(64,68).
att(96,452).
att(195,3).
att(317,314).
att(461,469).
att(359,357).
att(278,281).
att(464,468).
att(420,210).
att(463,394).
att(471,398).
att(486,478).
att(13,20).
att(477,481).
att(334,81).
att(470,466).
att(284,334).
att(292,286).
att(252,403).
att(107,115).
att(446,444).
att(229,471).
att(483,479).
att(28,245).
att(174,442).
att(57,134).
att(392,115).
att(448,222).
att(284,90).
att(210,63).
att(43,396).
att(17,19).
att(348,353).
att(99,91).
att(278,261).
att(9,91).
att(128,386).
att(111,224).
att(15,20).
att(136,128).
att(139,147).
att(322,321).
att(351,352).
att(485,222).
att(24,17).
att(260,267).
att(21,18).
att(151,143).
att(487,489).
att(266,265).
att(340,449).
att(176,366).
att(229,388).
att(137,334).
att(9,23).
att(98,198).
att(184,261).
att(209,285).
att(303,301).
att(206,253).
att(20,19).
att(472,477).
att(478,475).
att(15,21).
att(194,179).
att(212,378).
att(475,267).
att(389,391).
att(63,69).
att(188,181).
att(395,389).
att(382,220).
att(16,21).
att(414,497).
att(72,66).
att(69,67).
att(125,414).
att(171,310).
att(274,252).
att(457,35).
att(17,21).
att(208,189).
att(484,381).
att(235,243).
att(246,3).
att(42,77).
att(23,19).
att(439,434).
att(244,240).
att(97,296).
att(2,497).
att(293,331).
att(277,431).
att(401,394).
att(383,386).
att(190,195).
att(253,259).
att(378,211).
att(262,256).
att(331,472).
att(134,129).
att(389,384).
att(386,385).
att(158,159).
att(19,21).
att(25,19).
att(491,465).
att(22,20).
att(333,366).
att(276,272).
att(293,246).
att(494,278).
att(140,147).
att(492,493).
att(169,172).
att(176,357).
att(422,414).
att(150,297).
att(346,338).
att(268,3).
att(343,339).
att(15,23).
att(428,425).
att(69,242).
att(490,405).
att(177,318).
att(313,373).
att(340,348).
att(412,222).
att(27,19).
att(92,94).
att(85,9).
att(43,222).
att(456,453).
att(50,329).
att(352,344).
att(184,335).
att(349,345).
att(452,129).
att(291,296).
att(19,22).
att(419,360).
att(109,115).
att(22,21).
att(217,213).
att(242,58).
att(333,309).
att(101,8).
att(118,112).
att(475,291).
att(373,375).
att(285,259).
att(382,302).
att(220,123).
att(327,328).
att(31,191).
att(86,465).
att(245,204).
att(366,370).
att(177,185).
att(441,2).
att(258,369).
att(27,246).
att(309,317).
att(335,223).
att(93,260).
att(447,450).
att(318,314).
att(290,287).
att(293,286).
att(202,205).
att(327,480).
att(363,400).
att(135,129).
att(325,337).
att(208,203).
att(465,462).
att(93,94).
att(20,23).
att(283,167).
att(26,21).
att(145,470).
att(231,221).
att(228,222).
att(165,157).
att(430,188).
att(260,235).
att(230,327).
att(141,147).
att(354,359).
att(301,28).
att(322,100).
att(386,378).
att(360,357).
att(150,144).
att(102,282).
att(147,145).
att(357,358).
att(201,338).
att(188,196).
att(436,310).
att(167,173).
att(133,7).
att(343,188).
att(319,116).
att(326,320).
att(116,113).
att(28,21).
att(22,23).
att(176,170).
att(25,173).
att(36,419).
att(473,307).
att(346,354).
att(228,337).
att(268,94).
att(301,302).
att(236,243).
att(20,24).
att(495,2).
att(296,201).
att(264,478).
att(431,156).
att(47,184).
att(498,2).
att(499,2).
att(91,95).
att(494,498).
att(269,313).
att(211,159).
att(27,22).
att(24,23).
att(253,115).
att(254,259).
att(374,360).
att(476,125).
att(163,303).
att(127,132).
att(5,351).
att(322,130).
att(263,256).
att(291,178).
att(270,348).
att(130,131).
att(51,75).
att(399,435).
att(25,23).
att(258,4).
att(321,170).
att(323,100).
att(157,392).
att(105,117).
att(444,445).
att(308,375).
att(20,25).
att(218,213).
att(215,214).
att(68,69).
att(31,412).
att(272,330).
att(447,444).
att(18,26).
att(454,239).
att(120,112).
att(21,25).
att(117,113).
att(142,147).
att(483,485).
att(386,301).
att(157,160).
att(202,39).
att(351,432).
att(70,374).
att(160,159).
att(387,392).
att(360,292).
att(320,27).
att(90,394).
att(92,95).
att(366,24).
att(200,206).
att(56,233).
att(243,252).
att(305,435).
att(83,12).
att(203,205).
att(206,204).
att(395,207).
att(6,95).
att(214,227).
att(252,249).
att(289,297).
att(499,110).
att(72,68).
att(236,325).
att(128,470).
att(36,390).
att(292,296).
att(56,437).
att(69,422).
att(174,171).
att(338,341).
att(189,196).
att(412,411).
att(250,116).
att(286,279).
att(280,281).
att(446,142).
att(232,233).
att(24,25).
att(192,195).
att(229,222).
att(235,232).
att(76,128).
att(226,223).
att(203,328).
att(50,76).
att(319,101).
att(341,348).
att(455,162).
att(220,331).
att(212,159).
att(282,290).
att(92,62).
att(232,5).
att(341,81).
att(158,76).
att(235,82).
att(350,345).
att(391,3).
att(410,405).
att(407,406).
att(428,134).
att(440,434).
att(346,96).
att(118,113).
att(115,114).
att(4,34).
att(121,173).
att(331,327).
att(96,94).
att(420,360).
att(323,295).
att(411,418).
att(91,412).
att(266,305).
att(316,315).
att(199,310).
att(21,27).
att(69,175).
att(305,50).
att(54,291).
att(417,416).
att(157,480).
att(30,24).
att(237,243).
att(112,158).
att(432,424).
att(56,315).
att(364,371).
att(199,67).
att(484,135).
att(155,161).
att(264,159).
att(71,296).
att(25,26).
att(373,368).
att(353,303).
att(210,216).
att(71,69).
att(192,209).
att(335,334).
att(160,176).
att(306,50).
att(219,213).
att(460,452).
att(451,455).
att(23,27).
att(299,303).
att(463,457).
att(457,459).
att(153,348).
att(255,259).
att(202,338).
att(327,320).
att(264,256).
att(19,266).
att(428,343).
att(261,257).
att(65,467).
att(438,441).
att(93,122).
att(496,492).
att(119,113).
att(382,118).
att(201,206).
att(399,402).
att(28,230).
att(210,203).
att(204,205).
att(311,308).
att(402,401).
att(85,236).
att(25,27).
att(31,25).
att(231,103).
att(75,68).
att(419,55).
att(253,98).
att(190,196).
att(196,194).
att(435,326).
att(199,193).
att(383,75).
att(442,476).
att(277,93).
att(102,119).
att(89,97).
att(256,248).
att(416,423).
att(56,19).
att(32,491).
att(227,235).
att(24,28).
att(221,225).
att(253,249).
att(419,422).
att(435,121).
att(115,238).
att(147,146).
att(335,438).
att(440,206).
att(476,77).
att(271,209).
att(268,382).
att(240,333).
att(171,412).
att(304,70).
att(310,231).
att(366,363).
att(73,69).
att(293,52).
att(165,158).
att(195,258).
att(129,259).
att(275,283).
att(117,114).
att(290,297).
att(130,132).
att(474,3).
att(133,131).
att(293,296).
att(26,28).
att(194,302).
att(150,359).
att(46,22).
att(180,185).
att(207,242).
att(272,55).
att(281,465).
att(468,227).
att(189,182).
att(205,218).
att(478,275).
att(18,473).
att(458,422).
att(272,264).
att(280,291).
att(269,265).
att(27,28).
att(362,283).
att(138,200).
att(178,8).
att(462,263).
att(336,342).
att(244,241).
att(99,94).
att(176,171).
att(173,172).
att(394,390).
att(497,3).
att(498,3).
att(108,337).
att(23,30).
att(500,3).
att(175,73).
att(199,207).
att(35,26).
att(202,206).
att(323,330).
att(342,348).
att(84,358).
att(109,117).
att(345,347).
att(435,303).
att(258,175).
att(320,314).
att(427,493).
att(388,399).
att(148,146).
att(264,145).
att(472,466).
att(252,6).
att(317,315).
att(191,196).
att(49,237).
att(199,384).
att(19,281).
att(353,418).
att(400,395).
att(419,435).
att(476,482).
att(131,132).
att(134,131).
att(425,482).
att(28,29).
att(163,159).
att(24,416).
att(485,479).
att(67,19).
att(429,97).
att(425,433).
att(279,362).
att(102,14).
att(369,377).
att(270,275).
att(222,225).
att(32,28).
att(68,19).
att(24,124).
att(119,400).
att(310,252).
att(325,321).
att(245,252).
att(368,370).
att(295,425).
att(252,163).
att(374,368).
att(347,362).
att(415,417).
att(34,301).
att(410,150).
att(495,487).
att(486,490).
att(67,106).
att(48,204).
att(116,115).
att(413,348).
att(492,488).
att(477,476).
att(171,173).
att(196,368).
att(473,226).
att(356,359).
att(232,62).
att(362,357).
att(415,250).
att(65,73).
att(95,96).
att(154,489).
att(149,146).
att(74,70).
att(129,133).
att(16,35).
att(348,354).
att(135,131).
att(333,180).
att(173,98).
att(496,316).
att(24,32).
att(60,180).
att(211,66).
att(276,283).
att(193,395).
att(36,28).
att(291,297).
att(415,317).
att(406,400).
att(267,266).
att(300,294).
att(455,454).
att(199,358).
att(452,455).
att(161,160).
att(302,284).
att(455,460).
att(445,439).
att(461,458).
att(4,497).
att(242,82).
att(72,71).
att(247,406).
att(367,363).
att(93,97).
att(361,365).
att(486,89).
att(466,139).
att(219,173).
att(488,495).
att(466,474).
att(191,9).
att(289,342).
att(411,72).
att(293,53).
att(260,258).
att(30,31).
att(449,450).
att(59,233).
att(423,421).
att(185,184).
att(43,27).
att(360,5).
att(130,133).
att(220,226).
att(153,145).
att(70,72).
att(169,174).
att(237,255).
att(340,341).
att(279,55).
att(226,224).
att(69,272).
att(343,340).
att(37,29).
att(5,185).
att(330,204).
att(131,13).
att(54,139).
att(324,330).
att(303,6).
att(151,298).
att(321,314).
att(327,329).
att(1,44).
att(133,170).
att(447,259).
att(348,27).
att(100,95).
att(14,284).
att(246,252).
att(35,30).
att(174,156).
att(263,400).
att(350,491).
att(194,259).
att(255,249).
att(395,390).
att(481,298).
att(280,272).
att(304,302).
att(441,144).
att(165,159).
att(36,30).
att(213,216).
att(124,407).
att(190,197).
att(423,124).
att(60,302).
att(392,384).
att(323,322).
att(364,379).
att(368,299).
att(337,334).
att(313,308).
att(440,447).
att(128,134).
att(395,397).
att(92,98).
att(29,33).
att(134,132).
att(449,444).
att(98,96).
att(35,31).
att(28,89).
att(415,232).
att(243,242).
att(93,124).
att(145,148).
att(379,374).
att(8,133).
att(458,471).
att(414,411).
att(110,118).
att(268,266).
att(270,113).
att(167,175).
att(36,31).
att(277,283).
att(33,87).
att(369,370).
att(183,185).
att(372,369).
att(180,433).
att(186,184).
att(189,183).
att(250,330).
att(179,171).
att(176,172).
att(476,465).
att(498,4).
att(58,25).
att(500,4).
att(473,466).
att(362,468).
att(292,297).
att(399,298).
att(37,31).
att(432,431).
att(52,318).
att(234,288).
att(301,294).
att(295,296).
att(67,74).
att(320,356).
att(458,239).
att(70,73).
att(238,62).
att(73,72).
att(348,112).
att(191,151).
att(221,226).
att(29,34).
att(157,162).
att(349,354).
att(66,377).
att(74,308).
att(358,351).
att(352,353).
att(413,418).
att(32,33).
att(166,159).
att(35,32).
att(447,68).
att(307,71).
att(355,352).
att(291,288).
att(17,420).
att(479,137).
att(422,428).
att(283,218).
att(342,6).
att(200,10).
att(195,411).
att(230,235).
att(495,331).
att(380,381).
att(377,382).
att(132,133).
att(48,484).
att(76,22).
att(111,118).
att(117,116).
att(152,146).
att(398,403).
att(149,147).
att(37,32).
att(181,46).
att(211,217).
att(478,476).
att(214,216).
att(253,250).
att(472,418).
att(197,195).
att(332,426).
att(26,406).
att(38,32).
att(231,328).
att(248,135).
att(322,314).
att(335,478).
att(334,439).
att(175,289).
att(338,342).
att(178,187).
att(429,158).
att(90,289).
att(181,186).
att(74,447).
att(177,172).
att(174,173).
att(446,439).
att(447,498).
att(437,442).
att(455,94).
att(78,71).
att(65,25).
att(187,184).
att(39,32).
att(43,168).
att(453,461).
att(308,301).
att(403,42).
att(385,259).
att(481,158).
att(229,290).
att(255,310).
att(433,280).
att(309,105).
att(276,171).
att(47,223).
att(244,242).
att(50,423).
att(158,162).
att(344,348).
att(30,174).
att(130,134).
att(350,346).
att(37,33).
att(136,132).
att(115,117).
att(118,116).
att(315,325).
att(373,445).
att(197,312).
att(85,69).
att(427,420).
att(305,311).
att(29,36).
att(308,310).
att(67,75).
att(335,425).
att(393,43).
att(98,97).
att(263,268).
att(76,72).
att(144,149).
att(147,148).
att(407,225).
att(475,138).
att(239,489).
att(320,7).
att(207,91).
att(498,492).
att(281,282).
att(84,102).
att(459,465).
att(87,415).
att(124,488).
att(203,220).
att(168,101).
att(468,462).
att(290,298).
att(172,140).
att(352,97).
att(61,326).
att(290,469).
att(102,330).
att(448,323).
att(279,320).
att(72,321).
att(40,33).
att(231,235).
att(262,258).
att(187,169).
att(192,197).
att(265,257).
att(226,157).
att(237,233).
att(90,313).
att(200,208).
att(283,291).
att(109,456).
att(198,195).
att(392,199).
att(95,429).
att(476,226).
att(367,63).
att(332,130).
att(25,265).
att(286,290).
att(212,204).
att(122,115).
att(172,174).
att(32,36).
att(109,464).
att(175,173).
att(371,377).
att(377,375).
att(137,132).
att(367,371).
att(38,34).
att(179,187).
att(489,214).
att(382,222).
att(380,374).
att(401,207).
att(191,183).
att(464,255).
att(89,188).
att(406,414).
att(364,357).
att(398,410).
att(361,358).
att(441,447).
att(69,75).
att(447,445).
att(496,345).
att(103,20).
att(136,411).
att(376,134).
att(210,254).
att(306,377).
att(208,231).
att(229,280).
att(276,274).
att(460,183).
att(363,80).
att(103,96).
att(344,7).
att(377,203).
att(23,463).
att(443,361).
att(427,433).
att(40,336).
att(482,242).
att(433,431).
att(38,35).
att(378,382).
att(406,6).
att(411,419).
att(284,385).
att(453,68).
att(384,380).
att(22,41).
att(311,318).
att(414,418).
att(395,431).
att(36,482).
att(156,52).
att(431,438).
att(297,305).
att(317,316).
att(359,437).
att(135,133).
att(16,131).
att(363,365).
att(395,238).
att(121,60).
att(323,331).
att(206,482).
att(106,64).
att(358,138).
att(423,428).
att(500,497).
att(190,198).
att(322,103).
att(231,258).
att(31,38).
att(179,172).
att(270,266).
att(213,493).
att(202,194).
att(176,173).
att(34,37).
att(408,400).
att(157,163).
att(379,279).
att(487,479).
att(483,486).
att(180,187).
att(484,480).
att(102,443).
att(236,411).
att(207,206).
att(276,284).
att(186,185).
att(48,269).
att(203,300).
att(427,458).
att(235,234).
att(279,283).
att(41,35).
att(38,36).
att(112,119).
att(169,343).
att(348,347).
att(270,245).
att(51,432).
att(254,261).
att(328,321).
att(21,156).
att(158,307).
att(325,322).
att(11,257).
att(199,71).
att(263,258).
att(319,185).
att(214,275).
att(37,360).
att(379,213).
att(410,205).
att(252,101).
att(33,38).
att(411,295).
att(63,444).
att(333,336).
att(135,376).
att(339,334).
att(336,335).
att(294,297).
att(246,253).
att(488,490).
att(31,39).
att(9,405).
att(444,440).
att(445,499).
att(113,141).
att(293,288).
att(311,441).
att(149,166).
att(323,87).
att(385,92).
att(460,459).
att(1,139).
att(391,392).
att(265,400).
att(431,71).
att(83,370).
att(38,37).
att(247,274).
att(475,244).
att(70,76).
att(128,235).
att(170,159).
att(73,75).
att(76,74).
att(340,300).
att(177,173).
att(161,162).
att(138,384).
att(164,161).
att(271,276).
att(283,272).
att(388,386).
att(92,149).
att(473,301).
att(45,189).
att(150,148).
att(1,53).
att(355,164).
att(197,196).
att(221,227).
att(391,399).
att(64,417).
att(8,274).
att(95,168).
att(181,187).
att(374,369).
att(394,398).
att(381,374).
att(375,376).
att(113,212).
att(400,396).
att(362,358).
att(365,357).
att(474,472).
att(289,421).
att(205,207).
att(258,215).
att(174,360).
att(370,264).
att(426,401).
att(138,419).
att(460,465).
att(351,354).
att(241,461).
att(401,416).
att(256,448).
att(80,73).
att(74,75).
att(469,462).
att(463,464).
att(220,215).
att(35,39).
att(262,269).
att(499,492).
att(41,37).
att(407,414).
att(12,134).
att(265,268).
att(462,81).
att(236,234).
att(410,413).
att(23,356).
att(307,302).
att(304,303).
att(114,119).
att(413,412).
att(298,277).
att(363,449).
att(411,406).
att(408,407).
att(437,24).
att(249,136).
att(85,152).
att(36,39).
att(194,404).
att(263,60).
att(355,112).
att(366,256).
att(311,448).
att(324,331).
att(98,99).
att(277,284).
att(237,105).
att(152,226).
att(81,73).
att(106,215).
att(333,328).
att(448,445).
att(340,342).
att(34,40).
att(145,150).
att(364,365).
att(382,381).
att(346,340).
att(37,39).
att(307,311).
att(169,176).
att(104,23).
att(367,364).
att(424,495).
att(334,144).
att(250,252).
att(436,189).
att(433,219).
att(346,386).
att(73,157).
att(383,442).
att(253,251).
att(88,303).
att(135,134).
att(317,325).
att(82,192).
att(354,287).
att(167,363).
att(421,416).
att(437,430).
att(188,274).
att(326,322).
att(41,38).
att(246,63).
att(179,188).
att(500,238).
att(459,107).
att(302,202).
att(352,346).
att(334,453).
att(467,388).
att(14,204).
att(73,76).
att(182,187).
att(198,196).
att(238,245).
att(406,401).
att(36,40).
att(463,470).
att(244,243).
att(42,38).
att(15,337).
att(474,316).
att(410,225).
att(472,467).
att(225,226).
att(228,225).
att(182,375).
att(168,314).
att(303,416).
att(209,206).
att(34,41).
att(13,161).
att(264,377).
att(76,156).
att(332,285).
att(472,80).
att(298,453).
att(395,457).
att(34,290).
att(492,500).
att(449,55).
att(372,205).
att(215,217).
att(200,72).
att(85,239).
att(476,483).
att(299,203).
att(27,198).
att(130,136).
att(157,164).
att(44,38).
att(41,39).
att(105,183).
att(460,119).
att(231,236).
att(94,101).
att(160,163).
att(11,51).
att(377,234).
att(355,66).
att(499,6).
att(240,233).
att(237,234).
att(448,40).
att(487,485).
att(500,6).
att(484,486).
att(113,120).
att(115,196).
att(482,434).
att(179,173).
att(36,41).
att(263,269).
att(295,93).
att(436,443).
att(45,38).
att(455,232).
att(471,479).
att(72,77).
att(373,109).
att(22,97).
att(209,390).
att(423,182).
att(483,475).
att(179,320).
att(331,499).
att(102,124).
att(366,372).
att(354,361).
att(389,386).
att(452,456).
att(257,101).
att(373,377).
att(308,302).
att(375,369).
att(160,410).
att(193,198).
att(317,89).
att(486,491).
att(64,33).
att(199,196).
att(464,458).
att(358,352).
att(458,460).
att(35,42).
att(278,284).
att(474,338).
att(362,388).
att(392,399).
att(195,211).
att(221,455).
att(104,98).
att(251,252).
att(444,286).
att(41,40).
att(124,176).
att(395,398).
att(328,118).
att(17,239).
att(54,294).
att(298,418).
att(73,77).
att(93,205).
att(445,97).
att(144,151).
att(1,57).
att(67,216).
att(253,102).
att(431,112).
att(131,136).
att(244,64).
att(147,150).
att(150,149).
att(117,119).
att(123,117).
att(307,436).
att(332,194).
att(45,39).
att(331,329).
att(251,241).
att(158,164).
att(223,227).
att(311,310).
att(125,22).
att(161,163).
att(229,225).
att(69,377).
att(167,161).
att(164,162).
att(433,25).
att(193,488).
att(428,230).
att(304,55).
att(377,476).
att(219,216).
att(292,289).
att(289,290).
att(362,366).
att(180,173).
att(475,472).
att(461,465).
att(96,101).
att(327,322).
att(324,323).
att(257,216).
att(99,100).
att(386,380).
att(383,381).
att(467,463).
att(103,297).
att(312,211).
att(35,43).
att(82,106).
att(12,362).
att(180,472).
att(98,219).
att(47,39).
att(359,187).
att(146,215).
att(425,353).
att(397,499).
att(279,274).
att(463,163).
att(152,240).
att(455,358).
att(384,46).
att(455,496).
att(124,117).
att(206,15).
att(418,277).
att(440,448).
att(497,493).
att(261,290).
att(309,274).
att(452,444).
att(39,42).
att(319,89).
att(449,445).
att(471,129).
att(469,106).
att(96,149).
att(154,148).
att(413,419).
att(151,149).
att(194,198).
att(22,419).
att(193,16).
att(495,248).
att(260,354).
att(422,416).
att(172,52).
att(141,217).
att(97,101).
att(40,42).
att(232,88).
att(391,318).
att(305,165).
att(291,111).
att(51,86).
att(374,419).
att(168,161).
att(162,163).
att(30,216).
att(400,498).
att(233,290).
att(297,248).
att(237,456).
att(487,115).
att(226,431).
att(202,209).
att(431,426).
att(38,43).
att(20,474).
att(215,230).
att(246,254).
att(306,224).
att(41,42).
att(208,207).
att(439,436).
att(255,456).
att(333,486).
att(170,469).
att(360,303).
att(12,327).
att(113,121).
att(8,426).
att(221,228).
att(300,305).
att(125,117).
att(68,275).
att(36,44).
att(224,227).
att(464,470).
att(364,462).
att(48,40).
att(484,23).
att(240,245).
att(397,300).
att(211,219).
att(95,102).
att(249,242).
att(214,218).
att(179,255).
att(101,100).
att(210,445).
att(230,43).
att(445,402).
att(76,364).
att(83,306).
att(354,67).
att(146,151).
att(492,232).
att(370,356).
att(259,403).
att(198,282).
att(267,61).
att(11,315).
att(46,41).
att(396,391).
att(393,392).
att(358,360).
att(419,59).
att(489,7).
att(474,309).
att(361,359).
att(247,480).
att(367,372).
att(116,454).
att(18,183).
att(185,308).
att(306,312).
att(393,385).
att(174,421).
att(309,311).
att(372,255).
att(432,148).
att(380,375).
att(466,296).
att(41,43).
att(192,199).
att(493,500).
att(44,42).
att(33,176).
att(431,8).
att(55,440).
att(329,330).
att(499,498).
att(142,59).
att(82,175).
att(435,190).
att(160,164).
att(349,400).
att(483,481).
att(293,289).
att(486,480).
att(169,161).
att(201,196).
att(114,121).
att(242,183).
att(166,162).
att(446,440).
att(210,164).
att(188,346).
att(123,118).
att(138,60).
att(390,268).
att(393,399).
att(105,99).
att(4,229).
att(499,7).
att(369,317).
att(319,325).
att(432,170).
att(42,43).
att(45,42).
att(345,341).
att(472,479).
att(365,125).
att(322,324).
att(385,312).
att(16,102).
att(459,454).
att(134,136).
att(140,134).
att(137,135).
att(152,57).
att(19,359).
att(179,174).
att(205,432).
att(175,205).
att(72,366).
att(40,44).
att(212,206).
att(209,207).
att(443,98).
att(465,458).
att(144,152).
att(73,79).
att(342,350).
att(212,131).
att(369,364).
att(456,449).
att(147,151).
att(59,392).
att(203,448).
att(361,198).
att(153,469).
att(496,488).
att(255,262).
att(375,205).
att(378,383).
att(483,377).
att(237,223).
att(180,278).
att(264,259).
att(247,254).
att(44,43).
att(415,163).
att(103,100).
att(115,121).
att(1,368).
att(353,31).
att(413,406).
att(410,407).
att(256,251).
att(288,497).
att(124,118).
att(373,226).
att(441,135).
att(5,262).
att(221,216).
att(373,184).
att(138,23).
att(348,386).
att(382,47).
att(162,375).
att(241,245).
att(313,352).
att(186,187).
att(167,235).
att(189,186).
att(376,123).
att(470,474).
att(73,35).
att(141,134).
att(286,282).
att(334,303).
att(327,11).
att(40,45).
att(185,51).
att(260,150).
att(415,234).
att(187,77).
att(408,401).
att(104,100).
att(420,417).
att(237,107).
att(237,396).
att(427,434).
att(145,152).
att(177,175).
att(26,427).
att(315,318).
att(172,371).
att(41,45).
att(6,498).
att(245,42).
att(75,79).
att(116,121).
att(151,150).
att(47,43).
att(2,500).
att(125,118).
att(94,480).
att(141,282).
att(313,391).
att(492,495).
att(92,457).
att(138,61).
att(204,209).
att(254,193).
att(354,84).
att(18,271).
att(432,426).
att(307,312).
att(431,439).
att(434,438).
att(408,76).
att(213,429).
att(313,344).
att(497,248).
att(275,276).
att(301,296).
att(298,297).
att(14,301).
att(393,371).
att(360,352).
att(217,230).
att(139,135).
att(82,77).
att(79,78).
att(168,162).
att(165,163).
att(368,372).
att(33,442).
att(43,45).
att(391,393).
att(152,86).
att(49,43).
att(181,189).
att(372,378).
att(436,180).
att(382,389).
att(216,218).
att(266,269).
att(222,216).
att(78,35).
att(219,217).
att(272,267).
att(269,268).
att(382,403).
att(202,368).
att(490,450).
att(473,94).
att(474,467).
att(468,469).
att(58,481).
att(454,406).
att(397,457).
att(41,481).
att(23,202).
att(296,111).
att(108,231).
att(200,197).
att(152,150).
att(242,245).
att(80,78).
att(119,375).
att(397,398).
att(331,338).
att(400,397).
att(309,138).
att(477,54).
att(367,365).
att(131,138).
att(364,366).
att(40,47).
att(341,396).
att(71,261).
att(475,228).
att(43,46).
att(426,27).
att(478,483).
att(83,493).
att(248,384).
att(27,267).
att(65,115).
att(487,480).
att(481,482).
att(84,77).
att(81,78).
att(160,165).
att(118,121).
att(205,209).
att(214,206).
att(500,498).
att(196,334).
att(299,306).
att(327,495).
att(64,327).
att(460,454).
att(454,456).
att(44,46).
att(308,303).
att(305,304).
att(50,44).
att(47,45).
att(473,479).
att(121,226).
att(107,100).
att(410,414).
att(415,499).
att(489,92).
att(378,65).
att(481,300).
att(128,193).
att(4,63).
att(147,152).
att(170,82).
att(270,422).
att(156,149).
att(457,449).
att(313,319).
att(450,346).
att(76,80).
att(376,149).
att(270,278).
att(293,406).
att(130,275).
att(322,316).
att(66,183).
att(223,216).
att(282,274).
att(220,217).
att(388,94).
att(170,178).
att(459,195).
att(224,228).
att(295,289).
att(301,432).
att(290,300).
att(333,195).
att(76,214).
att(207,166).
att(485,492).
att(108,380).
att(132,138).
att(182,174).
att(62,251).
att(494,489).
att(488,491).
att(141,135).
att(138,136).
att(413,45).
att(49,45).
att(163,480).
att(15,301).
att(9,276).
att(125,119).
att(96,104).
att(393,201).
att(489,468).
att(332,228).
att(86,155).
att(260,261).
att(266,259).
att(406,402).
att(323,241).
att(75,355).
att(41,48).
att(421,417).
att(460,466).
att(168,416).
att(424,416).
att(44,47).
att(325,332).
att(246,244).
att(50,45).
att(47,46).
att(249,243).
att(374,459).
att(427,331).
att(170,162).
att(273,175).
att(334,329).
att(331,330).
att(469,463).
att(491,282).
att(492,53).
att(364,294).
att(450,57).
att(416,28).
att(96,33).
att(474,346).
att(5,263).
att(203,19).
att(428,434).
att(480,227).
att(103,332).
att(447,325).
att(358,353).
att(355,354).
att(330,322).
att(42,48).
att(51,45).
att(372,185).
att(233,365).
att(432,337).
att(294,469).
att(374,392).
att(8,210).
att(212,207).
att(209,208).
att(11,227).
att(372,371).
att(8,141).
att(424,429).
att(442,397).
att(475,406).
att(492,39).
att(10,290).
att(433,426).
att(430,427).
att(117,122).
att(189,187).
att(398,391).
att(389,394).
att(312,75).
att(435,137).
att(186,157).
att(270,15).
att(442,319).
att(164,57).
att(279,285).
att(438,437).
att(216,287).
att(469,326).
att(208,166).
att(5,499).
att(282,284).
att(221,18).
att(496,494).
att(493,495).
att(177,176).
att(210,133).
att(41,49).
att(26,472).
att(366,126).
att(211,319).
att(44,48).
att(50,46).
att(160,58).
att(215,219).
att(26,309).
att(319,122).
att(347,349).
att(311,284).
att(74,366).
att(82,37).
att(300,306).
att(350,348).
att(353,347).
att(329,105).
att(129,94).
att(76,385).
att(109,125).
att(231,226).
att(140,155).
att(70,425).
att(214,346).
att(11,166).
att(368,365).
att(300,216).
att(404,396).
att(82,135).
att(112,124).
att(489,80).
att(130,223).
att(380,500).
att(48,47).
att(417,425).
att(115,123).
att(413,271).
att(426,422).
att(397,93).
att(438,159).
att(118,122).
att(475,467).
att(274,277).
att(67,277).
att(435,201).
att(172,259).
att(392,379).
att(143,135).
att(314,319).
att(436,444).
att(49,47).
att(250,254).
att(281,233).
att(294,299).
att(476,449).
att(244,245).
att(108,361).
att(63,495).
att(271,268).
att(383,456).
att(152,423).
att(204,210).
att(184,189).
att(193,186).
att(50,257).
att(264,191).
att(99,104).
att(311,124).
att(312,369).
att(108,101).
att(408,415).
att(409,227).
att(378,290).
att(409,408).
att(75,82).
att(306,14).
att(317,137).
att(414,413).
att(110,71).
att(273,162).
att(42,50).
att(116,123).
att(117,478).
att(455,456).
att(119,122).
att(54,46).
att(294,343).
att(326,332).
att(381,194).
att(487,486).
att(169,163).
att(166,164).
att(335,329).
att(9,64).
att(147,153).
att(203,197).
att(132,139).
att(72,275).
att(390,251).
att(186,485).
att(455,450).
att(452,451).
att(319,326).
att(104,332).
att(464,459).
att(67,116).
att(141,136).
att(291,327).
att(249,376).
att(222,217).
att(219,218).
att(487,105).
att(350,356).
att(70,388).
att(97,105).
att(52,47).
att(466,96).
att(28,398).
att(356,354).
att(95,488).
att(223,229).
att(280,285).
att(407,402).
att(481,308).
att(226,228).
att(401,404).
att(79,81).
att(111,307).
att(45,437).
att(262,346).
att(229,227).
att(286,283).
att(361,360).
att(393,94).
att(449,470).
att(337,146).
att(13,352).
att(422,417).
att(32,365).
att(339,344).
att(342,343).
att(416,419).
att(121,143).
att(53,47).
att(50,48).
att(53,415).
att(470,326).
att(172,145).
att(83,478).
att(266,135).
att(373,371).
att(185,141).
att(126,120).
att(185,189).
att(64,350).
att(55,189).
att(220,205).
att(191,187).
att(383,375).
att(276,496).
att(204,341).
att(497,311).
att(374,378).
att(110,296).
att(333,338).
att(336,337).
att(214,207).
att(387,395).
att(461,466).
att(211,208).
att(272,278).
att(339,336).
att(239,247).
att(467,464).
att(275,277).
att(449,446).
att(133,139).
att(194,306).
att(270,202).
att(251,243).
att(387,388).
att(363,230).
att(265,439).
att(477,373).
att(139,137).
att(148,153).
att(168,284).
att(206,401).
att(285,293).
att(164,165).
att(157,150).
att(151,152).
att(167,164).
att(351,348).
att(376,465).
att(390,278).
att(259,262).
att(294,290).
att(232,238).
att(55,47).
att(272,268).
att(412,176).
att(11,228).
att(289,301).
att(238,236).
att(241,235).
att(120,280).
att(442,436).
att(439,437).
att(436,438).
att(282,474).
att(292,300).
att(195,200).
att(387,296).
att(430,367).
att(90,108).
att(198,199).
att(28,159).
att(78,82).
att(87,79).
att(324,316).
att(84,80).
att(16,433).
att(47,50).
att(143,28).
att(53,48).
att(50,49).
att(199,52).
att(121,122).
att(393,400).
att(434,88).
att(402,397).
att(396,399).
att(313,311).
att(421,152).
att(446,245).
att(452,346).
att(269,423).
att(94,37).
att(141,64).
att(360,100).
att(133,66).
att(319,222).
att(418,425).
att(387,381).
att(227,228).
att(184,310).
att(230,227).
att(500,196).
att(456,27).
att(165,487).
att(161,239).
att(146,154).
att(174,178).
att(178,342).
att(358,52).
att(47,193).
att(180,176).
att(307,15).
att(341,319).
att(149,153).
att(159,167).
att(319,426).
att(355,101).
att(155,151).
att(46,51).
att(278,286).
att(414,142).
att(60,89).
att(19,186).
att(281,285).
att(217,179).
att(233,422).
att(71,85).
att(473,468).
att(298,156).
att(440,443).
att(432,212).
att(323,325).
att(489,427).
att(404,410).
att(208,311).
att(111,370).
att(106,103).
att(44,52).
att(409,415).
att(174,446).
att(410,408).
att(413,407).
att(47,51).
att(56,48).
att(86,80).
att(156,132).
att(92,388).
att(208,51).
att(60,281).
att(196,200).
att(256,18).
att(398,12).
att(192,346).
att(488,81).
att(255,253).
att(162,394).
att(233,238).
att(132,140).
att(276,277).
att(236,237).
att(462,454).
att(453,457).
att(120,70).
att(471,212).
att(182,279).
att(74,43).
att(144,136).
att(302,306).
att(141,137).
att(263,261).
att(294,335).
att(459,455).
att(98,487).
att(267,270).
att(402,404).
att(78,83).
att(90,79).
att(408,402).
att(486,481).
att(483,482).
att(450,452).
att(150,153).
att(25,323).
att(23,61).
att(120,123).
att(325,136).
att(373,247).
att(49,51).
att(126,121).
att(113,271).
att(52,50).
att(184,190).
att(400,133).
att(311,38).
att(482,488).
att(102,288).
att(178,177).
att(372,379).
att(420,418).
att(484,129).
att(487,276).
att(423,417).
att(163,166).
att(491,485).
att(307,322).
att(370,293).
att(375,378).
att(475,479).
att(296,299).
att(427,173).
att(139,30).
att(378,377).
att(330,436).
att(406,389).
att(380,315).
att(423,224).
att(65,371).
att(50,51).
att(91,79).
att(464,71).
att(79,83).
att(329,56).
att(204,211).
att(385,389).
att(394,393).
att(394,386).
att(285,210).
att(463,258).
att(210,209).
att(28,160).
att(99,106).
att(133,140).
att(216,355).
att(102,105).
att(380,173).
att(105,104).
att(136,139).
att(161,309).
att(420,431).
att(139,138).
att(57,49).
att(423,430).
att(256,284).
att(496,489).
att(379,13).
att(453,445).
att(459,467).
att(44,195).
att(121,123).
att(462,466).
att(127,121).
att(314,38).
att(241,463).
att(325,187).
att(100,206).
att(322,439).
att(80,83).
att(282,285).
att(473,474).
att(153,415).
att(440,437).
att(403,397).
att(314,178).
att(315,328).
att(226,483).
att(359,412).
att(250,255).
att(240,236).
att(170,164).
att(385,382).
att(100,106).
att(259,252).
att(129,277).
att(17,433).
att(337,329).
att(213,221).
att(185,190).
att(379,273).
att(319,273).
att(324,325).
att(312,153).
att(53,51).
att(191,188).
att(327,324).
att(63,392).
att(255,264).
att(266,204).
att(494,93).
att(324,163).
att(261,262).
att(87,81).
att(73,301).
att(89,110).
att(425,423).
att(343,284).
att(166,60).
att(410,155).
att(296,207).
att(477,346).
att(51,52).
att(412,143).
att(44,401).
att(11,143).
att(489,396).
att(303,306).
att(349,357).
att(45,230).
att(134,32).
att(28,334).
att(107,37).
att(103,411).
att(205,211).
att(395,49).
att(361,353).
att(264,44).
att(171,236).
att(308,95).
att(293,291).
att(437,29).
att(164,495).
att(276,18).
att(5,500).
att(462,110).
att(158,151).
att(438,444).
att(63,480).
att(444,148).
att(68,203).
att(88,81).
att(82,83).
att(441,443).
att(326,187).
att(350,333).
att(444,442).
att(422,411).
att(465,471).
att(181,360).
att(198,200).
att(477,83).
att(204,198).
att(439,462).
att(474,468).
att(303,297).
att(468,470).
att(335,338).
att(221,22).
att(341,336).
att(119,404).
att(442,411).
att(353,393).
att(165,166).
att(123,99).
att(338,353).
att(245,90).
att(205,271).
att(222,353).
att(375,371).
att(126,122).
att(164,427).
att(144,137).
att(378,370).
att(317,319).
att(406,423).
att(444,484).
att(321,397).
att(334,287).
att(186,190).
att(309,313).
att(347,350).
att(99,107).
att(448,459).
att(48,54).
att(173,294).
att(299,97).
att(242,247).
att(54,52).
att(351,203).
att(435,161).
att(241,236).
att(280,286).
att(3,309).
att(223,218).
att(220,219).
att(283,285).
att(376,420).
att(289,354).
att(144,93).
att(415,420).
att(496,169).
att(429,76).
att(147,155).
att(260,252).
att(80,488).
att(10,247).
att(344,55).
att(454,451).
att(457,450).
att(403,275).
att(466,459).
att(460,461).
att(371,365).
att(52,53).
att(368,366).
att(457,462).
att(152,390).
att(487,481).
att(147,258).
att(463,460).
att(201,54).
att(81,84).
att(477,287).
att(303,142).
att(26,390).
att(239,310).
att(205,24).
att(51,335).
att(382,245).
att(145,271).
att(340,383).
att(24,64).
att(134,448).
att(212,209).
att(342,237).
att(99,376).
att(495,407).
att(133,141).
att(275,278).
att(473,480).
att(278,277).
att(167,87).
att(481,42).
att(109,104).
att(59,51).
att(104,39).
att(172,164).
att(319,327).
att(169,165).
att(414,131).
att(205,198).
att(294,327).
att(434,433).
att(157,63).
att(257,20).
att(500,499).
att(444,45).
att(178,193).
att(184,176).
att(328,261).
att(85,470).
att(337,207).
att(79,85).
att(427,429).
att(456,99).
att(15,425).
att(487,118).
att(125,197).
att(48,55).
att(82,84).
att(413,166).
att(389,381).
att(357,485).
att(386,382).
att(398,399).
att(454,59).
att(386,430).
att(310,304).
att(460,467).
att(187,190).
att(49,399).
att(190,189).
att(159,483).
att(432,440).
att(452,12).
att(31,321).
att(357,271).
att(106,39).
att(337,304).
att(421,295).
att(148,155).
att(321,343).
att(438,248).
att(151,154).
att(2,75).
att(477,142).
att(471,475).
att(49,55).
att(122,124).
att(209,223).
att(156,229).
att(128,122).
att(309,180).
att(189,230).
att(339,345).
att(295,300).
att(36,180).
att(339,90).
att(338,286).
att(304,297).
att(338,37).
att(301,298).
att(356,355).
att(345,343).
att(318,368).
att(86,83).
att(276,65).
att(218,220).
att(278,496).
att(137,140).
att(221,219).
att(491,243).
att(271,120).
att(363,101).
att(243,247).
att(242,236).
att(429,422).
att(423,424).
att(99,422).
att(426,423).
att(62,393).
att(239,237).
att(173,60).
att(339,37).
att(50,55).
att(399,470).
att(336,338).
att(59,308).
att(293,115).
att(170,400).
att(239,485).
att(428,309).
att(201,213).
att(170,165).
att(249,481).
att(249,256).
att(324,317).
att(318,319).
att(429,204).
att(258,253).
att(216,208).
att(315,414).
att(213,209).
att(406,410).
att(412,408).
att(124,411).
att(234,227).
att(105,106).
att(374,301).
att(90,82).
att(287,284).
att(57,53).
att(367,374).
att(120,125).
att(203,199).
att(498,55).
att(345,351).
att(286,330).
att(94,458).
att(123,124).
att(370,373).
att(126,123).
att(257,264).
att(351,349).
att(395,372).
att(417,413).
att(310,40).
att(350,317).
att(376,371).
att(149,155).
att(101,41).
att(280,427).
att(466,12).
att(158,152).
att(185,191).
att(52,55).
att(274,298).
att(379,471).
att(277,490).
att(240,310).
att(401,405).
att(383,376).
att(148,66).
att(380,377).
att(410,402).
att(26,465).
att(413,255).
att(121,421).
att(368,456).
att(79,86).
att(82,85).
att(472,469).
att(378,392).
att(358,466).
att(372,365).
att(363,368).
att(112,104).
att(369,366).
att(53,55).
att(168,197).
att(37,424).
att(329,231).
att(387,389).
att(189,409).
att(388,97).
att(168,166).
att(16,228).
att(323,326).
att(330,332).
att(228,360).
att(329,324).
att(326,325).
att(130,122).
att(300,129).
att(127,123).
att(225,218).
att(91,380).
att(341,383).
att(468,195).
att(364,329).
att(51,56).
att(325,350).
att(60,53).
att(89,83).
att(34,267).
att(406,14).
att(241,248).
att(352,16).
att(180,127).
att(209,376).
att(177,179).
att(244,247).
att(455,463).
att(200,466).
att(250,245).
att(311,295).
att(89,492).
att(159,152).
att(458,462).
att(346,146).
att(257,107).
att(214,209).
att(211,210).
att(464,460).
att(473,486).
att(201,200).
att(104,107).
att(145,138).
att(107,106).
att(324,485).
att(61,53).
att(378,385).
att(214,453).
att(226,230).
att(58,54).
att(442,256).
att(172,485).
att(347,381).
att(479,484).
att(186,191).
att(256,254).
att(9,409).
att(151,449).
att(191,477).
att(438,432).
att(273,203).
att(435,433).
att(340,345).
att(413,453).
att(25,457).
att(425,430).
att(282,84).
att(119,126).
att(90,83).
att(20,288).
att(421,78).
att(343,344).
att(76,201).
att(122,125).
att(302,316).
att(360,354).
att(477,479).
att(484,488).
att(14,426).
att(258,264).
att(313,321).
att(308,314).
att(454,100).
att(123,315).
att(264,262).
att(316,320).
att(72,379).
att(452,446).
att(147,410).
att(446,448).
att(201,305).
att(400,50).
att(280,382).
att(105,107).
att(30,65).
att(240,23).
att(108,106).
att(51,57).
att(165,319).
att(97,465).
att(464,466).
att(217,98).
att(149,137).
att(398,452).
att(131,162).
att(98,396).
att(17,228).
att(226,218).
att(88,46).
att(223,219).
att(427,423).
att(469,476).
att(331,450).
att(267,205).
att(478,473).
att(117,245).
att(445,114).
att(495,490).
att(245,426).
att(221,277).
att(495,298).
att(404,411).
att(123,125).
att(333,422).
att(198,467).
att(374,372).
att(48,129).
att(232,240).
att(235,239).
att(244,236).
att(243,200).
att(241,237).
att(487,236).
att(409,416).
att(30,137).
att(415,414).
att(290,293).
att(382,362).
att(381,377).
att(224,231).
att(176,209).
att(414,188).
att(321,327).
att(230,229).
att(399,406).
att(77,201).
att(173,165).
att(421,364).
att(337,330).
att(331,332).
att(238,479).
att(312,304).
att(289,424).
att(309,305).
att(408,403).
att(278,406).
att(254,255).
att(452,382).
att(54,57).
att(84,86).
att(297,300).
att(247,158).
att(87,85).
att(267,387).
att(386,98).
att(338,480).
att(92,306).
att(301,280).
att(467,471).
att(35,478).
att(423,418).
att(271,353).
att(441,127).
att(188,205).
att(54,127).
att(212,223).
att(222,53).
att(300,420).
att(122,446).
att(500,494).
att(289,284).
att(215,222).
att(391,111).
att(58,297).
att(181,30).
att(7,500).
att(392,224).
att(467,306).
att(252,109).
att(309,216).
att(113,247).
att(245,173).
att(202,315).
att(197,202).
att(275,269).
att(272,270).
att(269,271).
att(391,381).
att(312,313).
att(298,442).
att(185,192).
att(385,383).
att(372,128).
att(317,320).
att(315,312).
att(446,384).
att(320,319).
att(332,340).
att(136,142).
att(45,61).
att(410,133).
att(194,189).
att(191,190).
att(288,44).
att(464,242).
att(14,407).
att(119,127).
att(420,207).
att(165,168).
att(286,234).
att(84,215).
att(131,123).
att(254,392).
att(111,106).
att(8,233).
att(453,452).
att(111,204).
att(274,352).
att(353,291).
att(292,198).
att(77,89).
att(242,237).
att(336,39).
att(23,141).
att(468,488).
att(210,27).
att(357,363).
att(461,216).
att(60,56).
att(80,88).
att(363,361).
att(425,92).
att(129,364).
att(430,435).
att(199,326).
att(83,87).
att(426,430).
att(241,397).
att(253,480).
att(404,431).
att(92,84).
att(246,247).
att(436,433).
att(140,193).
att(209,433).
att(143,261).
att(251,49).
att(114,285).
att(101,174).
att(174,181).
att(138,263).
att(287,255).
att(115,473).
att(177,180).
att(298,449).
att(486,482).
att(288,294).
att(379,197).
att(79,405).
att(194,328).
att(294,292).
att(74,185).
att(139,160).
att(29,358).
att(447,448).
att(475,480).
att(238,189).
att(346,120).
att(483,13).
att(365,251).
att(482,489).
att(292,132).
att(182,108).
att(310,97).
att(440,438).
att(129,124).
att(126,125).
att(137,142).
att(119,494).
att(378,371).
att(372,373).
att(140,141).
att(143,140).
att(148,283).
att(56,58).
att(177,62).
att(446,181).
att(328,325).
att(5,120).
att(203,420).
att(60,432).
att(405,249).
att(473,110).
att(384,174).
att(329,333).
att(169,167).
att(272,290).
att(462,467).
att(344,18).
att(182,292).
att(186,192).
att(151,156).
att(304,298).
att(405,411).
att(208,303).
att(465,466).
att(172,374).
att(445,31).
att(157,154).
att(301,299).
att(195,189).
att(260,264).
att(266,262).
att(172,456).
att(490,130).
att(370,259).
att(214,210).
att(54,59).
att(362,369).
att(55,228).
att(51,313).
att(419,166).
att(281,287).
att(88,86).
att(120,439).
att(487,493).
att(204,273).
att(391,253).
att(342,453).
att(490,492).
att(387,162).
att(270,271).
att(410,375).
att(409,403).
att(273,270).
att(52,60).
att(383,391).
att(143,37).
att(469,241).
att(267,461).
att(240,238).
att(61,57).
att(282,277).
att(126,165).
att(392,388).
att(307,315).
att(486,398).
att(283,201).
att(356,89).
att(389,396).
att(235,228).
att(196,337).
att(241,249).
att(412,265).
att(398,393).
att(395,394).
att(206,139).
att(392,395).
att(482,153).
att(244,248).
att(444,443).
att(441,444).
att(261,497).
att(318,320).
att(288,118).
att(438,183).
att(339,346).
att(56,59).
att(345,344).
att(87,363).
att(149,157).
att(62,57).
att(81,395).
att(333,340).
att(23,142).
att(152,156).
att(111,107).
att(161,153).
att(167,168).
att(415,421).
att(247,387).
att(198,398).
att(235,75).
att(353,357).
att(483,183).
att(148,496).
att(431,15).
att(408,316).
att(380,385).
att(187,192).
att(195,30).
att(106,45).
att(54,60).
att(483,399).
att(465,14).
att(137,361).
att(122,127).
att(57,59).
att(63,57).
att(81,89).
att(489,162).
att(418,494).
att(84,88).
att(474,469).
att(298,291).
att(226,219).
att(90,86).
att(218,338).
att(295,292).
att(103,356).
att(254,222).
att(395,401).
att(401,399).
att(190,144).
att(398,400).
att(304,270).
att(402,202).
att(5,151).
att(407,16).
att(343,412).
att(112,107).
att(444,150).
att(351,326).
att(313,363).
att(248,362).
att(305,307).
att(267,262).
att(457,451).
att(451,453).
att(303,130).
att(437,48).
att(430,454).
att(262,470).
att(85,162).
att(12,232).
att(313,237).
att(85,88).
att(302,299).
att(323,327).
att(305,298).
att(299,300).
att(332,324).
att(17,479).
att(164,114).
att(78,424).
att(433,428).
att(430,429).
att(156,155).
att(285,365).
att(346,311).
att(367,375).
att(288,223).
att(282,287).
att(171,167).
att(265,273).
att(132,124).
att(232,76).
att(44,199).
att(291,284).
att(285,286).
att(131,489).
att(233,229).
att(114,170).
att(295,65).
att(100,326).
att(24,361).
att(198,453).
att(292,174).
att(113,107).
att(53,154).
att(116,407).
att(63,58).
att(435,440).
att(143,141).
att(351,430).
att(469,306).
att(487,482).
att(484,483).
att(380,378).
att(398,52).
att(369,367).
att(492,292).
att(283,135).
att(490,397).
att(87,51).
att(412,409).
att(381,348).
att(9,420).
att(416,178).
att(5,422).
att(483,489).
att(324,178).
att(64,58).
att(110,491).
att(61,59).
att(477,98).
att(227,219).
att(251,257).
att(224,220).
att(492,486).
att(241,146).
att(213,211).
att(325,359).
att(417,414).
att(127,126).
att(143,193).
att(42,105).
att(469,465).
att(154,156).
att(160,154).
att(105,110).
att(410,239).
att(312,409).
att(108,109).
att(387,390).
att(323,79).
att(163,170).
att(388,481).
att(92,50).
att(471,370).
att(287,331).
att(393,388).
att(390,389).
att(334,340).
att(177,439).
att(65,58).
att(459,61).
att(398,459).
att(393,395).
att(361,323).
att(471,476).
att(410,266).
att(468,423).
att(21,328).
att(259,265).
att(45,104).
att(408,347).
att(144,141).
att(360,355).
att(357,356).
att(54,62).
att(422,288).
att(66,149).
att(160,414).
att(216,29).
att(120,78).
att(377,71).
att(488,493).
att(225,232).
att(245,237).
att(242,238).
att(491,492).
att(24,74).
att(451,441).
att(228,231).
att(381,385).
att(288,322).
att(445,443).
att(356,364).
att(90,51).
att(192,191).
att(312,305).
att(359,363).
att(106,429).
att(481,247).
att(125,127).
att(309,306).
att(57,367).
att(273,24).
att(192,61).
att(419,420).
att(464,31).
att(151,70).
att(207,200).
att(261,25).
att(246,248).
att(352,350).
att(355,349).
att(161,154).
att(289,285).
att(158,155).
att(272,281).
att(447,90).
att(330,325).
att(327,326).
att(434,64).
att(343,329).
att(405,398).
att(328,334).
att(208,213).
att(211,155).
att(198,276).
att(331,333).
att(214,211).
att(219,222).
att(297,117).
att(222,221).
att(139,143).
att(298,483).
att(61,297).
att(148,140).
att(494,71).
att(65,59).
att(229,193).
att(416,352).
att(60,467).
att(475,469).
att(497,369).
att(431,325).
att(252,257).
att(161,342).
att(477,73).
att(69,471).
att(450,181).
att(364,398).
att(237,76).
att(455,458).
att(135,226).
att(232,133).
att(493,191).
att(175,90).
att(60,61).
att(84,90).
att(438,433).
att(432,435).
att(490,498).
att(65,331).
att(183,259).
att(318,312).
att(332,316).
att(248,74).
att(402,464).
att(252,326).
att(326,318).
att(150,158).
att(85,142).
att(207,324).
att(384,377).
att(373,366).
att(402,83).
att(162,154).
att(39,69).
att(159,155).
att(295,23).
att(370,269).
att(464,461).
att(194,498).
att(58,62).
att(226,232).
att(234,241).
att(240,357).
att(19,317).
att(105,111).
att(266,182).
att(229,231).
att(266,263).
att(458,199).
att(235,229).
att(404,412).
att(205,201).
att(96,294).
att(85,90).
att(445,437).
att(424,425).
att(442,438).
att(289,460).
att(416,408).
att(421,426).
att(436,440).
att(347,344).
att(269,320).
att(449,448).
att(265,169).
att(56,63).
att(424,80).
att(107,134).
att(65,60).
att(409,417).
att(289,403).
att(250,247).
att(399,407).
att(408,191).
att(217,223).
att(388,390).
att(485,59).
att(408,404).
att(341,399).
att(139,74).
att(22,460).
att(136,42).
att(304,308).
att(57,273).
att(310,306).
att(381,356).
att(243,189).
att(405,250).
att(260,26).
att(295,302).
att(66,255).
att(281,288).
att(102,225).
att(99,158).
att(162,332).
att(477,480).
att(278,88).
att(301,300).
att(290,285).
att(115,108).
att(66,60).
att(95,87).
att(276,280).
att(461,468).
att(470,465).
att(467,466).
att(490,487).
att(493,486).
att(372,359).
att(418,81).
att(138,144).
att(293,211).
att(250,258).
att(188,193).
att(322,328).
att(381,101).
att(262,254).
att(331,325).
att(389,481).
att(131,126).
att(128,127).
att(353,183).
att(307,250).
att(61,62).
att(210,351).
att(345,312).
att(64,61).
att(261,443).
att(110,383).
att(177,182).
att(89,478).
att(354,91).
att(14,149).
att(335,332).
att(166,170).
att(485,271).
att(84,91).
att(478,474).
att(186,234).
att(440,445).
att(93,88).
att(90,89).
att(235,446).
att(417,189).
att(456,340).
att(179,65).
att(117,433).
att(321,22).
att(116,108).
att(349,217).
att(52,314).
att(227,232).
att(360,119).
att(341,60).
att(27,143).
att(402,260).
att(51,276).
att(457,354).
att(62,271).
att(316,313).
att(313,314).
att(417,35).
att(267,263).
att(375,442).
att(453,210).
att(164,311).
att(104,239).
att(386,425).
att(491,142).
att(210,213).
att(74,380).
att(123,129).
att(318,321).
att(262,126).
att(90,297).
att(57,64).
att(132,126).
att(88,90).
att(142,143).
att(281,69).
att(52,326).
att(190,493).
att(109,264).
att(178,112).
att(445,212).
att(350,302).
att(17,194).
att(416,67).
att(328,411).
att(365,369).
att(108,111).
att(451,429).
att(373,381).
att(455,499).
att(136,212).
att(268,273).
att(225,288).
att(164,171).
att(430,436).
att(339,347).
att(64,62).
att(320,236).
att(167,170).
att(456,458).
att(436,434).
att(439,433).
att(435,428).
att(336,340).
att(158,118).
att(86,91).
att(271,154).
att(312,217).
att(462,456).
att(392,474).
att(282,288).
att(302,309).
att(459,451).
att(296,302).
att(285,287).
att(418,189).
att(229,344).
att(59,500).
att(360,170).
att(254,257).
att(260,255).
att(59,64).
att(133,126).
att(130,127).
att(386,140).
att(62,63).
att(163,370).
att(405,412).
att(411,410).
att(67,412).
att(146,142).
att(445,306).
att(494,497).
att(336,379).
att(162,155).
att(494,390).
att(240,228).
att(500,495).
att(131,314).
att(19,386).
att(404,294).
att(481,46).
att(86,299).
att(386,391).
att(440,439).
att(251,28).
att(395,388).
att(87,91).
att(57,65).
att(96,88).
att(93,89).
att(410,417).
att(389,397).
att(60,64).
att(150,192).
att(403,406).
att(208,214).
att(221,390).
att(413,416).
att(453,447).
att(365,243).
att(214,212).
att(299,470).
att(148,99).
att(327,335).
att(367,361).
att(470,32).
att(2,286).
att(206,33).
att(79,94).
att(262,265).
att(265,264).
att(187,194).
att(234,482).
att(168,170).
att(400,365).
att(174,168).
att(226,298).
att(171,169).
att(125,129).
att(190,193).
att(176,183).
att(134,126).
att(143,224).
att(439,499).
att(472,135).
att(256,74).
att(110,111).
att(182,181).
att(448,172).
att(246,249).
att(308,316).
att(441,315).
att(249,248).
att(332,272).
att(311,315).
att(253,212).
att(17,214).
att(320,142).
att(244,311).
att(124,283).
att(481,479).
att(103,472).
att(484,478).
att(478,480).
att(151,159).
att(326,433).
att(142,75).
att(127,429).
att(154,158).
att(163,155).
att(193,492).
att(482,490).
att(362,244).
att(55,156).
att(322,320).
att(357,21).
att(65,63).
att(234,56).
att(268,27).
att(269,273).
att(418,421).
att(210,304).
att(499,420).
att(435,447).
att(89,446).
att(29,273).
att(179,407).
att(390,481).
att(120,260).
att(86,92).
att(25,191).
att(72,428).
att(55,427).
att(300,147).
att(146,498).
att(201,62).
att(479,474).
att(310,158).
att(473,476).
att(279,192).
att(287,164).
att(423,156).
att(116,49).
att(283,288).
att(44,161).
att(479,265).
att(419,52).
att(382,341).
att(232,231).
att(112,276).
att(303,309).
att(96,295).
att(175,168).
att(169,170).
att(309,307).
att(369,368).
att(337,340).
att(238,133).
att(177,183).
att(12,85).
att(380,379).
att(487,494).
att(357,394).
att(214,393).
att(70,62).
att(194,192).
att(87,92).
att(197,255).
att(309,46).
att(197,447).
att(455,428).
att(441,267).
att(496,491).
att(102,368).
att(478,439).
att(358,171).
att(256,53).
att(137,103).
att(109,112).
att(33,489).
att(1,203).
att(115,110).
att(260,266).
att(140,380).
att(197,408).
att(59,66).
att(264,382).
att(436,428).
att(273,108).
att(452,312).
att(487,86).
att(127,129).
att(244,250).
att(321,435).
att(258,128).
att(434,435).
att(321,329).
att(261,93).
att(119,441).
att(433,429).
att(389,463).
att(360,356).
att(224,153).
att(349,108).
att(253,247).
att(324,328).
att(330,326).
att(135,434).
att(104,194).
att(333,325).
att(465,473).
att(477,469).
att(448,455).
att(292,339).
att(385,187).
att(460,457).
att(21,172).
att(409,411).
att(343,354).
att(328,397).
att(243,97).
att(334,333).
att(140,145).
att(393,389).
att(408,111).
att(287,49).
att(98,490).
att(359,364).
att(146,143).
att(368,361).
att(355,350).
att(365,362).
att(249,175).
att(401,407).
att(116,110).
att(113,111).
att(426,425).
att(158,72).
att(399,394).
att(407,405).
att(373,260).
att(108,224).
att(457,464).
att(472,357).
att(74,280).
att(316,182).
att(384,165).
att(153,159).
att(366,419).
att(225,168).
att(218,103).
att(156,158).
att(184,181).
att(53,349).
att(18,195).
att(125,130).
att(236,230).
att(317,363).
att(297,444).
att(192,193).
att(134,127).
